LAMMPS (10 Sep 2025)
  using 4 OpenMP thread(s) per MPI task
package gpu 1 neigh yes newton off binsize 2.8 split 1.0
# LAMMPS Input Script: FULLY CORRECTED NPT Equilibration
# Purpose: Equilibrate solvated nanoparticle system at 300K, 1 bar
# Water Model: TIP4P/2005 (implicit M-site)
# GPU acceleration: Enabled for MD stages
#
# COMPLETE FIXES APPLIED (2024-11-13):
# 1. âœ… CRITICAL FIX: PPPM grid locked to prevent recalculation artifacts
# 2. âœ… CRITICAL FIX: Pre-equilibration stage to reduce initial pressure
# 3. âœ… FIXED: Gentler pressure ramp (100 atm â†’ 1 atm) with drag damping
# 4. âœ… FIXED: SHAKE verification and proper constraint application
# 5. âœ… EXTENDED: Longer equilibration (1000 ps) and production (4000 ps)
# 6. âœ… ENHANCED: Multiple density checkpoints to catch failures early
# 7. âœ… OPTIMIZED: 2 fs timestep (SHAKE allows this, 2Ã— speedup)
#
# Total time: 5.22 ns (50ps NVT + 50ps pre-equil + 100ps ramp + 1000ps NPT + 4000ps prod)
#
# ROOT CAUSE OF PREVIOUS FAILURE:
# - PPPM grid recalculation at step 51,000 caused 169,712 atm pressure spike
# - Barostat overreacted â†’ box expanded 63Ã— â†’ gas phase (Ï=0.025 g/cmÂ³)
# - All epsilon values failed identically (proves it's numerical, not physical)
#
# SOLUTION: Lock PPPM grid + reduce initial pressure + add checkpoints

# ===== INITIALIZATION =====
units real
atom_style full
boundary p p p
atom_modify map array

# ===== COMMUNICATION =====
# Increased cutoff to handle potential box fluctuations safely
comm_modify cutoff 18.0

# ===== FORCE FIELD (FULLY GPU-accelerated) =====
# CORRECTED: O=type2, H=type3 (C60 carbon is type1)
pair_style lj/cut/tip4p/long/gpu 2 3 2 1 0.1546 12.0

# ğŸ”§ CRITICAL: Use pppm/gpu for FULL GPU acceleration of Coulomb forces
# pppm/tip4p is CPU-based bottleneck (~90% CPU, ~10% GPU)
# pppm/gpu runs Coulomb solver on GPU â†’ 5-10Ã— speedup for long-range forces
kspace_style pppm/gpu 1.0e-4

# ğŸ”§ CRITICAL FIX #1: Lock PPPM grid to prevent recalculation
# This prevents the 169,712 atm pressure spike that caused gas-phase failure
kspace_modify mesh 50 50 50    # Fixed grid (handles boxes up to ~125 Ã…, increased from 40)
kspace_modify order 5           # Higher interpolation order for accuracy
kspace_modify force/disp/real 0.8  # Balance real/k-space work

bond_style harmonic
angle_style harmonic

read_data large_C60_solvated.data
Reading data file ...
  orthogonal box = (-20 -20 -20) to (20 20 20)
  1 by 1 by 1 MPI processor grid
  reading atoms ...
  5541 atoms
  reading velocities ...
  5541 velocities
  scanning bonds ...
  3 = max bonds/atom
  scanning angles ...
  1 = max angles/atom
  orthogonal box = (-20 -20 -20) to (20 20 20)
  1 by 1 by 1 MPI processor grid
  reading bonds ...
  3844 bonds
  reading angles ...
  1787 angles
Finding 1-2 1-3 1-4 neighbors ...
  special bond factors lj:    0        0        0       
  special bond factors coul:  0        0        0       
     3 = max # of 1-2 neighbors
     6 = max # of 1-3 neighbors
    18 = max # of 1-4 neighbors
    17 = max # of special neighbors
  special bonds CPU = 0.002 seconds
  read_data CPU = 0.052 seconds

# ===== PAIR COEFFICIENTS (CORRECTED ATOM TYPE MAPPING) =====
# Type 1: C60 carbon (180 atoms from 3 C60 particles)
# Type 2: Water oxygen (~2000 molecules)
# Type 3: Water hydrogen (~4000 atoms)
# TIP4P/2005 parameters (verified against literature)
pair_coeff 2 2 0.1852 3.1589    # O-O (type 2, Îµ=0.1852 kcal/mol, Ïƒ=3.1589 Ã…)
pair_coeff 3 3 0.0 0.0          # H-H (type 3, no interaction)

# C60 fullerene parameters
pair_coeff 1 1 0.07 3.4         # C-C (type 1, Îµ=0.07 kcal/mol, Ïƒ=3.4 Ã…)

# C60-water cross interactions
# Tunable parameter (passed from bash script via -var)
variable epsilon_co equal ${EPSILON_CO}
variable epsilon_co equal 0.10
pair_coeff 1 2 ${epsilon_co} 3.2   # C-O (hydrophobicity parameter)
pair_coeff 1 2 0.1 3.2   
pair_coeff 1 3 0.0 0.0             # C-H (no interaction)
pair_coeff 2 3 0.0 0.0             # O-H (no LJ, only Coulombic)

# Bond and angle coefficients
bond_coeff 1 938.0 1.42         # C-C bonds in C60 (bond type 1)
bond_coeff 2 0.0 0.9572         # O-H bonds in water (bond type 2, SHAKE controlled)
angle_coeff 1 0.0 104.52        # H-O-H angle in water (angle type 1, SHAKE controlled)

# ===== SETTINGS =====
neighbor 2.0 bin                 # Increased skin for safety
neigh_modify delay 5 every 1 check yes

# Define groups (CORRECTED)
group carbon type 1        # C60 atoms (type 1)
180 atoms in group carbon
group water type 2 3       # All water atoms (O=type2, H=type3)
5361 atoms in group water
group oxygen type 2        # Water oxygen atoms (type 2)
1787 atoms in group oxygen
group hydrogen type 3      # Water hydrogen atoms (type 3)
3574 atoms in group hydrogen

# Define thermodynamic variables
variable temp equal c_thermo_temp
variable press equal c_thermo_press
variable pe equal pe
variable ke equal ke
variable etotal equal etotal
variable vol equal vol
variable dens equal density

thermo_style custom step temp press vol pe ke etotal density
thermo 1000

# ğŸ”§ CRITICAL FIX #2: Use 2 fs timestep (SHAKE allows this, 2Ã— speedup)
timestep 2.0

# Print system info
print "â•â•â•â•â•â•â•â•â•â•â•â•â•â•â•â•â•â•â•â•â•â•â•â•â•â•â•â•â•â•â•â•â•â•â•â•â•â•â•â•â•â•â•â•â•â•â•â•â•â•â•â•â•â•â•â•â•â•â•â•â•â•â•â•â•â•â•â•â•â•â•â•â•â•â•â•"
WARNING: Detected non-ASCII characters in input. Will try to continue by replacing with ASCII equivalents where known. (src/input.cpp:479)
••••••••••••••••••••••••••••••••••••••••••••••••••••••••••••••••••••••••••••
print "SYSTEM INFORMATION:"
SYSTEM INFORMATION:
print "  Epsilon (O-C): ${epsilon_co} kcal/mol"
  Epsilon (O-C): 0.1 kcal/mol
print "  Random seed:   ${RANDOM_SEED}"
  Random seed:   42
print "  Timestep:      2.0 fs (with SHAKE constraints)"
  Timestep:      2.0 fs (with SHAKE constraints)
print "  PPPM grid:     40Ã—40Ã—40 (LOCKED to prevent artifacts)"
  PPPM grid:     40—40—40 (LOCKED to prevent artifacts)
print "â•â•â•â•â•â•â•â•â•â•â•â•â•â•â•â•â•â•â•â•â•â•â•â•â•â•â•â•â•â•â•â•â•â•â•â•â•â•â•â•â•â•â•â•â•â•â•â•â•â•â•â•â•â•â•â•â•â•â•â•â•â•â•â•â•â•â•â•â•â•â•â•â•â•â•â•"
••••••••••••••••••••••••••••••••••••••••••••••••••••••••••••••••••••••••••••
print ""


#==============================================================================
# STAGE 0: Gentle Minimization (CPU pair style for stability)
#==============================================================================
print "===== STAGE 0: Gentle Minimization (removing any overlaps) ====="
===== STAGE 0: Gentle Minimization (removing any overlaps) =====
print "Using CPU pair style for numerical stability during minimization"
Using CPU pair style for numerical stability during minimization
print ""


# Switch to CPU pair style for minimization (GPU can be unstable)
pair_style lj/cut/tip4p/long 2 3 2 1 0.1546 12.0
kspace_style pppm/tip4p 1.0e-4
kspace_modify mesh 50 50 50
kspace_modify order 5

# Re-apply pair coefficients with current epsilon_co
pair_coeff 1 1 0.07 3.4            # C-C
pair_coeff 2 2 0.1852 3.1589       # O-O
pair_coeff 3 3 0.0 0.0             # H-H
pair_coeff 1 2 ${epsilon_co} 3.2   # C-O (variable)
pair_coeff 1 2 0.1 3.2   
pair_coeff 1 3 0.0 0.0             # C-H
pair_coeff 2 3 0.0 0.0             # O-H

# Very gentle minimization (just remove bad contacts, if any)
# Using very relaxed tolerances and limited steps for speed
thermo 100
minimize 0.0 10.0 10 100  # Ultra-gentle: etol=0, ftol=10, max 10 eval, max 100 iter

CITE-CITE-CITE-CITE-CITE-CITE-CITE-CITE-CITE-CITE-CITE-CITE-CITE

Your simulation uses code contributions which should be cited:

- GPU package (short-range, long-range and three-body potentials): doi:10.1016/j.cpc.2010.12.021, doi:10.1016/j.cpc.2011.10.012, doi:10.1016/j.cpc.2013.08.002, doi:10.1016/j.commatsci.2014.10.068, doi:10.1016/j.cpc.2016.10.020, doi:10.3233/APC200086

@Article{Brown11,
 author = {W. M. Brown and P. Wang and S. J. Plimpton and A. N. Tharrington},
 title = {Implementing Molecular Dynamics on Hybrid High Performance Computers---Short Range Forces},
 journal = {Comput.\ Phys.\ Commun.},
 year =    2011,
 volume =  182,
 pages =   {898--911},
 doi =     {10.1016/j.cpc.2010.12.021}
}

@Article{Brown12,
 author = {W. M. Brown and A. Kohlmeyer and S. J. Plimpton and A. N. Tharrington},
 title = {Implementing Molecular Dynamics on Hybrid High Performance Computers - Particle-Particle Particle-Mesh},
 journal = {Comput.\ Phys.\ Commun.},
 year =    2012,
 volume =  183,
 doi =     {10.1016/j.cpc.2011.10.012},
 pages =   {449--459}
}

@Article{Brown13,
 author = {W. M. Brown and Y. Masako},
 title = {Implementing Molecular Dynamics on Hybrid High Performance Computers---Three-Body Potentials},
 journal = {Comput.\ Phys.\ Commun.},
 year =    2013,
 volume =  184,
 pages =   {2785--2793},
 doi =     {10.1016/j.cpc.2013.08.002},
}

@Article{Trung15,
 author = {T. D. Nguyen and S. J. Plimpton},
 title = {Accelerating Dissipative Particle Dynamics Simulations for Soft Matter Systems},
 journal = {Comput.\ Mater.\ Sci.},
 year =    2015,
 doi =     {10.1016/j.commatsci.2014.10.068},
 volume =  100,
 pages =   {173--180}
}

@Article{Trung17,
 author = {T. D. Nguyen},
 title = {{GPU}-Accelerated {T}ersoff Potentials for Massively Parallel
    Molecular Dynamics Simulations},
 journal = {Comput.\ Phys.\ Commun.},
 year =    2017,
 doi =     {10.1016/j.cpc.2016.10.020},
 volume =  212,
 pages =   {113--122}
}

@inproceedings{Nikolskiy19,
 author = {V. Nikolskiy and V. Stegailov},
 title = {{GPU} Acceleration of Four-Site Water Models in {LAMMPS}},
 booktitle = {Proceedings of the International Conference on Parallel
    Computing (ParCo 2019), Prague, Czech Republic},
 doi =     {10.3233/APC200086},
 year =    2019
}

CITE-CITE-CITE-CITE-CITE-CITE-CITE-CITE-CITE-CITE-CITE-CITE-CITE

Switching to 'neigh_modify every 1 delay 0 check yes' setting during minimization
PPPM initialization ...
  extracting TIP4P info from pair style
  using 12-bit tables for long-range coulomb
  G vector (1/distance) = 0.28512662
  grid = 50 50 50
  stencil order = 5
  estimated absolute RMS force accuracy = 0.00038934319
  estimated relative force accuracy = 1.1724955e-06
  using double precision FFTW3
  3d grid and FFT values/proc = 185193 125000
Generated 0 of 3 mixed pair_coeff terms from geometric mixing rule
Per MPI rank memory allocation (min/avg/max) = 50.33 | 50.33 | 50.33 Mbytes
   Step          Temp          Press          Volume         PotEng         KinEng         TotEng        Density    
         0   36.495381      27251.762      64000         -23219.739      602.67332     -22617.066      0.89136653   
        10   36.495381     -19465.62       64000         -142282.87      602.67332     -141680.19      0.89136653   
Loop time of 0.133924 on 4 procs for 10 steps with 5541 atoms

402.7% CPU use with 1 MPI tasks x 4 OpenMP threads

Minimization stats:
  Stopping criterion = max iterations
  Energy initial, next-to-last, final = 
     -23219.7391272527  -124463.083419479  -142282.865354075
  Force two-norm initial, final = 2152.6446 6847.889
  Force max component initial, final = 49.700025 360.12308
  Final line search alpha, max atom move = 0.00038920924 0.14016323
  Iterations, force evaluations = 10 10

MPI task timing breakdown:
Section |  min time  |  avg time  |  max time  |%varavg| %total
---------------------------------------------------------------
Pair    | 0.0039794  | 0.0039794  | 0.0039794  |   0.0 |  2.97
Bond    | 0.0016675  | 0.0016675  | 0.0016675  |   0.0 |  1.25
Kspace  | 0.12366    | 0.12366    | 0.12366    |   0.0 | 92.34
Neigh   | 0          | 0          | 0          |   0.0 |  0.00
Comm    | 0.0020669  | 0.0020669  | 0.0020669  |   0.0 |  1.54
Output  | 6.7778e-05 | 6.7778e-05 | 6.7778e-05 |   0.0 |  0.05
Modify  | 9.51e-07   | 9.51e-07   | 9.51e-07   |   0.0 |  0.00
Other   |            | 0.00248    |            |       |  1.85

Nlocal:           5541 ave        5541 max        5541 min
Histogram: 1 0 0 0 0 0 0 0 0 0
Nghost:          33839 ave       33839 max       33839 min
Histogram: 1 0 0 0 0 0 0 0 0 0
Neighs:              0 ave           0 max           0 min
Histogram: 1 0 0 0 0 0 0 0 0 0

Total # of neighbors = 0
Ave neighs/atom = 0
Ave special neighs/atom = 2.4872767
Neighbor list builds = 0
Dangerous builds = 0

variable pe_minimized equal pe
print "Minimization complete. PE = ${pe_minimized} kcal/mol (was -23,217)"
Minimization complete. PE = -142282.865354075 kcal/mol (was -23,217)

# Switch back to GPU pair style for MD
pair_style lj/cut/tip4p/long/gpu 2 3 2 1 0.1546 12.0
kspace_style pppm/tip4p 1.0e-4
kspace_modify mesh 50 50 50
kspace_modify order 5

# Re-apply pair coefficients again after style change
pair_coeff 1 1 0.07 3.4            # C-C
pair_coeff 2 2 0.1852 3.1589       # O-O
pair_coeff 3 3 0.0 0.0             # H-H
pair_coeff 1 2 ${epsilon_co} 3.2   # C-O (variable)
pair_coeff 1 2 0.1 3.2   
pair_coeff 1 3 0.0 0.0             # C-H
pair_coeff 2 3 0.0 0.0             # O-H

print ""


#==============================================================================
# STAGE 0.5: Apply SHAKE Constraints
#==============================================================================
thermo 1000

# ğŸ”§ CRITICAL FIX #3: Apply SHAKE with proper verification
print "Applying SHAKE constraints..."
Applying SHAKE constraints...
# CORRECTED: bond type 2 = O-H, angle type 1 = H-O-H
fix myshk water shake 0.0001 20 0 b 2 a 1
Finding SHAKE clusters ...
       0 = # of size 2 clusters
       0 = # of size 3 clusters
       0 = # of size 4 clusters
    1787 = # of frozen angles
  find clusters CPU = 0.001 seconds

# Verify SHAKE is working
print "SHAKE constraint verification:"
SHAKE constraint verification:
print "  Expected: ~2000 water molecules with constrained bonds and angles"
  Expected: ~2000 water molecules with constrained bonds and angles
print "  Check minimization output for cluster sizes"
  Check minimization output for cluster sizes
print ""

print "GPU Acceleration Status:"
GPU Acceleration Status:
print "  âœ“ Pair forces (LJ):      GPU (lj/cut/tip4p/long/gpu)"
  œ“ Pair forces (LJ):      GPU (lj/cut/tip4p/long/gpu)
print "  âœ“ Coulomb (PPPM):        CPU (pppm/tip4p) - GPU suffix not available"
  œ“ Coulomb (PPPM):        CPU (pppm/tip4p) - GPU suffix not available
print "  âœ“ Neighbor lists:        GPU (neigh yes)"
  œ“ Neighbor lists:        GPU (neigh yes)
print "  â†’ Expected speedup:      2-3Ã— vs CPU-only version (pair forces only)"
  †’ Expected speedup:      2-3— vs CPU-only version (pair forces only)

#==============================================================================
# STAGE 1: NVT Thermalization (50 ps)
#==============================================================================
print ""

print "===== STAGE 1: NVT Thermalization (50 ps, GPU) ====="
===== STAGE 1: NVT Thermalization (50 ps, GPU) =====
print "Objective: Reach 300K while maintaining initial density"
Objective: Reach 300K while maintaining initial density

velocity all create 300.0 ${RANDOM_SEED} dist gaussian loop geom
velocity all create 300.0 42 dist gaussian loop geom

fix mynvt all nvt temp 300.0 300.0 100.0

# Trajectory output (every 4 ps) - using wrapped coordinates for proper visualization
dump nvt_traj all custom 2000 nvt_thermalization.lammpstrj id type xu yu zu
dump_modify nvt_traj sort id

dump nvt_dcd all dcd 2000 nvt_thermalization.dcd
dump_modify nvt_dcd unwrap yes

run 25000  # 50 ps at 2 fs timestep
PPPM initialization ...
  extracting TIP4P info from pair style
  using 12-bit tables for long-range coulomb
  G vector (1/distance) = 0.28512662
  grid = 50 50 50
  stencil order = 5
  estimated absolute RMS force accuracy = 0.00038934319
  estimated relative force accuracy = 1.1724955e-06
  using double precision FFTW3
  3d grid and FFT values/proc = 185193 125000
Generated 0 of 3 mixed pair_coeff terms from geometric mixing rule
Per MPI rank memory allocation (min/avg/max) = 49.79 | 49.79 | 49.79 Mbytes
   Step          Temp          Press          Volume         PotEng         KinEng         TotEng        Density    
        10   300           -111484.95      64000         -142282.87      3356.094      -138926.77      0.89136653   
      1000   300.25721     -1073.3992      64000         -19894.092      3358.9715     -16535.12       0.89136653   
      2000   303.68978     -1120.5869      64000         -20043.215      3397.3716     -16645.843      0.89136653   
      3000   298.20898     -240.78779      64000         -19976.643      3336.0579     -16640.586      0.89136653   
      4000   304.8421      -304.04279      64000         -19944.127      3410.2625     -16533.864      0.89136653   
      5000   299.46114     -943.02498      64000         -19988.336      3350.0659     -16638.27       0.89136653   
      6000   299.98298     -1450.1603      64000         -20001.217      3355.9036     -16645.313      0.89136653   
      7000   300.9089      -536.93645      64000         -19966.954      3366.2619     -16600.692      0.89136653   
      8000   296.84854     -484.72566      64000         -20024.258      3320.8387     -16703.419      0.89136653   
      9000   305.07549     -1045.5035      64000         -20000.865      3412.8735     -16587.991      0.89136653   
     10000   298.20316     -539.84828      64000         -19933.022      3335.9929     -16597.029      0.89136653   
     11000   308.82312     -894.49725      64000         -20009.658      3454.7981     -16554.859      0.89136653   
     12000   300.12409     -534.71263      64000         -19929.575      3357.4823     -16572.093      0.89136653   
     13000   301.2826      -352.38808      64000         -19958.98       3370.4424     -16588.538      0.89136653   
     14000   306.04621     -481.03067      64000         -19969.135      3423.7328     -16545.402      0.89136653   
     15000   300.78128     -741.80172      64000         -20011.529      3364.8343     -16646.695      0.89136653   
     16000   299.44064     -980.93281      64000         -19939.633      3349.8364     -16589.796      0.89136653   
     17000   304.05751     -629.12377      64000         -19900.118      3401.4853     -16498.632      0.89136653   
     18000   300.87081     -1714.8393      64000         -19991.037      3365.8357     -16625.201      0.89136653   
     19000   304.92363     -589.9836       64000         -19970.502      3411.1746     -16559.327      0.89136653   
     20000   304.34738     -1205.5218      64000         -19915.141      3404.7281     -16510.413      0.89136653   
     21000   301.06417     -464.84766      64000         -19973.56       3367.9989     -16605.561      0.89136653   
     22000   296.72341     -1286.4976      64000         -19826.391      3319.4388     -16506.953      0.89136653   
     23000   291.31535     -2006.1422      64000         -19914.893      3258.939      -16655.954      0.89136653   
     24000   299.19168     -449.83961      64000         -20001.627      3347.0514     -16654.575      0.89136653   
     25000   295.68503     -1187.8923      64000         -19993.284      3307.8226     -16685.462      0.89136653   
     25010   300.04218     -752.28448      64000         -20052.138      3356.5659     -16695.572      0.89136653   
Loop time of 348.687 on 4 procs for 25000 steps with 5541 atoms

Performance: 12.389 ns/day, 1.937 hours/ns, 71.698 timesteps/s, 397.276 katom-step/s
397.7% CPU use with 1 MPI tasks x 4 OpenMP threads

MPI task timing breakdown:
Section |  min time  |  avg time  |  max time  |%varavg| %total
---------------------------------------------------------------
Pair    | 14.11      | 14.11      | 14.11      |   0.0 |  4.05
Bond    | 0.11753    | 0.11753    | 0.11753    |   0.0 |  0.03
Kspace  | 311.14     | 311.14     | 311.14     |   0.0 | 89.23
Neigh   | 0.04288    | 0.04288    | 0.04288    |   0.0 |  0.01
Comm    | 6.7869     | 6.7869     | 6.7869     |   0.0 |  1.95
Output  | 0.088499   | 0.088499   | 0.088499   |   0.0 |  0.03
Modify  | 14.434     | 14.434     | 14.434     |   0.0 |  4.14
Other   |            | 1.971      |            |       |  0.57

Nlocal:           5541 ave        5541 max        5541 min
Histogram: 1 0 0 0 0 0 0 0 0 0
Nghost:          33137 ave       33137 max       33137 min
Histogram: 1 0 0 0 0 0 0 0 0 0
Neighs:              0 ave           0 max           0 min
Histogram: 1 0 0 0 0 0 0 0 0 0

Total # of neighbors = 0
Ave neighs/atom = 0
Ave special neighs/atom = 2.4872767
Neighbor list builds = 2339
Dangerous builds = 1

unfix mynvt
undump nvt_traj
undump nvt_dcd

write_restart nvt_complete.restart
System init for write_restart ...
PPPM initialization ...
  extracting TIP4P info from pair style
  using 12-bit tables for long-range coulomb
  G vector (1/distance) = 0.28512662
  grid = 50 50 50
  stencil order = 5
  estimated absolute RMS force accuracy = 0.00038934319
  estimated relative force accuracy = 1.1724955e-06
  using double precision FFTW3
  3d grid and FFT values/proc = 185193 125000
Generated 0 of 3 mixed pair_coeff terms from geometric mixing rule

# Check temperature
variable current_temp equal temp
print "NVT complete. Temperature: ${current_temp} K (target: 300K)"
NVT complete. Temperature: 300.042176094307 K (target: 300K)

# ğŸ”§ CHECKPOINT #1: Verify we're still at reasonable density
variable current_dens equal density
if "${current_dens} < 0.7" then     "print 'ERROR: Density dropped during NVT! Current: ${current_dens} g/cmÂ³'"     "print 'This should not happen - check initial configuration'"     "quit 1"

print "âœ“ Checkpoint 1 PASSED: Density = ${current_dens} g/cmÂ³"
œ“ Checkpoint 1 PASSED: Density = 0.891366525253082 g/cm³

#==============================================================================
# STAGE 1.5: Pre-Equilibration at 100 atm (50 ps) - NEW STAGE
#==============================================================================
print ""

print "===== STAGE 1.5: Pre-Equilibration at 100 atm (50 ps, GPU) ====="
===== STAGE 1.5: Pre-Equilibration at 100 atm (50 ps, GPU) =====
print "ğŸ”§ CRITICAL FIX: Reducing initial pressure before main ramp"
Ÿ”§ CRITICAL FIX: Reducing initial pressure before main ramp
print "Objective: Equilibrate volume at moderate pressure to prevent PPPM artifacts"
Objective: Equilibrate volume at moderate pressure to prevent PPPM artifacts
print ""

print "Why this is needed:"
Why this is needed:
print "  - NVT creates high pressure (~800 atm) in fixed volume"
  - NVT creates high pressure (~800 atm) in fixed volume
print "  - Direct ramp from 800â†’1 atm caused 169k atm spike (PPPM grid change)"
  - Direct ramp from 800†’1 atm caused 169k atm spike (PPPM grid change)
print "  - Pre-equilibrating at 100 atm reduces initial pressure safely"
  - Pre-equilibrating at 100 atm reduces initial pressure safely
print "  - Main ramp (100â†’1 atm) will then cause only ~5% box expansion"
  - Main ramp (100†’1 atm) will then cause only ~5% box expansion

# Higher barostat damping for this stage (more conservative)
fix mynpt_pre all npt temp 300.0 300.0 100.0 iso 100.0 100.0 5000.0

dump pre_dcd all dcd 2000 pre_equilibration.dcd
dump_modify pre_dcd unwrap yes

run 25000  # 50 ps at 2 fs timestep
PPPM initialization ...
  extracting TIP4P info from pair style
  using 12-bit tables for long-range coulomb
  G vector (1/distance) = 0.28512662
  grid = 50 50 50
  stencil order = 5
  estimated absolute RMS force accuracy = 0.00038934319
  estimated relative force accuracy = 1.1724955e-06
  using double precision FFTW3
  3d grid and FFT values/proc = 185193 125000
Generated 0 of 3 mixed pair_coeff terms from geometric mixing rule
Per MPI rank memory allocation (min/avg/max) = 49.79 | 49.79 | 49.79 Mbytes
   Step          Temp          Press          Volume         PotEng         KinEng         TotEng        Density    
     25010   300.04218     -752.23528      64000         -20052.138      3356.5659     -16695.572      0.89136653   
     26000   307.30958     -364.17451      61328.253     -20108.537      3437.8662     -16670.67       0.93019864   
     27000   300.00749     -181.23425      59106.165     -20203.109      3356.1778     -16846.932      0.96516932   
     28000   304.32163      211.46744      57786.272     -20049.299      3404.44       -16644.859      0.98721471   
     29000   295.11356      581.95416      56497.414     -20113.859      3301.4295     -16812.43       1.0097357    
     30000   301.2096      -539.03199      56066.904     -20391.573      3369.6258     -17021.947      1.017489     
     31000   293.28184      278.08297      55770.835     -20261.392      3280.9382     -16980.454      1.0228905    
     32000   294.80981      989.75192      55285.795     -20310.06       3298.0315     -17012.028      1.0318646    
     33000   299.29737      208.49118      55215.549     -20339.189      3348.2337     -16990.955      1.0331774    
     34000   290.32241      99.962328      54602.072     -20349.955      3247.8311     -17102.123      1.0447856    
     35000   304.3536      -827.6045       55112.247     -20243.959      3404.7976     -16839.161      1.035114     
     36000   302.89497      236.93397      55065.629     -20360.08       3388.48       -16971.6        1.0359903    
     37000   300.38654     -309.20764      55157.357     -20159.936      3360.4182     -16799.518      1.0342674    
     38000   294.53616      141.83633      54888.63      -20197.602      3294.9702     -16902.632      1.0393311    
     39000   299.26641      329.77546      55059.305     -20262.857      3347.8874     -16914.97       1.0361093    
     40000   298.63507      509.32232      55380.586     -20198.554      3340.8246     -16857.729      1.0300985    
     41000   293.89236     -221.28013      55332.831     -20451.803      3287.768      -17164.035      1.0309875    
     42000   299.27513     -79.213308      55444.09      -20280.576      3347.9849     -16932.591      1.0289186    
     43000   303.32586     -376.95753      55715.535     -20311.974      3393.3004     -16918.674      1.0239058    
     44000   304.73675      482.6519       55408.758     -20314.673      3409.084      -16905.589      1.0295747    
     45000   297.32464     -242.12713      55428.213     -20311.61       3326.1648     -16985.446      1.0292134    
     46000   298.02236     -123.31859      55251.139     -20370.308      3333.9703     -17036.338      1.0325119    
     47000   292.38418      447.92688      55195.276     -20406.991      3270.896      -17136.095      1.0335569    
     48000   299.22466     -408.4734       55008.397     -20275.037      3347.4203     -16927.617      1.0370682    
     49000   306.54945      125.19437      55160.88      -20213.541      3429.3626     -16784.178      1.0342014    
     50000   306.20395      41.66092       55512.059     -20193.075      3425.4975     -16767.577      1.0276588    
     50010   302.58789      274.68581      55510.265     -20183.198      3385.0447     -16798.154      1.027692     
Loop time of 700.507 on 4 procs for 25000 steps with 5541 atoms

Performance: 6.167 ns/day, 3.892 hours/ns, 35.688 timesteps/s, 197.750 katom-step/s
307.2% CPU use with 1 MPI tasks x 4 OpenMP threads

MPI task timing breakdown:
Section |  min time  |  avg time  |  max time  |%varavg| %total
---------------------------------------------------------------
Pair    | 17.317     | 17.317     | 17.317     |   0.0 |  2.47
Bond    | 0.25444    | 0.25444    | 0.25444    |   0.0 |  0.04
Kspace  | 317.83     | 317.83     | 317.83     |   0.0 | 45.37
Neigh   | 0.042467   | 0.042467   | 0.042467   |   0.0 |  0.01
Comm    | 7.3751     | 7.3751     | 7.3751     |   0.0 |  1.05
Output  | 0.012926   | 0.012926   | 0.012926   |   0.0 |  0.00
Modify  | 354.92     | 354.92     | 354.92     |   0.0 | 50.67
Other   |            | 2.755      |            |       |  0.39

Nlocal:           5541 ave        5541 max        5541 min
Histogram: 1 0 0 0 0 0 0 0 0 0
Nghost:          35077 ave       35077 max       35077 min
Histogram: 1 0 0 0 0 0 0 0 0 0
Neighs:              0 ave           0 max           0 min
Histogram: 1 0 0 0 0 0 0 0 0 0

Total # of neighbors = 0
Ave neighs/atom = 0
Ave special neighs/atom = 2.4872767
Neighbor list builds = 2322
Dangerous builds = 0

unfix mynpt_pre
undump pre_dcd

write_restart pre_equilibration_complete.restart
System init for write_restart ...
PPPM initialization ...
  extracting TIP4P info from pair style
  using 12-bit tables for long-range coulomb
  G vector (1/distance) = 0.28792703
  grid = 50 50 50
  stencil order = 5
  estimated absolute RMS force accuracy = 0.00033691808
  estimated relative force accuracy = 1.0146188e-06
  using double precision FFTW3
  3d grid and FFT values/proc = 205379 125000
Generated 0 of 3 mixed pair_coeff terms from geometric mixing rule
write_data pre_equilibration_complete.data
System init for write_data ...
PPPM initialization ...
  extracting TIP4P info from pair style
  using 12-bit tables for long-range coulomb
  G vector (1/distance) = 0.28792703
  grid = 50 50 50
  stencil order = 5
  estimated absolute RMS force accuracy = 0.00033691808
  estimated relative force accuracy = 1.0146188e-06
  using double precision FFTW3
  3d grid and FFT values/proc = 205379 125000
Generated 0 of 3 mixed pair_coeff terms from geometric mixing rule
WARNING: Not all mixed pair coeffs generated from mixing. Use write_data with 'pair ij' option to store all pair coeffs. (src/write_data.cpp:364)

# ğŸ”§ CHECKPOINT #2: Verify still in liquid phase after pre-equilibration
variable current_dens equal density
variable current_press equal press
variable current_vol equal vol

print ""

print "Pre-equilibration complete:"
Pre-equilibration complete:
print "  Density:  ${current_dens} g/cmÂ³"
  Density:  1.02769204983211 g/cm³
print "  Pressure: ${current_press} atm"
  Pressure: 274.685810489031 atm
print "  Volume:   ${current_vol} Ã…Â³"
  Volume:   55510.2646026278 …³

if "${current_dens} < 0.85" then     "print 'ERROR: Density dropped to ${current_dens} during pre-equilibration!'"     "print 'Expected: Still ~0.95 g/cmÂ³ (may increase slightly due to compression)'"     "print 'System failed before main pressure ramp even started!'"     "quit 1"

print "âœ“ Checkpoint 2 PASSED: System stable at 100 atm"
œ“ Checkpoint 2 PASSED: System stable at 100 atm

#==============================================================================
# STAGE 2: GENTLE Pressure Ramp (100 â†’ 1 atm, 100 ps) - CORRECTED
#==============================================================================
print ""

print "===== STAGE 2: Gentle Pressure Ramp (100 ps, GPU) ====="
===== STAGE 2: Gentle Pressure Ramp (100 ps, GPU) =====
print "Ramping pressure from 100 atm â†’ 1 atm with drag damping"
Ramping pressure from 100 atm †’ 1 atm with drag damping
print ""

print "COMPARISON TO FAILED VERSION:"
COMPARISON TO FAILED VERSION:
print "  OLD: 50 atm â†’ 1 atm, no pre-equil â†’ 169,712 atm spike at step 51k"
  OLD: 50 atm †’ 1 atm, no pre-equil †’ 169,712 atm spike at step 51k
print "  NEW: 100 atm â†’ 1 atm, with pre-equil â†’ should be smooth (< 500 atm max)"
  NEW: 100 atm †’ 1 atm, with pre-equil †’ should be smooth (< 500 atm max)

# ğŸ”§ CRITICAL FIX #4: Add drag damping to prevent explosive expansion
fix mynpt_ramp all npt temp 300.0 300.0 100.0 iso 100.0 1.0 2000.0 drag 2.0

dump ramp_dcd all dcd 1000 pressure_ramp.dcd
dump_modify ramp_dcd unwrap yes

# Monitor closely during ramp (every 500 steps = 1 ps)
thermo 500

run 50000  # 100 ps at 2 fs timestep
PPPM initialization ...
  extracting TIP4P info from pair style
  using 12-bit tables for long-range coulomb
  G vector (1/distance) = 0.28792703
  grid = 50 50 50
  stencil order = 5
  estimated absolute RMS force accuracy = 0.00033691808
  estimated relative force accuracy = 1.0146188e-06
  using double precision FFTW3
  3d grid and FFT values/proc = 205379 125000
Generated 0 of 3 mixed pair_coeff terms from geometric mixing rule
Per MPI rank memory allocation (min/avg/max) = 50.62 | 50.62 | 50.62 Mbytes
   Step          Temp          Press          Volume         PotEng         KinEng         TotEng        Density    
     50010   302.58789      272.56697      55510.265     -20183.138      3385.0447     -16798.093      1.027692     
     50500   299.55284     -166.70642      55599.1       -20243.652      3351.0917     -16892.56       1.02605      
     51000   300.22049     -703.98222      55802.63      -20289.12       3358.5607     -16930.559      1.0223077    
     51500   307.92989      792.98951      55413.988     -20382.203      3444.8056     -16937.397      1.0294776    
     52000   294.79837      582.31205      55322.081     -20287.246      3297.9035     -16989.343      1.0311878    
     52500   302.34241      599.12391      55667.418     -20325.537      3382.2985     -16943.238      1.0247908    
     53000   297.20896      289.23604      55572.755     -20283.741      3324.8708     -16958.87       1.0265364    
     53500   297.79434      85.860357      55321.488     -20316.58       3331.4194     -16985.161      1.0311989    
     54000   301.76411      224.44514      55451.236     -20314.076      3375.8291     -16938.247      1.028786     
     54500   303.88654      240.88766      55516.532     -20359.772      3399.5727     -16960.199      1.027576     
     55000   302.83136      325.23193      55140.188     -20364.813      3387.7685     -16977.044      1.0345895    
     55500   301.06751     -520.30168      55058.734     -20354.584      3368.0363     -16986.548      1.03612      
     56000   301.04187     -276.74362      55074.842     -20355.207      3367.7494     -16987.458      1.035817     
     56500   299.51412     -384.78851      55095.112     -20288.817      3350.6585     -16938.158      1.0354359    
     57000   296.54047      239.97486      55176.682     -20293.455      3317.3924     -16976.063      1.0339052    
     57500   297.53894     -450.67996      55467.73      -20325.744      3328.5622     -16997.182      1.0284801    
     58000   295.83862      307.07473      55607.433     -20282.591      3309.5408     -16973.05       1.0258963    
     58500   297.31385     -325.97102      55310.703     -20303.617      3326.0441     -16977.572      1.0314       
     59000   307.01495      346.21239      55053.66      -20449.108      3434.5701     -17014.538      1.0362155    
     59500   296.69766      418.46691      55307.647     -20272.868      3319.1508     -16953.717      1.031457     
     60000   300.21283     -186.73634      55189.199     -20308.983      3358.4749     -16950.508      1.0336707    
     60500   298.49814      301.40459      55129         -20256.285      3339.2928     -16916.993      1.0347994    
     61000   299.73557      492.52571      54463.532     -20240.282      3353.1359     -16887.147      1.0474432    
     61500   300.19989     -947.94469      54688.751     -20262.784      3358.3302     -16904.454      1.0431297    
     62000   299.84738     -351.1838       55247.519     -20359.221      3354.3867     -17004.834      1.0325795    
     62500   300.64348      187.51865      55246.807     -20344.186      3363.2926     -16980.894      1.0325928    
     63000   302.56001      895.12969      54882.77      -20389.69       3384.7328     -17004.957      1.039442     
     63500   300.16161      143.54337      55127.765     -20362.157      3357.902      -17004.255      1.0348226    
     64000   298.06683      139.90399      54995.393     -20304.748      3334.4678     -16970.28       1.0373134    
     64500   299.95432     -494.82678      55102.283     -20351.041      3355.583      -16995.458      1.0353012    
     65000   301.92224      285.17387      55393.515     -20342.993      3377.5981     -16965.395      1.0298581    
     65500   308.00427     -295.49113      55050.343     -20467.26       3445.6376     -17021.622      1.036278     
     66000   303.24251     -366.76771      55113.259     -20369.949      3392.3679     -16977.581      1.035095     
     66500   295.83649     -111.90622      55254.858     -20261.814      3309.5169     -16952.297      1.0324424    
     67000   298.67903      35.984004      55503.751     -20289.207      3341.3164     -16947.891      1.0278126    
     67500   302.55831     -305.85002      55706.482     -20412.899      3384.7138     -17028.185      1.0240722    
     68000   296.41228     -590.8854       55422.672     -20347.386      3315.9583     -17031.427      1.0293163    
     68500   302.15849      391.6133       55076.3       -20373.507      3380.241      -16993.266      1.0357896    
     69000   304.08548     -233.18379      55273.069     -20378.884      3401.7982     -16977.086      1.0321022    
     69500   303.62014      341.03421      55226.255     -20339.96       3396.5925     -16943.368      1.0329771    
     70000   303.3457       238.70447      55305.917     -20343.761      3393.5223     -16950.238      1.0314892    
     70500   299.66939     -674.50066      55562.098     -20334.503      3352.3955     -16982.107      1.0267333    
     71000   300.66023     -718.24126      55353.515     -20341.641      3363.48       -16978.161      1.0306023    
     71500   303.16595     -655.40592      55256.014     -20372.271      3391.5115     -16980.76       1.0324208    
     72000   294.48776      24.208943      55537.501     -20296.702      3294.4288     -17002.273      1.0271881    
     72500   306.6014       753.84453      55323.458     -20427.652      3429.9437     -16997.708      1.0311622    
     73000   299.57496     -232.40063      55417.391     -20354.186      3351.3392     -17002.847      1.0294144    
     73500   297.82567     -142.17916      55299.251     -20262.736      3331.7699     -16930.966      1.0316136    
     74000   294.34704      1314.5422      55227.473     -20299.892      3292.8545     -17007.037      1.0329543    
     74500   296.26739      182.84452      55654.818     -20261.789      3314.3374     -16947.452      1.0250228    
     75000   296.98594     -911.60791      55674.961     -20242.499      3322.3758     -16920.123      1.024652     
     75500   306.51417      258.88208      55268.144     -20432.921      3428.9679     -17003.953      1.0321942    
     76000   293.93518      310.25821      55134.926     -20261.134      3288.247      -16972.887      1.0346882    
     76500   301.16069     -7.4963377      55287.094     -20283.167      3369.0786     -16914.088      1.0318404    
     77000   307.18144      36.336447      55315.554     -20386.03       3436.4326     -16949.598      1.0313095    
     77500   296.55501     -218.32859      55180.501     -20292.519      3317.5549     -16974.964      1.0338336    
     78000   298.16132      223.20184      55351.726     -20347.338      3335.5247     -17011.813      1.0306356    
     78500   298.82353      790.72227      55396.615     -20323.251      3342.9329     -16980.318      1.0298004    
     79000   300.1514       406.90132      55349.226     -20311.281      3357.7878     -16953.493      1.0306821    
     79500   302.83246      636.86731      55626.45      -20368.021      3387.7807     -16980.241      1.0255455    
     80000   298.92934     -190.12069      55556.52      -20309.163      3344.1166     -16965.047      1.0268364    
     80500   299.84744     -63.091964      55391.631     -20292.586      3354.3874     -16938.199      1.0298931    
     81000   302.37482     -403.47191      55789.732     -20342.616      3382.6611     -16959.955      1.022544     
     81500   300.01635      335.00082      55481.234     -20359.485      3356.277      -17003.208      1.0282298    
     82000   304.13123     -159.66123      55606.946     -20420.841      3402.31       -17018.531      1.0259052    
     82500   301.87561      279.15718      55257.62      -20414.373      3377.0765     -17037.296      1.0323908    
     83000   296.36904      198.42601      55224.574     -20382.1        3315.4746     -17066.625      1.0330086    
     83500   303.66624     -53.041217      55489.298     -20424.769      3397.1082     -17027.661      1.0280804    
     84000   296.49802     -289.27239      55339.19      -20346.119      3316.9174     -17029.202      1.030869     
     84500   304.37196      96.545909      55180.191     -20398.038      3405.0031     -16993.035      1.0338394    
     85000   297.11577      441.18116      55366.182     -20290.227      3323.8282     -16966.399      1.0303665    
     85500   295.69501      898.67804      55200.037     -20274.643      3307.9342     -16966.709      1.0334677    
     86000   297.35608      78.066926      55365.769     -20324.63       3326.5165     -16998.114      1.0303742    
     86500   303.6725      -71.425512      55578.123     -20361.859      3397.1782     -16964.681      1.0264373    
     87000   298.94556      34.786037      55482.331     -20319.598      3344.298      -16975.3        1.0282095    
     87500   298.3035      -289.59308      55405.416     -20274.971      3337.1153     -16937.856      1.0296368    
     88000   303.69603      176.27157      55396.236     -20395.41       3397.4414     -16997.968      1.0298075    
     88500   306.60549     -139.56089      55223.009     -20389.296      3429.9895     -16959.306      1.0330378    
     89000   300.19232     -340.84504      55394.741     -20341.067      3358.2455     -16982.822      1.0298353    
     89500   298.57448      51.491819      55479.151     -20307.308      3340.1468     -16967.161      1.0282684    
     90000   298.2101       6.7115289      55645.664     -20293.26       3336.0705     -16957.19       1.0251914    
     90500   298.4888       720.15936      55744.571     -20288.009      3339.1883     -16948.821      1.0233724    
     91000   310.19754     -514.74116      55609.167     -20388.349      3470.1737     -16918.175      1.0258643    
     91500   297.2979       439.95249      55551.359     -20298.111      3325.8657     -16972.245      1.0269318    
     92000   304.0112      -245.86551      55504.739     -20372.347      3400.9672     -16971.38       1.0277944    
     92500   298.35055      155.4004       55375.972     -20305.841      3337.6417     -16968.199      1.0301843    
     93000   302.72183     -51.588513      55463.355     -20335.494      3386.5431     -16948.951      1.0285613    
     93500   297.89919      82.305772      55505.501     -20305.702      3332.5923     -16973.11       1.0277802    
     94000   302.79468      134.77507      55019         -20345.571      3387.3581     -16958.213      1.0368683    
     94500   293.89478     -450.1403       55296.418     -20290.693      3287.7951     -17002.898      1.0316664    
     95000   295.52953     -295.62939      55167.437     -20278.967      3306.083      -16972.884      1.0340785    
     95500   301.85815      94.620203      55360.084     -20369.079      3376.8811     -16992.198      1.03048      
     96000   298.57703      157.85393      55705.677     -20309.998      3340.1753     -16969.822      1.024087     
     96500   298.24398     -513.49384      55647.825     -20264.286      3336.4494     -16927.837      1.0251516    
     97000   299.98887      35.078509      55066.145     -20265.177      3355.9695     -16909.207      1.0359806    
     97500   300.92188     -273.54036      55452.017     -20276.369      3366.4071     -16909.962      1.0287716    
     98000   302.68966      443.25341      55096.042     -20327.731      3386.1832     -16941.548      1.0354184    
     98500   300.90064     -382.60202      55644.125     -20368.891      3366.1695     -17002.722      1.0252198    
     99000   297.36496      54.761363      55596.836     -20276.09       3326.6159     -16949.474      1.0260918    
     99500   304.02677     -605.37823      55802.879     -20336.394      3401.1414     -16935.252      1.0223031    
    100000   301.72186      111.23862      55493.86      -20327.281      3375.3565     -16951.925      1.0279959    
    100010   300.10219     -489.37661      55495.47      -20311.5        3357.2373     -16954.263      1.027966     
Loop time of 1416.57 on 4 procs for 50000 steps with 5541 atoms

Performance: 6.099 ns/day, 3.935 hours/ns, 35.296 timesteps/s, 195.578 katom-step/s
308.1% CPU use with 1 MPI tasks x 4 OpenMP threads

MPI task timing breakdown:
Section |  min time  |  avg time  |  max time  |%varavg| %total
---------------------------------------------------------------
Pair    | 34.469     | 34.469     | 34.469     |   0.0 |  2.43
Bond    | 0.48969    | 0.48969    | 0.48969    |   0.0 |  0.03
Kspace  | 650.66     | 650.66     | 650.66     |   0.0 | 45.93
Neigh   | 0.085616   | 0.085616   | 0.085616   |   0.0 |  0.01
Comm    | 14.859     | 14.859     | 14.859     |   0.0 |  1.05
Output  | 0.047906   | 0.047906   | 0.047906   |   0.0 |  0.00
Modify  | 710.34     | 710.34     | 710.34     |   0.0 | 50.15
Other   |            | 5.619      |            |       |  0.40

Nlocal:           5541 ave        5541 max        5541 min
Histogram: 1 0 0 0 0 0 0 0 0 0
Nghost:          34949 ave       34949 max       34949 min
Histogram: 1 0 0 0 0 0 0 0 0 0
Neighs:              0 ave           0 max           0 min
Histogram: 1 0 0 0 0 0 0 0 0 0

Total # of neighbors = 0
Ave neighs/atom = 0
Ave special neighs/atom = 2.4872767
Neighbor list builds = 4642
Dangerous builds = 0

thermo 1000  # Return to normal frequency

unfix mynpt_ramp
undump ramp_dcd

write_restart pressure_ramp_complete.restart
System init for write_restart ...
PPPM initialization ...
  extracting TIP4P info from pair style
  using 12-bit tables for long-range coulomb
  G vector (1/distance) = 0.28793173
  grid = 50 50 50
  stencil order = 5
  estimated absolute RMS force accuracy = 0.00033683251
  estimated relative force accuracy = 1.0143611e-06
  using double precision FFTW3
  3d grid and FFT values/proc = 205379 125000
Generated 0 of 3 mixed pair_coeff terms from geometric mixing rule
write_data pressure_ramp_complete.data
System init for write_data ...
PPPM initialization ...
  extracting TIP4P info from pair style
  using 12-bit tables for long-range coulomb
  G vector (1/distance) = 0.28793173
  grid = 50 50 50
  stencil order = 5
  estimated absolute RMS force accuracy = 0.00033683251
  estimated relative force accuracy = 1.0143611e-06
  using double precision FFTW3
  3d grid and FFT values/proc = 205379 125000
Generated 0 of 3 mixed pair_coeff terms from geometric mixing rule
WARNING: Not all mixed pair coeffs generated from mixing. Use write_data with 'pair ij' option to store all pair coeffs. (src/write_data.cpp:364)

# ğŸ”§ CHECKPOINT #3: Critical check after ramp (most likely failure point)
variable current_dens equal density
variable current_press equal press
variable current_vol equal vol
variable current_boxsize equal vol^(1.0/3.0)

print ""

print "Pressure ramp complete:"
Pressure ramp complete:
print "  Density:  ${current_dens} g/cmÂ³"
  Density:  1.02796603035896 g/cm³
print "  Pressure: ${current_press} atm"
  Pressure: -489.376605350975 atm
print "  Volume:   ${current_vol} Ã…Â³"
  Volume:   55495.4696278017 …³
print "  Box size: ${current_boxsize} Ã…"
  Box size: 38.1433802126671 …

if "${current_dens} < 0.75" then     "print ''"     "print 'ğŸ”´ CRITICAL ERROR: Density collapsed to ${current_dens} g/cmÂ³!'"     "print ''"     "print 'This means the PPPM artifact occurred despite fixes.'"     "print 'Check equilibration.log for pressure spike around step 75,000-85,000'"     "print ''"     "print 'If pressure exceeded 10,000 atm during ramp:'"     "print '  â†’ PPPM grid still recalculating (increase mesh size)'"     "print '  â†’ Try mesh 50 50 50 or mesh 60 60 60'"     "print ''"     "print 'If pressure stayed < 1,000 atm but density still dropped:'"     "print '  â†’ Initial configuration may be problematic'"     "print '  â†’ Check initial_system.data for pre-existing issues'"     "print ''"     "quit 1"

print "âœ“ Checkpoint 3 PASSED: Pressure ramp successful, liquid phase maintained"
œ“ Checkpoint 3 PASSED: Pressure ramp successful, liquid phase maintained

#==============================================================================
# STAGE 3: NPT Equilibration (Complete 1000 ps with 2-phase strategy)
#==============================================================================
print ""

print "===== STAGE 3: NPT Equilibration (1000 ps, GPU) ====="
===== STAGE 3: NPT Equilibration (1000 ps, GPU) =====
print "Equilibrating at 300K, 1 atm with improved pressure control"
Equilibrating at 300K, 1 atm with improved pressure control
print ""

print "Strategy:"
Strategy:
print "  Phase 1 (400 ps): Higher damping for gentle pressure equilibration"
  Phase 1 (400 ps): Higher damping for gentle pressure equilibration
print "  Phase 2 (600 ps): Standard damping for final equilibration"
  Phase 2 (600 ps): Standard damping for final equilibration
print ""


# Phase 1: Gentle NPT with stronger pressure damping (400 ps)
print "Phase 1: Gentle pressure equilibration (400 ps, pdamp=5000)..."
Phase 1: Gentle pressure equilibration (400 ps, pdamp=5000)...
# ğŸ”§ CRITICAL: Using npt/gpu instead of npt for FULL GPU acceleration
fix mynpt_gentle all npt/gpu temp 300.0 300.0 100.0 iso 1.0 1.0 5000.0

dump npt_traj all custom 2000 npt_equilibration.lammpstrj id type xu yu zu
dump_modify npt_traj sort id

dump npt_dcd all dcd 2000 npt_equilibration.dcd
dump_modify npt_dcd unwrap yes

# Thermodynamic averaging during NPT
fix thermo_avg_npt all ave/time 100 10 1000 v_epsilon_co v_temp v_press v_pe v_ke v_etotal v_vol v_dens     file npt_equilibration_thermo.dat

run 200000  # 400 ps at 2 fs timestep
PPPM initialization ...
  extracting TIP4P info from pair style
  using 12-bit tables for long-range coulomb
  G vector (1/distance) = 0.28793173
  grid = 50 50 50
  stencil order = 5
  estimated absolute RMS force accuracy = 0.00033683251
  estimated relative force accuracy = 1.0143611e-06
  using double precision FFTW3
  3d grid and FFT values/proc = 205379 125000
Generated 0 of 3 mixed pair_coeff terms from geometric mixing rule
Per MPI rank memory allocation (min/avg/max) = 50.64 | 50.64 | 50.64 Mbytes
   Step          Temp          Press          Volume         PotEng         KinEng         TotEng        Density    
    100010   300.10219     -487.45652      55495.47      -20311.529      3357.2373     -16954.292      1.027966     
    101000   302.50286      1160.3757      55562.351     -20208.506      3384.0934     -16824.413      1.0267287    
    102000   300.4495      -64.235513      55754.883     -20242.097      3361.1226     -16880.974      1.0231832    
    103000   301.33829      541.55119      55342.735     -20161.75       3371.0655     -16790.685      1.030803     
    104000   294.02908     -38.209613      54729.165     -20422.924      3289.2974     -17133.627      1.0423594    
    105000   297.09841     -69.773332      55271.004     -20238.282      3323.634      -16914.648      1.0321408    
    106000   305.78322     -815.88661      56152.406     -20281.889      3420.7908     -16861.099      1.0159397    
    107000   296.63044      704.11975      55331.573     -20326.401      3318.3989     -17008.002      1.0310109    
    108000   306.06397      505.0747       55187.926     -20380.383      3423.9316     -16956.452      1.0336945    
    109000   299.52053     -606.00016      55789.838     -20362.213      3350.7302     -17011.483      1.0225421    
    110000   294.78218      505.66753      55631.843     -20316.18       3297.7224     -17018.457      1.0254461    
    111000   289.32404     -46.464888      55628.346     -20528.494      3236.6623     -17291.832      1.0255106    
    112000   302.18129     -139.29607      55690.738     -20363.298      3380.496      -16982.802      1.0243617    
    113000   301.87029     -948.41922      55590.223     -20282.755      3377.0169     -16905.738      1.0262139    
    114000   298.14308      192.01875      55043.455     -20418.644      3335.3207     -17083.324      1.0364076    
    115000   299.07406     -196.72835      55356.832     -20446.474      3345.7356     -17100.738      1.0305405    
    116000   304.88478      357.99198      55332.86      -20247.184      3410.74       -16836.444      1.030987     
    117000   303.29076     -360.75284      55361.055     -20240.559      3392.9077     -16847.651      1.0304619    
    118000   302.19036     -9.7025571      55601.103     -20297.177      3380.5976     -16916.579      1.0260131    
    119000   295.54714     -277.23772      55288.28      -20264.951      3306.2799     -16958.671      1.0318183    
    120000   301.63741     -1142.3903      55448.545     -20372.976      3374.4117     -16998.565      1.028836     
    121000   300.84728     -302.46258      55947.41      -20340.561      3365.5726     -16974.989      1.0196622    
    122000   296.05696     -391.98137      55927.842     -20312.831      3311.9833     -17000.848      1.0200189    
    123000   302.36662      519.58046      55772.13      -20272.306      3382.5694     -16889.736      1.0228668    
    124000   298.89999      574.8341       55303.328     -20469.777      3343.7882     -17125.989      1.0315375    
    125000   302.27446     -745.80796      56005.027     -20322.592      3381.5383     -16941.054      1.0186132    
    126000   301.20762     -527.56943      55621.608     -20312.631      3369.6037     -16943.027      1.0256348    
    127000   297.76655      329.52247      55364.276     -20397.112      3331.1084     -17066.004      1.0304019    
    128000   296.88831     -334.57186      55813.193     -20382.835      3321.2836     -17061.552      1.0221142    
    129000   301.49381     -268.85033      55536.15      -20364.986      3372.8053     -16992.18       1.027213     
    130000   297.29234      969.92338      54971.7       -20386.982      3325.8035     -17061.179      1.0377605    
    131000   293.73248     -500.96989      55410.923     -20198.751      3285.9794     -16912.772      1.0295345    
    132000   305.11459      564.07442      55822.817     -20238.728      3413.3108     -16825.417      1.021938     
    133000   303.0538       21.846065      55599.679     -20235.135      3390.2568     -16844.878      1.0260393    
    134000   301.96161     -130.17209      55131.147     -20349.149      3378.0385     -16971.111      1.0347591    
    135000   296.62216      765.6902       55297.882     -20266.595      3318.3062     -16948.289      1.0316391    
    136000   299.67764     -277.78538      55802.186     -20288.865      3352.4878     -16936.377      1.0223158    
    137000   299.93137      14.940766      55683.016     -20328.169      3355.3263     -16972.842      1.0245037    
    138000   306.70833      365.19059      55240.793     -20388.839      3431.14       -16957.699      1.0327053    
    139000   300.87456      181.8553       55344.49      -20357.249      3365.8778     -16991.371      1.0307703    
    140000   302.9239       102.23377      54937.77      -20339.944      3388.8036     -16951.14       1.0384014    
    141000   299.25699      110.36903      55541.842     -20181.462      3347.782      -16833.68       1.0271078    
    142000   305.58122     -788.63072      55823.785     -20250.838      3418.531      -16832.308      1.0219203    
    143000   300.70754      1429.6243      55013.678     -20303.321      3364.0093     -16939.312      1.0369686    
    144000   293.57959     -1116.822       55842.852     -20332.772      3284.269      -17048.503      1.0215714    
    145000   301.92676     -284.06831      56200.145     -20295.659      3377.6486     -16918.01       1.0150767    
    146000   302.27051     -542.73844      55424.324     -20256.843      3381.4942     -16875.349      1.0292856    
    147000   295.57767      0.5279279      55213.762     -20194.541      3306.6215     -16887.92       1.0332108    
    148000   295.69318     -130.50013      55469.759     -20282.835      3307.9138     -16974.921      1.0284425    
    149000   303.07614     -607.7379       55799.973     -20310.237      3390.5068     -16919.73       1.0223564    
    150000   300.04884     -209.83863      55659.355     -20396.767      3356.6404     -17040.126      1.0249393    
    151000   295.59804     -637.54122      55157.82      -20363.324      3306.8494     -17056.475      1.0342588    
    152000   294.65715      64.527913      54959.876     -20262.275      3296.3237     -16965.951      1.0379837    
    153000   297.35696      5.1944833      55467.949     -20331.463      3326.5264     -17004.936      1.0284761    
    154000   297.50919     -45.113045      56071.815     -20265.714      3328.2294     -16937.485      1.0173999    
    155000   300.64783     -107.03085      56152.578     -20415.337      3363.3413     -17051.996      1.0159366    
    156000   298.58353     -310.91612      54512.625     -20502.888      3340.248      -17162.64       1.0464999    
    157000   300.3807       571.09995      54803.376     -20385.021      3360.3529     -17024.668      1.0409479    
    158000   292.58578     -241.4807       55908.048     -20357.612      3273.1513     -17084.46       1.0203801    
    159000   299.37465      667.42491      55560.123     -20257.549      3349.0983     -16908.451      1.0267698    
    160000   298.97739      576.52157      55050.771     -20291.508      3344.6541     -16946.854      1.0362699    
    161000   301.90074     -287.60076      55345.018     -20290.262      3377.3575     -16912.905      1.0307605    
    162000   297.28978     -309.22264      55859.356     -20389.544      3325.7749     -17063.769      1.0212695    
    163000   305.90701      213.35884      55620.625     -20296.386      3422.1757     -16874.21       1.0256529    
    164000   297.97676      1069.4303      55192.417     -20334.603      3333.46       -17001.143      1.0336104    
    165000   306.75242      182.58006      55760.038     -20332.164      3431.6332     -16900.531      1.0230886    
    166000   301.13263     -757.61218      55736.801     -20243.218      3368.7647     -16874.453      1.0235151    
    167000   301.18728      1291.3861      55134.902     -20266.134      3369.3761     -16896.758      1.0346887    
    168000   291.09655      214.10299      55472.206     -20393.642      3256.4913     -17137.15       1.0283971    
    169000   295.7503       57.081073      55465.569     -20396.179      3308.5527     -17087.627      1.0285202    
    170000   291.11884     -337.27504      55402.149     -20274.428      3256.7407     -17017.687      1.0296976    
    171000   303.01135     -14.494317      55910.369     -20208.6        3389.782      -16818.818      1.0203377    
    172000   299.95277     -29.657551      56150.377     -20221.575      3355.5657     -16866.009      1.0159764    
    173000   300.41479     -47.702537      55228.195     -20281.813      3360.7342     -16921.079      1.0329408    
    174000   309.00686      314.59231      55152.256     -20265.203      3456.8537     -16808.35       1.0343631    
    175000   301.65407      85.993458      55701.049     -20279.762      3374.598      -16905.164      1.0241721    
    176000   299.83029     -196.95958      56356.926     -20292.372      3354.1955     -16938.177      1.0122528    
    177000   297.26137     -469.47773      55884.994     -20322.951      3325.457      -16997.494      1.020801     
    178000   293.57868     -1250.9597      55558.12      -20319.96       3284.2588     -17035.701      1.0268068    
    179000   296.87112      379.82654      54991.519     -20390.063      3321.0913     -17068.971      1.0373865    
    180000   303.89319      55.288732      55656.114     -20291.561      3399.6471     -16891.914      1.0249989    
    181000   303.80833      103.24047      55844.394     -20287.675      3398.6978     -16888.977      1.0215431    
    182000   305.11765      30.622068      55394.19      -20335.215      3413.3451     -16921.869      1.0298455    
    183000   299.84996     -220.73821      55486.558     -20327.493      3354.4156     -16973.077      1.0281311    
    184000   302.82123     -200.71449      55897.888     -20267.16       3387.6551     -16879.505      1.0205655    
    185000   302.04174      184.26663      55631.31      -20443.948      3378.935      -17065.013      1.0254559    
    186000   295.72061      168.6544       55867.301     -20488.237      3308.2206     -17180.017      1.0211243    
    187000   304.43162     -53.489207      56008.517     -20375.452      3405.6705     -16969.781      1.0185497    
    188000   296.72541     -343.63255      55355.338     -20239.69       3319.4613     -16920.229      1.0305683    
    189000   295.19508      431.90868      54899.707     -20404.935      3302.3415     -17102.593      1.0391213    
    190000   298.59681     -733.60772      55665.426     -20375.35       3340.3965     -17034.954      1.0248275    
    191000   296.36115      918.92629      55693.204     -20210.587      3315.3863     -16895.2        1.0243163    
    192000   300.20311     -668.85944      55307.478     -20366.582      3358.3662     -17008.216      1.0314601    
    193000   290.70377     -718.67874      55702.175     -20330.012      3252.0973     -17077.915      1.0241513    
    194000   307.98284     -273.73179      56020.099     -20406.175      3445.3979     -16960.777      1.0183391    
    195000   291.81799      444.13168      55359.458     -20417.385      3264.562      -17152.823      1.0304916    
    196000   299.67507     -406.31099      55430.381     -20324.232      3352.459      -16971.773      1.0291731    
    197000   304.15242     -197.02035      55546.233     -20357.165      3402.547      -16954.618      1.0270266    
    198000   300.08429     -616.54981      55382.021     -20355.476      3357.037      -16998.439      1.0300718    
    199000   298.18701      285.32511      55309.676     -20293.368      3335.8121     -16957.555      1.0314191    
    200000   299.64822     -626.93908      55475.447     -20310.261      3352.1586     -16958.102      1.0283371    
    201000   297.32804     -102.59906      55128.241     -20342.737      3326.2029     -17016.534      1.0348137    
    202000   295.67451      241.27713      55013.092     -20307.92       3307.7048     -17000.215      1.0369797    
    203000   297.07161     -1018.1155      55759.69      -20183.171      3323.3342     -16859.837      1.023095     
    204000   301.75667      720.58347      55334.059     -20231.871      3375.7459     -16856.126      1.0309646    
    205000   299.20136      1133.3488      55189.744     -20395.629      3347.1597     -17048.47       1.0336605    
    206000   300.29128      544.12663      56356.779     -20200.571      3359.3526     -16841.218      1.0122555    
    207000   294.35729      602.44229      55612.858     -20269.353      3292.9692     -16976.384      1.0257962    
    208000   298.65601      1153.1217      55141.329     -20344.901      3341.0588     -17003.842      1.0345681    
    209000   302.68716     -745.47892      55783.854     -20309.721      3386.1552     -16923.566      1.0226518    
    210000   306.32262     -577.8975       55994.808     -20426.408      3426.8251     -16999.583      1.0187991    
    211000   301.27028     -178.9316       55803.042     -20285.042      3370.3047     -16914.738      1.0223001    
    212000   297.7722      -161.65923      55569.312     -20245.78       3331.1717     -16914.608      1.0266       
    213000   301.89149      52.265236      55518.737     -20364.105      3377.2541     -16986.851      1.0275352    
    214000   304.18178      603.55757      55482.445     -20228.639      3402.8755     -16825.763      1.0282073    
    215000   301.89204     -232.53708      55296.998     -20428.238      3377.2602     -17050.978      1.0316556    
    216000   303.53177      89.727774      55620.228     -20261.093      3395.6039     -16865.49       1.0256603    
    217000   298.7247      -501.58551      55882.605     -20277.406      3341.8273     -16935.579      1.0208446    
    218000   298.22522      263.41704      54817.852     -20323.137      3336.2396     -16986.898      1.040673     
    219000   300.57576     -170.96847      54951.594     -20231.021      3362.5351     -16868.486      1.0381402    
    220000   299.97167      449.31418      55482.153     -20187.89       3355.7771     -16832.113      1.0282128    
    221000   298.32958      515.76699      55341.227     -20391.12       3337.4071     -17053.713      1.0308311    
    222000   300.51454      877.135        55665.152     -20219.269      3361.8501     -16857.419      1.0248325    
    223000   300.40017     -35.259356      55506.655     -20203.681      3360.5707     -16843.11       1.0277589    
    224000   300.43411      256.21876      55213.1       -20272.031      3360.9505     -16911.081      1.0332232    
    225000   299.21464     -1053.1922      55503.741     -20441.085      3347.3083     -17093.777      1.0278128    
    226000   306.19422     -97.177832      56373.773     -20379.707      3425.3887     -16954.318      1.0119503    
    227000   300.2178      -236.58894      55764.484     -20341.867      3358.5306     -16983.337      1.023007     
    228000   300.83907      729.02591      55356.474     -20352.526      3365.4807     -16987.045      1.0305472    
    229000   297.52868     -392.13427      55834.054     -20178.237      3328.4474     -16849.79       1.0217323    
    230000   298.26167     -52.113223      55586.724     -20440.353      3336.6474     -17103.706      1.0262785    
    231000   301.1522       53.756676      54810.463     -20389.574      3368.9837     -17020.59       1.0408133    
    232000   297.32753      302.14467      55579.671     -20283.914      3326.1972     -16957.717      1.0264087    
    233000   293.72412      193.11075      55218.684     -20270.147      3285.8859     -16984.261      1.0331188    
    234000   303.67686     -185.47305      55067.952     -20379.256      3397.227      -16982.029      1.0359466    
    235000   299.97755      5.6754771      55132.46      -20371.213      3355.8429     -17015.371      1.0347345    
    236000   308.86711      416.53232      55193.033     -20318.621      3455.2902     -16863.331      1.0335989    
    237000   298.3626      -156.78053      55344.672     -20141.117      3337.7765     -16803.341      1.0307669    
    238000   301.887       -201.75235      55492.33      -20342.039      3377.2038     -16964.835      1.0280242    
    239000   300.27851     -438.90111      55468.544     -20351.988      3359.2097     -16992.779      1.028465     
    240000   300.29612     -93.512026      55940.335     -20253.225      3359.4067     -16893.818      1.0197911    
    241000   300.31685     -147.56441      55503.564     -20304.785      3359.6386     -16945.147      1.0278161    
    242000   301.06458      1390.3717      55007.521     -20284.511      3368.0034     -16916.508      1.0370847    
    243000   301.09057      51.663197      55384.752     -20332.372      3368.2942     -16964.078      1.030021     
    244000   305.6711      -893.94303      55575.624     -20318.141      3419.5365     -16898.604      1.0264834    
    245000   303.99851     -202.44674      55336.588     -20316.239      3400.8253     -16915.414      1.0309175    
    246000   305.9173       474.2111       55249.087     -20424.766      3422.2908     -17002.476      1.0325502    
    247000   302.69536      894.82081      55451.863     -20364.995      3386.2469     -16978.748      1.0287744    
    248000   303.538        963.13242      55499.789     -20248.565      3395.6736     -16852.891      1.027886     
    249000   298.67206      518.63275      55575.631     -20303.147      3341.2384     -16961.909      1.0264833    
    250000   300.79755      249.97025      56001.565     -20444.982      3365.0163     -17079.966      1.0186761    
    251000   295.72962     -432.07399      55714.258     -20278.743      3308.3214     -16970.422      1.0239292    
    252000   305.97868      91.789862      55342.66      -20310.336      3422.9775     -16887.358      1.0308044    
    253000   295.84165      338.38384      55590.826     -20297.602      3309.5747     -16988.028      1.0262027    
    254000   307.38751     -173.11534      55918.141     -20149.258      3438.7379     -16710.52       1.0201959    
    255000   305.75267     -451.27896      55782.925     -20191.235      3420.4491     -16770.786      1.0226688    
    256000   298.20279      1453.4804      55060.38      -20368.5        3335.9887     -17032.512      1.0360891    
    257000   307.14508     -438.83558      55113.886     -20391.173      3436.0259     -16955.147      1.0350832    
    258000   302.11454     -316.00133      55878.865     -20282.733      3379.7494     -16902.984      1.020913     
    259000   301.46562      479.92852      55512.448     -20359.302      3372.4899     -16986.812      1.0276516    
    260000   300.28433     -322.89051      55235.456     -20446.81       3359.2749     -17087.535      1.032805     
    261000   302.71917     -888.73808      55864.472     -20113.247      3386.5133     -16726.734      1.021176     
    262000   296.93061      256.71709      55564.44      -20336.398      3321.7568     -17014.641      1.0266901    
    263000   292.76748      367.66599      55355.411     -20423.549      3275.184      -17148.365      1.030567     
    264000   297.26903     -97.561282      55691.341     -20297.31       3325.5427     -16971.768      1.0243506    
    265000   299.86488      576.9835       55525.301     -20433.722      3354.5825     -17079.139      1.0274138    
    266000   303.24874     -112.52226      55801.567     -20240.203      3392.4376     -16847.765      1.0223272    
    267000   304.18568      267.69911      55406.304     -20353.442      3402.9191     -16950.523      1.0296203    
    268000   300.18395      41.712391      55276.367     -20462.434      3358.1518     -17104.282      1.0320406    
    269000   304.77884     -226.63831      55549.627     -20321.525      3409.5548     -16911.97       1.0269638    
    270000   300.65672     -80.952156      54929.087     -20276.622      3363.4408     -16913.181      1.0385655    
    271000   297.88284      95.896278      54348.413     -20377.491      3332.4094     -17045.082      1.0496619    
    272000   295.55723     -129.4669       55499.309     -20308.536      3306.3929     -17002.143      1.0278949    
    273000   298.25578      116.22344      55594.76      -20303.629      3336.5815     -16967.047      1.0261301    
    274000   298.20692      123.62033      55227.299     -20259.229      3336.0349     -16923.194      1.0329576    
    275000   306.42672     -899.35698      55644.258     -20358.218      3427.9896     -16930.229      1.0252173    
    276000   298.97019     -788.19993      56182.121     -20348.097      3344.5735     -17003.523      1.0154023    
    277000   299.89637     -11.760396      55789.294     -20302.87       3354.9347     -16947.935      1.0225521    
    278000   299.18708      146.84574      55473.843     -20244.204      3346.9999     -16897.204      1.0283668    
    279000   302.69774      446.29389      55043.799     -20253.831      3386.2737     -16867.557      1.0364012    
    280000   302.95087     -567.17599      55614.789     -20185.85       3389.1054     -16796.744      1.0257606    
    281000   305.95179     -452.80447      56115.36      -20255.593      3422.6766     -16832.917      1.0166104    
    282000   295.62153      886.73648      55454.098     -20472.87       3307.1122     -17165.757      1.0287329    
    283000   298.2727       90.07947       55242.731     -20308.924      3336.7708     -16972.153      1.032669     
    284000   301.24351     -666.71502      55563.978     -20120.687      3370.0051     -16750.682      1.0266986    
    285000   304.74538     -27.839686      55498.719     -20271.726      3409.1805     -16862.546      1.0279058    
    286000   299.61209      515.55217      55722.675     -20317.677      3351.7545     -16965.923      1.0237746    
    287000   293.34472     -561.12356      55661.177     -20347.18       3281.6416     -17065.539      1.0249057    
    288000   293.01643      118.45064      55323.753     -20478.816      3277.969      -17200.847      1.0311567    
    289000   296.61843     -427.47491      55712.674     -20423.537      3318.2645     -17105.272      1.0239584    
    290000   300.85219     -732.9783       55607.989     -20196.132      3365.6274     -16830.504      1.025886     
    291000   303.8229      -355.59443      55266.378     -20316.556      3398.8607     -16917.695      1.0322272    
    292000   304.33892      350.35552      55498.685     -20279.169      3404.6334     -16874.536      1.0279065    
    293000   301.05935      210.16107      55505.779     -20318.346      3367.945      -16950.401      1.0277751    
    294000   300.48822     -12.423462      55507.372     -20253.261      3361.5558     -16891.705      1.0277456    
    295000   304.61242     -382.56496      55196.862     -20309.846      3407.693      -16902.152      1.0335272    
    296000   299.33808      107.8442       55404.87      -20487.363      3348.6892     -17138.674      1.029647     
    297000   300.07618     -47.434115      55880.905     -20331.689      3356.9462     -16974.743      1.0208757    
    298000   303.74046     -273.13908      55776.901     -20375.992      3397.9384     -16978.054      1.0227793    
    299000   302.05281     -525.16922      55566.03      -20419.434      3379.0588     -17040.376      1.0266607    
    300000   298.54912     -189.57297      55420.31      -20389.311      3339.8631     -17049.448      1.0293601    
    300010   302.17349      360.53342      55426.181     -20431.091      3380.4088     -17050.682      1.0292511    
Loop time of 5659.96 on 4 procs for 200000 steps with 5541 atoms

Performance: 6.106 ns/day, 3.931 hours/ns, 35.336 timesteps/s, 195.796 katom-step/s
308.2% CPU use with 1 MPI tasks x 4 OpenMP threads

MPI task timing breakdown:
Section |  min time  |  avg time  |  max time  |%varavg| %total
---------------------------------------------------------------
Pair    | 138.33     | 138.33     | 138.33     |   0.0 |  2.44
Bond    | 1.966      | 1.966      | 1.966      |   0.0 |  0.03
Kspace  | 2596.4     | 2596.4     | 2596.4     |   0.0 | 45.87
Neigh   | 0.34385    | 0.34385    | 0.34385    |   0.0 |  0.01
Comm    | 59.263     | 59.263     | 59.263     |   0.0 |  1.05
Output  | 0.72852    | 0.72852    | 0.72852    |   0.0 |  0.01
Modify  | 2840.6     | 2840.6     | 2840.6     |   0.0 | 50.19
Other   |            | 22.32      |            |       |  0.39

Nlocal:           5541 ave        5541 max        5541 min
Histogram: 1 0 0 0 0 0 0 0 0 0
Nghost:          35251 ave       35251 max       35251 min
Histogram: 1 0 0 0 0 0 0 0 0 0
Neighs:              0 ave           0 max           0 min
Histogram: 1 0 0 0 0 0 0 0 0 0

Total # of neighbors = 0
Ave neighs/atom = 0
Ave special neighs/atom = 2.4872767
Neighbor list builds = 18553
Dangerous builds = 0

unfix mynpt_gentle

variable phase1_dens equal density
variable phase1_press equal press
print ""

print "Phase 1 complete:"
Phase 1 complete:
print "  Density:  ${phase1_dens} g/cmÂ³"
  Density:  1.02925109267009 g/cm³
print "  Pressure: ${phase1_press} atm"
  Pressure: 360.533423454573 atm
print ""


# Phase 2: Standard NPT damping (600 ps)
print "Phase 2: Final equilibration (600 ps, pdamp=2000)..."
Phase 2: Final equilibration (600 ps, pdamp=2000)...
# ğŸ”§ CRITICAL: Using npt/gpu instead of npt for FULL GPU acceleration
fix mynpt_standard all npt/gpu temp 300.0 300.0 100.0 iso 1.0 1.0 2000.0

run 300000  # 600 ps at 2 fs timestep
PPPM initialization ...
  extracting TIP4P info from pair style
  using 12-bit tables for long-range coulomb
  G vector (1/distance) = 0.28795379
  grid = 50 50 50
  stencil order = 5
  estimated absolute RMS force accuracy = 0.00033643175
  estimated relative force accuracy = 1.0131542e-06
  using double precision FFTW3
  3d grid and FFT values/proc = 205379 125000
Generated 0 of 3 mixed pair_coeff terms from geometric mixing rule
Per MPI rank memory allocation (min/avg/max) = 53.19 | 53.19 | 53.19 Mbytes
   Step          Temp          Press          Volume         PotEng         KinEng         TotEng        Density    
    300010   302.17349      366.34764      55426.181     -20431.125      3380.4088     -17050.716      1.0292511    
    301000   300.53925      276.08815      55162.032     -20362.165      3362.1266     -17000.038      1.0341798    
    302000   300.80799      362.97423      55482.587     -20284.11       3365.133      -16918.977      1.0282047    
    303000   296.50867      532.10883      55685.051     -20199.207      3317.0365     -16882.17       1.0244663    
    304000   296.25526      311.80522      55643.386     -20289.354      3314.2017     -16975.152      1.0252334    
    305000   296.09726     -586.03751      55554.146     -20323.345      3312.4342     -17010.911      1.0268803    
    306000   307.73469      5.3785553      55244.672     -20385.525      3442.6218     -16942.903      1.0326328    
    307000   299.38583      1.7081737      55935.36      -20333.899      3349.2234     -16984.675      1.0198818    
    308000   298.86458     -645.71108      55562.068     -20260.527      3343.3921     -16917.135      1.0267339    
    309000   299.54313      1128.9145      55120.557     -20374.671      3350.9831     -17023.688      1.0349579    
    310000   302.99933     -401.54107      55529.842     -20339.196      3389.6475     -16949.549      1.0273297    
    311000   301.88025     -144.53622      55686.039     -20441.991      3377.1284     -17064.863      1.0244481    
    312000   302.85384     -143.18923      55696.466     -20363.302      3388.0198     -16975.282      1.0242563    
    313000   300.47264     -359.13564      55590.658     -20229.108      3361.3815     -16867.726      1.0262058    
    314000   293.0069      -289.46904      55573.724     -20200.391      3277.8623     -16922.528      1.0265185    
    315000   300.26515      477.4017       55499.769     -20360.741      3359.0603     -17001.681      1.0278864    
    316000   299.44814      1078.6282      55550.152     -20342.873      3349.9204     -16992.952      1.0269541    
    317000   301.80213      562.39716      55321.901     -20388.714      3376.2545     -17012.459      1.0311912    
    318000   297.39668      626.37132      54999.305     -20397.3        3326.9708     -17070.329      1.0372396    
    319000   296.80745      533.67275      54822.776     -20239.329      3320.3791     -16918.95       1.0405795    
    320000   299.40585      223.87833      55418.027     -20327.336      3349.4473     -16977.889      1.0294025    
    321000   302.78113     -401.61181      55497.071     -20243.805      3387.2065     -16856.599      1.0279364    
    322000   295.21209     -246.06542      55379.14      -20362.585      3302.5318     -17060.053      1.0301254    
    323000   298.76526      270.02032      55266.518     -20278.477      3342.2811     -16936.196      1.0322246    
    324000   293.66549     -36.056152      55318.006     -20268.75       3285.23       -16983.521      1.0312638    
    325000   301.59565     -607.47592      55955.76      -20182.623      3373.9445     -16808.678      1.01951      
    326000   294.79653     -482.21874      55604.829     -20166.402      3297.8829     -16868.519      1.0259443    
    327000   296.14663      159.47609      55407.185     -20364.305      3312.9865     -17051.319      1.029604     
    328000   298.27858      257.1826       55050.355     -20303.424      3336.8365     -16966.587      1.0362777    
    329000   305.84316      228.0286       54959.941     -20475.597      3421.4613     -17054.136      1.0379825    
    330000   293.15844      149.73265      55224.735     -20297.043      3279.5577     -17017.486      1.0330055    
    331000   297.51539     -182.73854      55724.748     -20361.545      3328.2987     -17033.246      1.0237365    
    332000   307.98534     -421.15684      55618.879     -20311.98       3445.4259     -16866.554      1.0256851    
    333000   299.55407     -156.27791      56006.917     -20337.79       3351.1054     -16986.685      1.0185788    
    334000   299.1838       376.52184      55441.458     -20482.805      3346.9632     -17135.842      1.0289675    
    335000   298.17634      356.13222      55367.233     -20306.143      3335.6927     -16970.451      1.0303469    
    336000   296.45629      18.930076      55295.721     -20385.253      3316.4506     -17068.802      1.0316794    
    337000   300.73509     -843.89788      55183.103     -20264.885      3364.3175     -16900.568      1.0337849    
    338000   296.54494     -33.303491      55212.051     -20373.956      3317.4423     -17056.514      1.0332429    
    339000   298.91245     -188.17486      54939.111     -20379.473      3343.9276     -17035.545      1.0383761    
    340000   301.7039      -369.99654      55424.598     -20366.744      3375.1555     -16991.589      1.0292805    
    341000   299.08833      47.120092      55869.829     -20237.872      3345.8953     -16891.977      1.0210781    
    342000   303.89813     -93.624459      55623.166     -20391.077      3399.7024     -16991.375      1.0256061    
    343000   299.77701     -318.38512      55798.645     -20361.208      3353.5995     -17007.609      1.0223807    
    344000   305.60462      1059.2565      55658.423     -20300.885      3418.7928     -16882.092      1.0249564    
    345000   305.5238       1223.4712      55439.619     -20256.506      3417.8886     -16838.618      1.0290016    
    346000   301.40944      352.5835       55670.826     -20472.737      3371.8614     -17100.875      1.0247281    
    347000   292.78672     -642.06582      56108.83      -20313.437      3275.3992     -17038.038      1.0167287    
    348000   303.6522       201.49273      55459.311     -20330.305      3396.9511     -16933.354      1.0286363    
    349000   299.16822      376.03691      55708.452     -20270.279      3346.789      -16923.49       1.024036     
    350000   303.1071      -135.23965      55294.67      -20325.021      3390.8531     -16934.168      1.031699     
    351000   298.6359       160.77912      55333.111     -20214.523      3340.8339     -16873.689      1.0309823    
    352000   302.55754     -119.55175      55204.609     -20498.919      3384.7052     -17114.214      1.0333822    
    353000   302.00433     -74.594663      55514.26      -20259.295      3378.5165     -16880.778      1.0276181    
    354000   297.44713     -371.27278      56248.797     -20267.526      3327.5352     -16939.991      1.0141987    
    355000   297.03892     -8.7765568      55621.243     -20393.951      3322.9685     -17070.982      1.0256415    
    356000   305.05782      66.549248      55026.159     -20287.922      3412.6757     -16875.247      1.0367334    
    357000   303.32576     -570.81099      55463.83      -20309.977      3393.2992     -16916.678      1.0285524    
    358000   305.68676      320.84204      54540.809     -20421.632      3419.7117     -17001.92       1.0459591    
    359000   291.88552     -611.84165      55151.398     -20354.115      3265.3175     -17088.798      1.0343792    
    360000   305.00295     -228.8077       55550.096     -20357.729      3412.062      -16945.667      1.0269552    
    361000   297.46677     -713.4531       55710.861     -20262.143      3327.7549     -16934.388      1.0239917    
    362000   297.00269      256.08455      55623.238     -20207.429      3322.5632     -16884.866      1.0256048    
    363000   295.86298     -721.49542      55348.06      -20301.834      3309.8132     -16992.02       1.0307038    
    364000   299.63279      458.75764      55471.136     -20286.533      3351.986      -16934.547      1.028417     
    365000   293.96386     -358.49788      55524.521     -20257.939      3288.5679     -16969.371      1.0274282    
    366000   302.68725      351.65569      55484.875     -20399.778      3386.1563     -17013.622      1.0281623    
    367000   301.42794      690.24692      54703.03      -20417.731      3372.0684     -17045.663      1.0428574    
    368000   295.63991      278.66104      54981.011     -20316.442      3307.3178     -17009.125      1.0375847    
    369000   312.55741     -285.6307       55625.442     -20373.341      3496.5736     -16876.767      1.0255641    
    370000   297.72701      540.00131      55280.484     -20306.997      3330.6662     -16976.331      1.0319638    
    371000   288.40798      249.64526      55244.781     -20399.779      3226.4144     -17173.365      1.0326307    
    372000   301.63915     -67.086771      54956.162     -20325.955      3374.4312     -16951.524      1.0380539    
    373000   298.80666      25.688743      55502.876     -20276.637      3342.7442     -16933.893      1.0278289    
    374000   304.68809      375.79696      54935.813     -20298.673      3408.5396     -16890.134      1.0384384    
    375000   299.99349     -114.35627      54749.888     -20380.865      3356.0212     -17024.844      1.0419648    
    376000   295.91865     -56.270078      55423.369     -20247.565      3310.4361     -16937.129      1.0293033    
    377000   297.58092     -216.19056      55429.326     -20173.541      3329.0318     -16844.51       1.0291927    
    378000   303.39094     -47.265263      54392.544     -20276.905      3394.0284     -16882.877      1.0488103    
    379000   295.33868     -783.22815      55399.6       -20396.513      3303.9479     -17092.565      1.0297449    
    380000   304.00724      94.474258      55639.271     -20134.602      3400.9229     -16733.679      1.0253092    
    381000   299.06891     -679.04318      55607.245     -20312.093      3345.6779     -16966.415      1.0258997    
    382000   301.34619      791.28814      55317.117     -20317.667      3371.1538     -16946.513      1.0312804    
    383000   299.18652     -461.52265      55119.743     -20248.512      3346.9936     -16901.518      1.0349732    
    384000   302.32207     -20.109842      55025.63      -20282.272      3382.071      -16900.201      1.0367434    
    385000   299.5354       151.15332      55135.931     -20366.041      3350.8966     -17015.144      1.0346693    
    386000   301.9082      -606.84026      55565.836     -20205.098      3377.441      -16827.657      1.0266643    
    387000   304.69124      75.139191      55093.327     -20450.015      3408.5749     -17041.44       1.0354695    
    388000   305.22276      885.10995      54865.401     -20249.429      3414.521      -16834.908      1.0397711    
    389000   299.06113     -11.79753       55640.568     -20241.462      3345.5909     -16895.871      1.0252853    
    390000   298.32945      375.07854      55292.447     -20343.677      3337.4057     -17006.271      1.0317405    
    391000   297.99652      346.92613      55274.419     -20287.696      3333.6811     -16954.015      1.032077     
    392000   303.3888      -62.53818       55607.522     -20284.203      3394.0045     -16890.198      1.0258946    
    393000   295.87745      212.80982      55870.032     -20348.873      3309.9752     -17038.898      1.0210744    
    394000   296.97139      354.08739      55630.886     -20384.377      3322.213      -17062.164      1.0254638    
    395000   298.34594     -501.52028      56379.744     -20370.358      3337.5901     -17032.768      1.0118432    
    396000   300.73582      1145.0018      55444.087     -20348.461      3364.3256     -16984.135      1.0289187    
    397000   307.59207     -33.171133      55729.647     -20372.806      3441.0264     -16931.78       1.0236465    
    398000   298.31958     -585.74843      55634.293     -20290.06       3337.2952     -16952.765      1.025401     
    399000   297.0757      -75.55242       55408.702     -20294.946      3323.3799     -16971.566      1.0295758    
    400000   305.91344     -28.417334      55255.958     -20304.889      3422.2476     -16882.642      1.0324218    
    401000   301.94081      561.46916      54906.182     -20278.644      3377.8058     -16900.838      1.0389988    
    402000   300.93508     -41.694066      55539.34      -20196.958      3366.5548     -16830.404      1.027154     
    403000   292.6015      -97.790206      56177.388     -20281.199      3273.3272     -17007.872      1.0154879    
    404000   300.63024     -395.35625      55869.596     -20276.826      3363.1446     -16913.681      1.0210823    
    405000   301.08349     -152.20579      55342.169     -20370.271      3368.215      -17002.056      1.0308136    
    406000   298.96134      304.04121      55540.22      -20287.997      3344.4746     -16943.523      1.0271378    
    407000   305.01469     -38.170093      54945.641     -20285.273      3412.1933     -16873.08       1.0382527    
    408000   299.56318     -193.13353      55583.28      -20343.197      3351.2073     -16991.989      1.0263421    
    409000   299.80937      461.73884      55648.055     -20274.028      3353.9614     -16920.067      1.0251474    
    410000   299.54856      216.73057      55387.041     -20355.18       3351.0438     -17004.136      1.0299784    
    411000   307.02415      427.57353      55224.534     -20415.862      3434.6731     -16981.189      1.0330093    
    412000   297.72377     -166.17979      55742.153     -20388.739      3330.6299     -17058.109      1.0234168    
    413000   310.97901      639.85033      55819.263     -20377.229      3478.916      -16898.313      1.0220031    
    414000   301.30232     -179.41382      55601.027     -20211.487      3370.663      -16840.824      1.0260145    
    415000   293.28489      113.41126      55818.465     -20465.546      3280.9722     -17184.574      1.0220177    
    416000   306.21071     -205.25561      55407.081     -20316.61       3425.5732     -16891.037      1.0296059    
    417000   301.78383      95.967498      55819.29      -20290.851      3376.0497     -16914.802      1.0220026    
    418000   302.34346      34.573694      55420.533     -20424.907      3382.3102     -17042.597      1.029356     
    419000   304.51011      1253.1369      55105.068     -20326.297      3406.5485     -16919.749      1.0352488    
    420000   292.74682      969.35908      55250.56      -20292.136      3274.9528     -17017.184      1.0325227    
    421000   303.35493      427.48507      55912.061     -20269.862      3393.6256     -16876.236      1.0203068    
    422000   304.7884       0.35653946     55605.265     -20342.124      3409.6618     -16932.462      1.0259363    
    423000   296.7591       742.89187      55431.44      -20358.815      3319.8382     -17038.977      1.0291535    
    424000   300.41191      133.08817      55723.374     -20325.42       3360.7021     -16964.718      1.0237617    
    425000   297.12758      880.86254      55407.501     -20405.568      3323.9603     -17081.607      1.0295981    
    426000   296.26417      403.64402      55126.932     -20316.038      3314.3014     -17001.737      1.0348382    
    427000   296.58436     -397.49676      55568.005     -20153.268      3317.8834     -16835.384      1.0266242    
    428000   297.73085     -111.28764      55343.864     -20374.453      3330.7091     -17043.744      1.030782     
    429000   299.7686      -166.55208      55310.083     -20314.883      3353.5054     -16961.377      1.0314115    
    430000   294.55867      470.6767       54848.216     -20377.155      3295.222      -17081.933      1.0400969    
    431000   309.18993      424.65456      55220.04      -20263.242      3458.9016     -16804.34       1.0330934    
    432000   300.25507     -143.30667      55349.906     -20320.499      3358.9475     -16961.552      1.0306695    
    433000   297.24206      464.71619      54897.801     -20280.791      3325.241      -16955.55       1.0391574    
    434000   301.89545      183.48424      56022.239     -20278.366      3377.2984     -16901.068      1.0183002    
    435000   297.1714      -95.361901      55212.129     -20246.037      3324.4505     -16921.586      1.0332414    
    436000   300.53007      43.078321      55347.835     -20286.31       3362.0239     -16924.287      1.030708     
    437000   308.89757      634.52588      55756.986     -20368.668      3455.631      -16913.037      1.0231446    
    438000   296.70703     -268.74911      55549.402     -20255.634      3319.2557     -16936.379      1.026968     
    439000   302.88685      125.66754      55340.804     -20227.623      3388.3892     -16839.234      1.030839     
    440000   299.43307     -430.87302      56067.97      -20256.864      3349.7518     -16907.112      1.0174696    
    441000   294.46036     -432.35632      56103.675     -20289.835      3294.1222     -16995.712      1.0168221    
    442000   294.96111     -569.3317       55138.535     -20259.164      3299.7241     -16959.439      1.0346205    
    443000   299.29117      564.41992      55870.172     -20187.259      3348.1643     -16839.094      1.0210718    
    444000   301.18902     -205.1904       55351.157     -20302.235      3369.3955     -16932.839      1.0306462    
    445000   294.75999      230.77048      55400.359     -20334.468      3297.4742     -17036.994      1.0297308    
    446000   300.31313      613.19708      55558.172     -20258.85       3359.597      -16899.253      1.0268059    
    447000   306.01006      238.11391      55721.344     -20426.953      3423.3285     -17003.625      1.023799     
    448000   300.02185     -800.61596      55928.939     -20343.039      3356.3384     -16986.701      1.0199989    
    449000   292.74821      745.67033      55834.273     -20298.481      3274.9684     -17023.513      1.0217283    
    450000   297.39397     -509.36015      55635.862     -20410.689      3326.9404     -17083.749      1.025372     
    451000   300.5754       272.85504      55675.494     -20334.434      3362.5311     -16971.902      1.0246421    
    452000   302.31         352.88393      55242.645     -20374.99       3381.936      -16993.054      1.0326706    
    453000   298.21146     -256.01912      55498.315     -20355.28       3336.0857     -17019.195      1.0279133    
    454000   303.33616     -51.428399      55316.805     -20270.491      3393.4156     -16877.075      1.0312862    
    455000   307.9504       57.354336      55116.378     -20331.963      3445.035      -16886.928      1.0350364    
    456000   299.93253      300.28838      55457.453     -20292.347      3355.3393     -16937.008      1.0286707    
    457000   297.0173       930.37556      55792.165     -20228.01       3322.7267     -16905.283      1.0224994    
    458000   304.92737      394.31982      55557.669     -20367.162      3411.2165     -16955.945      1.0268152    
    459000   303.94803      97.456915      55459.062     -20356.113      3400.2605     -16955.853      1.0286409    
    460000   289.69759      349.94806      55720.951     -20298.771      3240.8412     -17057.93       1.0238063    
    461000   303.22228     -320.60195      55098.443     -20257.458      3392.1416     -16865.317      1.0353733    
    462000   304.60697      345.96592      55275.042     -20267.043      3407.6322     -16859.411      1.0320654    
    463000   290.05065     -63.218688      55970.945     -20266.509      3244.7909     -17021.718      1.0192334    
    464000   293.4945      -226.53443      56053.925     -20430.904      3283.3172     -17147.586      1.0177246    
    465000   296.96747      823.70454      55518.901     -20424.971      3322.1692     -17102.802      1.0275322    
    466000   296.80561     -194.55444      55749.044     -20415.32       3320.3584     -17094.961      1.0232903    
    467000   308.88256      272.19403      55288.453     -20247.064      3455.4631     -16791.601      1.031815     
    468000   307.48416      168.65066      55543.534     -20319.559      3439.8191     -16879.74       1.0270765    
    469000   309.93707     -1073.1142      55430.324     -20235.076      3467.2599     -16767.816      1.0291742    
    470000   305.64983     -528.74456      56256.466     -20290.106      3419.2985     -16870.807      1.0140604    
    471000   297.35356     -376.56352      55048.004     -20260.77       3326.4884     -16934.282      1.036322     
    472000   301.59147      688.314        55363.85      -20328.306      3373.8978     -16954.409      1.0304099    
    473000   298.51502     -438.08841      55454.783     -20387.62       3339.4816     -17048.138      1.0287202    
    474000   291.62913     -695.61121      55706.858     -20298.319      3262.4493     -17035.869      1.0240652    
    475000   306.15783      48.773366      55760.941     -20378.908      3424.9816     -16953.927      1.023072     
    476000   304.6762       183.10317      55910.568     -20212.945      3408.4066     -16804.538      1.0203341    
    477000   295.85826      67.519497      55532.036     -20190.77       3309.7604     -16881.01       1.0272891    
    478000   300.42435     -424.97854      55506.416     -20186.18       3360.8412     -16825.339      1.0277633    
    479000   314.90678     -530.39005      55841.096     -20370.739      3522.8559     -16847.883      1.0216035    
    480000   299.47521      683.86856      55605.236     -20188.731      3350.2232     -16838.508      1.0259368    
    481000   299.31206      474.96373      55220.276     -20332.105      3348.3981     -16983.707      1.033089     
    482000   298.64848     -405.41588      56021.283     -20383.841      3340.9746     -17042.867      1.0183176    
    483000   298.38825     -800.97677      56588.03      -20286.231      3338.0634     -16948.168      1.0081188    
    484000   300.54397     -222.23511      55131.712     -20368.357      3362.1795     -17006.177      1.0347485    
    485000   299.8267      -39.980466      55690.305     -20424.976      3354.1553     -17070.821      1.0243696    
    486000   301.56308      187.87334      55191.709     -20329.177      3373.5802     -16955.596      1.0336237    
    487000   300.69458     -652.79286      55659.279     -20172.257      3363.8642     -16808.392      1.0249407    
    488000   304.55295     -63.511042      55329.716     -20369.829      3407.0278     -16962.801      1.0310455    
    489000   297.5127       55.228144      55537.157     -20381.957      3328.2687     -17053.688      1.0271944    
    490000   297.3199      -427.38363      55812.055     -20343.373      3326.1119     -17017.261      1.022135     
    491000   305.29796      1199.7568      55599.293     -20249.393      3415.3622     -16834.031      1.0260465    
    492000   303.01065      502.63811      55315.674     -20289.218      3389.7741     -16899.443      1.0313073    
    493000   300.2286      -254.98001      55624.201     -20191.467      3358.6514     -16832.816      1.025587     
    494000   296.46039      698.82589      54966.902     -20337.953      3316.4964     -17021.457      1.0378511    
    495000   294.38863     -468.99687      55599.41      -20397.596      3293.3197     -17104.276      1.0260443    
    496000   303.25989      549.48744      55276.536     -20351.769      3392.5623     -16959.207      1.0320375    
    497000   304.07893     -311.29997      55884.136     -20395.666      3401.7249     -16993.941      1.0208167    
    498000   304.21976      482.36367      55346.241     -20260.13       3403.3004     -16856.829      1.0307377    
    499000   307.31211     -103.96933      55378.364     -20268.281      3437.8944     -16830.387      1.0301398    
    500000   299.89893      710.35285      55281.081     -20334.544      3354.9634     -16979.58       1.0319526    
    501000   302.75366     -702.88574      55714.959     -20254.237      3386.8992     -16867.338      1.0239164    
    502000   303.11889     -201.03038      55503.384     -20255.547      3390.9849     -16864.562      1.0278195    
    503000   301.40176      198.04027      55090.706     -20298.752      3371.7755     -16926.976      1.0355187    
    504000   298.29846      453.64418      55092.827     -20352.024      3337.059      -17014.965      1.0354789    
    505000   301.43318      557.33234      55231.345     -20281.929      3372.127      -16909.802      1.0328819    
    506000   299.44499     -384.46763      55628.641     -20309.763      3349.8851     -16959.878      1.0255051    
    507000   297.30637     -23.043715      55506.473     -20291.204      3325.9604     -16965.243      1.0277623    
    508000   297.15912     -291.12728      55815.63      -20232.008      3324.3131     -16907.695      1.0220696    
    509000   301.54779      397.92097      55135.32      -20390.362      3373.4091     -17016.953      1.0346808    
    510000   306.15822     -561.40677      55545.607     -20375.081      3424.986      -16950.095      1.0270382    
    511000   295.52419      189.91521      55629.52      -20223.686      3306.0232     -16917.663      1.0254889    
    512000   301.56276      122.44129      55630.642     -20275.59       3373.5766     -16902.014      1.0254683    
    513000   300.35292      676.45083      55315.559     -20434.384      3360.0421     -17074.342      1.0313094    
    514000   303.5229      -27.665954      55125.076     -20372.035      3395.5046     -16976.531      1.0348731    
    515000   300.07289     -541.82708      55363.315     -20370.937      3356.9095     -17014.027      1.0304198    
    516000   291.26183      706.25712      55527.756     -20345.125      3258.3403     -17086.785      1.0273683    
    517000   300.26477      90.612642      55803.6       -20184.793      3359.056      -16825.736      1.0222899    
    518000   303.82911      231.11286      55982.29      -20256.477      3398.9303     -16857.547      1.0190269    
    519000   302.19638      57.579962      55816.741     -20385.977      3380.6649     -17005.312      1.0220492    
    520000   304.84712      132.9715       55747.925     -20239.7        3410.3187     -16829.381      1.0233109    
    521000   299.09129      684.79154      55468.604     -20249.443      3345.9283     -16903.515      1.0284639    
    522000   301.42971      159.01406      55246.018     -20259.632      3372.0882     -16887.544      1.0326076    
    523000   298.31778     -482.40205      56121.014     -20160.095      3337.275      -16822.82       1.016508     
    524000   305.10672     -632.57591      55313.968     -20322.282      3413.2228     -16909.06       1.0313391    
    525000   297.67052      788.08603      54763.712     -20306.154      3330.0342     -16976.12       1.0417018    
    526000   300.25606     -391.99802      55699.676     -20415.84       3358.9586     -17056.882      1.0241973    
    527000   301.38423     -1052.1895      55014.225     -20377.105      3371.5794     -17005.525      1.0369583    
    528000   298.44814      570.86885      54958.197     -20289.414      3338.7335     -16950.681      1.0380155    
    529000   308.63772      328.03254      55250.778     -20317.44       3452.724      -16864.716      1.0325186    
    530000   294.61241     -181.78225      55699.555     -20265.053      3295.8231     -16969.23       1.0241995    
    531000   295.21067      282.73632      55163.569     -20259.552      3302.5159     -16957.036      1.034151     
    532000   302.95357     -183.43769      55197.888     -20205.666      3389.1356     -16816.53       1.033508     
    533000   300.16211      353.53013      55323.016     -20276.369      3357.9075     -16918.462      1.0311704    
    534000   297.68916     -127.22425      55552.481     -20249.033      3330.2427     -16918.79       1.0269111    
    535000   300.46818      140.42136      55626.242     -20344.412      3361.3315     -16983.081      1.0255494    
    536000   292.58691     -244.92041      55438.189     -20432.817      3273.164      -17159.653      1.0290282    
    537000   306.9629      -1098.296       55637.255     -20235.396      3433.9878     -16801.408      1.0253464    
    538000   304.34006      129.37148      55427.528     -20349.155      3404.6462     -16944.508      1.0292261    
    539000   304.23333      297.33124      56067.322     -20316.655      3403.4522     -16913.203      1.0174814    
    540000   305.00188     -752.30038      55953.526     -20226.606      3412.0499     -16814.556      1.0195507    
    541000   297.8714       305.44014      54746.454     -20352.556      3332.2815     -17020.275      1.0420302    
    542000   303.5042      -644.81405      55563.03      -20260.43       3395.2955     -16865.134      1.0267161    
    543000   300.85856      119.32263      54787.109     -20242.874      3365.6988     -16877.175      1.0412569    
    544000   298.75939      73.06267       54763.653     -20477.522      3342.2154     -17135.306      1.0417029    
    545000   305.41313      368.02581      55450.692     -20249.661      3416.6506     -16833.01       1.0287961    
    546000   294.8998       239.69132      55213.464     -20170.157      3299.0382     -16871.119      1.0332164    
    547000   302.89099     -118.98956      55279.871     -20292.237      3388.4354     -16903.802      1.0319752    
    548000   296.81889     -123.39405      55015.918     -20213.086      3320.507      -16892.579      1.0369264    
    549000   301.62641      601.53949      55212.898     -20163.725      3374.2886     -16789.436      1.033227     
    550000   300.11512      807.89694      54697.869     -20382.677      3357.3819     -17025.295      1.0429558    
    551000   300.0613      -477.8308       55197.549     -20373.093      3356.7798     -17016.313      1.0335143    
    552000   295.08735      123.35049      55585.31      -20288.303      3301.1364     -16987.167      1.0263046    
    553000   298.32529      218.28754      55100.751     -20272.361      3337.3591     -16935.002      1.03533      
    554000   297.42862      322.6304       54796.611     -20244.824      3327.3281     -16917.496      1.0410764    
    555000   301.63118     -171.91353      55384.602     -20299.148      3374.342      -16924.806      1.0300238    
    556000   307.16395      255.82665      55223.342     -20294.841      3436.237      -16858.604      1.0330316    
    557000   297.13599     -244.17339      55405.218     -20424.181      3324.0544     -17100.127      1.0296405    
    558000   304.41374     -451.94803      55713.786     -20260.854      3405.4704     -16855.384      1.0239379    
    559000   305.79517      14.868788      55186.783     -20241.549      3420.9245     -16820.624      1.0337159    
    560000   302.8407       44.505406      55480.258     -20212.976      3387.8729     -16825.103      1.0282479    
    561000   303.2282      -2.1248379      55244.214     -20322.985      3392.2079     -16930.777      1.0326413    
    562000   300.5677       207.15358      55384.535     -20321.311      3362.4448     -16958.867      1.030025     
    563000   300.1842      -116.94876      55691.704     -20398.653      3358.1547     -17040.498      1.0243439    
    564000   300.35348     -679.53178      55830.058     -20292.145      3360.0484     -16932.096      1.0218054    
    565000   302.80237     -310.12826      55598.685     -20370.423      3387.4441     -16982.979      1.0260577    
    566000   305.01459      561.69344      55171.95      -20301.063      3412.1922     -16888.871      1.0339939    
    567000   298.98427      576.55773      55451.606     -20264.737      3344.7311     -16920.006      1.0287792    
    568000   302.51096     -160.31959      55509.699     -20342.46       3384.1841     -16958.276      1.0277025    
    569000   299.74534      62.93936       55675.691     -20274.722      3353.2452     -16921.477      1.0246385    
    570000   302.5508      -260.82726      55861.158     -20338.79       3384.6298     -16954.16       1.0212366    
    571000   297.22076     -268.64783      55397.786     -20291.243      3325.0027     -16966.24       1.0297787    
    572000   301.26552     -512.49623      55645.176     -20357.959      3370.2514     -16987.708      1.0252004    
    573000   300.99312     -53.432941      55353.534     -20276.387      3367.2041     -16909.183      1.0306019    
    574000   302.55242      265.69481      55065.239     -20240.327      3384.6479     -16855.679      1.0359976    
    575000   300.16922      389.38591      55230.222     -20201.097      3357.987      -16843.109      1.0329029    
    576000   299.90988     -655.44987      55102.299     -20374.69       3355.0859     -17019.604      1.0353009    
    577000   307.78872     -412.00804      55565.648     -20352.853      3443.2263     -16909.626      1.0266677    
    578000   291.63067     -523.53037      55226.488     -20389.099      3262.4665     -17126.632      1.0329728    
    579000   308.41757      154.99964      55274.15      -20404.178      3450.2612     -16953.916      1.032082     
    580000   299.56275     -93.634316      55723.242     -20225.538      3351.2026     -16874.335      1.0237641    
    581000   295.19582      216.28455      55684.711     -20327.296      3302.3498     -17024.946      1.0244725    
    582000   298.04547      416.80908      55259.301     -20176.517      3334.2288     -16842.289      1.0323594    
    583000   300.81571      723.20004      54804.098     -20314.145      3365.2194     -16948.925      1.0409341    
    584000   296.33228     -275.33144      55650.115     -20201.662      3315.0633     -16886.599      1.0251094    
    585000   295.78188     -88.907366      55665.489     -20382.325      3308.906      -17073.419      1.0248263    
    586000   299.52407     -84.833232      55536.774     -20340.814      3350.7699     -16990.044      1.0272015    
    587000   305.84829      228.79068      55240.557     -20347.812      3421.5187     -16926.293      1.0327097    
    588000   295.23622     -63.36193       55625.091     -20238.918      3302.8018     -16936.116      1.0255706    
    589000   295.9693       693.23073      55371.404     -20259.887      3311.0027     -16948.884      1.0302693    
    590000   296.84485     -745.41467      55618.884     -20277.545      3320.7974     -16956.748      1.025685     
    591000   308.20656      97.900892      55861.69      -20289.042      3447.9007     -16841.141      1.0212268    
    592000   299.44289     -216.34158      56254.624     -20342.22       3349.8616     -16992.358      1.0140937    
    593000   302.94973      939.24875      55702.795     -20381.509      3389.0926     -16992.416      1.02414      
    594000   303.13861     -108.31227      55500.892     -20362.862      3391.2056     -16971.657      1.0278656    
    595000   304.31226     -661.34401      55123.215     -20324.319      3404.3352     -16919.984      1.034908     
    596000   293.3473       101.81279      55165.772     -20297.261      3281.6704     -17015.59       1.0341097    
    597000   301.16259      199.34912      55541.993     -20282.818      3369.0999     -16913.719      1.027105     
    598000   293.25168     -95.992238      55274.883     -20206.471      3280.6007     -16925.87       1.0320683    
    599000   300.22651     -273.47856      55878.897     -20394.996      3358.6279     -17036.368      1.0209124    
    600000   295.17168     -235.28708      55710.239     -20264.996      3302.0798     -16962.916      1.0240031    
    600010   296.68526      756.99113      55731.894     -20255.957      3319.0122     -16936.945      1.0236052    
Loop time of 8498.09 on 4 procs for 300000 steps with 5541 atoms

Performance: 6.100 ns/day, 3.934 hours/ns, 35.302 timesteps/s, 195.609 katom-step/s
308.5% CPU use with 1 MPI tasks x 4 OpenMP threads

MPI task timing breakdown:
Section |  min time  |  avg time  |  max time  |%varavg| %total
---------------------------------------------------------------
Pair    | 205.9      | 205.9      | 205.9      |   0.0 |  2.42
Bond    | 2.9503     | 2.9503     | 2.9503     |   0.0 |  0.03
Kspace  | 3905       | 3905       | 3905       |   0.0 | 45.95
Neigh   | 0.5146     | 0.5146     | 0.5146     |   0.0 |  0.01
Comm    | 89.181     | 89.181     | 89.181     |   0.0 |  1.05
Output  | 1.1126     | 1.1126     | 1.1126     |   0.0 |  0.01
Modify  | 4259.9     | 4259.9     | 4259.9     |   0.0 | 50.13
Other   |            | 33.56      |            |       |  0.39

Nlocal:           5541 ave        5541 max        5541 min
Histogram: 1 0 0 0 0 0 0 0 0 0
Nghost:          35173 ave       35173 max       35173 min
Histogram: 1 0 0 0 0 0 0 0 0 0
Neighs:              0 ave           0 max           0 min
Histogram: 1 0 0 0 0 0 0 0 0 0

Total # of neighbors = 0
Ave neighs/atom = 0
Ave special neighs/atom = 2.4872767
Neighbor list builds = 27936
Dangerous builds = 0

undump npt_traj
undump npt_dcd
unfix mynpt_standard
unfix thermo_avg_npt

write_restart npt_complete.restart
System init for write_restart ...
PPPM initialization ...
  extracting TIP4P info from pair style
  using 12-bit tables for long-range coulomb
  G vector (1/distance) = 0.28785665
  grid = 50 50 50
  stencil order = 5
  estimated absolute RMS force accuracy = 0.00033820001
  estimated relative force accuracy = 1.0184793e-06
  using double precision FFTW3
  3d grid and FFT values/proc = 205379 125000
Generated 0 of 3 mixed pair_coeff terms from geometric mixing rule
write_data npt_complete.data
System init for write_data ...
PPPM initialization ...
  extracting TIP4P info from pair style
  using 12-bit tables for long-range coulomb
  G vector (1/distance) = 0.28785665
  grid = 50 50 50
  stencil order = 5
  estimated absolute RMS force accuracy = 0.00033820001
  estimated relative force accuracy = 1.0184793e-06
  using double precision FFTW3
  3d grid and FFT values/proc = 205379 125000
Generated 0 of 3 mixed pair_coeff terms from geometric mixing rule
WARNING: Not all mixed pair coeffs generated from mixing. Use write_data with 'pair ij' option to store all pair coeffs. (src/write_data.cpp:364)

# CRITICAL: Save NPT checkpoint for production restart capability
write_restart npt_equilibration_complete.restart
System init for write_restart ...
PPPM initialization ...
  extracting TIP4P info from pair style
  using 12-bit tables for long-range coulomb
  G vector (1/distance) = 0.28785665
  grid = 50 50 50
  stencil order = 5
  estimated absolute RMS force accuracy = 0.00033820001
  estimated relative force accuracy = 1.0184793e-06
  using double precision FFTW3
  3d grid and FFT values/proc = 205379 125000
Generated 0 of 3 mixed pair_coeff terms from geometric mixing rule
write_data npt_equilibration_complete.data
System init for write_data ...
PPPM initialization ...
  extracting TIP4P info from pair style
  using 12-bit tables for long-range coulomb
  G vector (1/distance) = 0.28785665
  grid = 50 50 50
  stencil order = 5
  estimated absolute RMS force accuracy = 0.00033820001
  estimated relative force accuracy = 1.0184793e-06
  using double precision FFTW3
  3d grid and FFT values/proc = 205379 125000
Generated 0 of 3 mixed pair_coeff terms from geometric mixing rule
WARNING: Not all mixed pair coeffs generated from mixing. Use write_data with 'pair ij' option to store all pair coeffs. (src/write_data.cpp:364)

variable current_dens equal density
variable current_vol equal vol
variable current_press equal press
variable current_temp equal temp
print ""

print "NPT equilibration complete (1000 ps total):"
NPT equilibration complete (1000 ps total):
print "  Temperature: ${current_temp} K"
  Temperature: 296.685264099944 K
print "  Density:     ${current_dens} g/cmÂ³"
  Density:     1.02360522786219 g/cm³
print "  Pressure:    ${current_press} atm"
  Pressure:    756.991134503064 atm
print "  Volume:      ${current_vol} Ã…Â³"
  Volume:      55731.8935693024 …³
print ""

print "âœ… CHECKPOINT: NPT equilibration complete"
œ… CHECKPOINT: NPT equilibration complete
print "   Files saved:"
   Files saved:
print "     - npt_complete.restart (legacy name)"
     - npt_complete.restart (legacy name)
print "     - npt_equilibration_complete.restart (for production restart)"
     - npt_equilibration_complete.restart (for production restart)
print "     - npt_equilibration_complete.data (structure file)"
     - npt_equilibration_complete.data (structure file)
print "     - npt_equilibration_thermo.dat (thermodynamics)"
     - npt_equilibration_thermo.dat (thermodynamics)
print ""


# Checkpoint: Verify density
if "${current_dens} < 0.85 || ${current_dens} > 1.15" then     "print 'ERROR: Density outside expected range (0.85-1.15 g/cmÂ³)'"     "print 'Current density: ${current_dens} g/cmÂ³'"     "quit 1"

print "âœ“ Density validation PASSED: ${current_dens} g/cmÂ³"
œ“ Density validation PASSED: 1.02360522786219 g/cm³

print ""


# ğŸ”§ CHECKPOINT #4: Final validation before production
variable current_dens equal density
variable current_press equal press
variable current_vol equal vol
variable current_boxsize equal vol^(1.0/3.0)

print ""

print "NPT equilibration complete. FINAL VALIDATION:"
NPT equilibration complete. FINAL VALIDATION:
print "  Density:  ${current_dens} g/cmÂ³"
  Density:  1.02360522786219 g/cm³
print "  Pressure: ${current_press} atm"
  Pressure: 756.991134503064 atm
print "  Volume:   ${current_vol} Ã…Â³"
  Volume:   55731.8935693024 …³
print "  Box size: ${current_boxsize} Ã…"
  Box size: 38.1974701067764 …
print ""

print "âœ… CHECKPOINT: NPT equilibration complete (1000 ps)"
œ… CHECKPOINT: NPT equilibration complete (1000 ps)
print "   Creating restart file: npt_equilibration_complete.restart"
   Creating restart file: npt_equilibration_complete.restart
print "   This checkpoint allows restarting from production stage if needed"
   This checkpoint allows restarting from production stage if needed
print ""


# Save NPT checkpoint for production restart capability
write_restart npt_equilibration_complete.restart
System init for write_restart ...
PPPM initialization ...
  extracting TIP4P info from pair style
  using 12-bit tables for long-range coulomb
  G vector (1/distance) = 0.28785665
  grid = 50 50 50
  stencil order = 5
  estimated absolute RMS force accuracy = 0.00033820001
  estimated relative force accuracy = 1.0184793e-06
  using double precision FFTW3
  3d grid and FFT values/proc = 205379 125000
Generated 0 of 3 mixed pair_coeff terms from geometric mixing rule
write_data npt_equilibration_complete.data
System init for write_data ...
PPPM initialization ...
  extracting TIP4P info from pair style
  using 12-bit tables for long-range coulomb
  G vector (1/distance) = 0.28785665
  grid = 50 50 50
  stencil order = 5
  estimated absolute RMS force accuracy = 0.00033820001
  estimated relative force accuracy = 1.0184793e-06
  using double precision FFTW3
  3d grid and FFT values/proc = 205379 125000
Generated 0 of 3 mixed pair_coeff terms from geometric mixing rule
WARNING: Not all mixed pair coeffs generated from mixing. Use write_data with 'pair ij' option to store all pair coeffs. (src/write_data.cpp:364)

print "âœ… NPT checkpoint saved successfully"
œ… NPT checkpoint saved successfully
print "   Files created:"
   Files created:
print "     - npt_equilibration_complete.restart (for continuation)"
     - npt_equilibration_complete.restart (for continuation)
print "     - npt_equilibration_complete.data (structure file)"
     - npt_equilibration_complete.data (structure file)
print ""


if "${current_dens} < 0.80" then     "print 'ğŸ”´ ERROR: Density ${current_dens} g/cmÂ³ is TOO LOW (gas phase)!'"     "print 'Expected: 0.95-1.05 g/cmÂ³ for liquid water'"     "print ''"     "print 'Possible causes:'"     "print '  1. System escaped to gas phase during equilibration'"     "print '  2. PPPM grid artifacts occurred later in simulation'"     "print '  3. Initial system was not properly solvated'"     "quit 1"

if "${current_dens} > 1.20" then     "print 'ğŸ”´ ERROR: Density ${current_dens} g/cmÂ³ is TOO HIGH (over-compressed)!'"     "print 'Expected: 0.95-1.05 g/cmÂ³ for liquid water'"     "print ''"     "print 'Possible causes:'"     "print '  1. Barostat not converging properly'"     "print '  2. System trapped in metastable compressed state'"     "quit 1"

print "âœ… Density validation PASSED: ${current_dens} g/cmÂ³"
œ… Density validation PASSED: 1.02360522786219 g/cm³
print "Current density: ${current_dens} g/cmÂ³"
Current density: 1.02360522786219 g/cm³

#==============================================================================
# STAGE 4: Production MD (4000 ps = 4 ns)
#==============================================================================
print ""

print "===== STAGE 4: Production MD (4000 ps = 4 ns, GPU) ====="
===== STAGE 4: Production MD (4000 ps = 4 ns, GPU) =====
print "Main data collection phase - RDF, MSD, trajectories"
Main data collection phase - RDF, MSD, trajectories
print ""

print "Pressure control strategy:"
Pressure control strategy:
print "  â€¢ Using MTK barostat for better ensemble accuracy"
  €¢ Using MTK barostat for better ensemble accuracy
print "  â€¢ Tdamp = 100 fs (standard for NosÃ©-Hoover)"
  €¢ Tdamp = 100 fs (standard for Nos©-Hoover)
print "  â€¢ Pdamp = 1000 fs (tighter control for stable production)"
  €¢ Pdamp = 1000 fs (tighter control for stable production)
print ""


# Production NPT with MTK barostat and tighter pressure control
# Using smaller pdamp (1000 fs vs 2000 fs) for more stable pressure
# ğŸ”§ CRITICAL: Using npt/gpu instead of npt for FULL GPU acceleration
fix mynpt all npt/gpu temp 300.0 300.0 100.0 iso 1.0 1.0 1000.0 mtk yes

# Main trajectory dump (every 1 ps for analysis)
# Trajectory output (every 1 ps) - using wrapped coordinates for proper visualization
dump prod_traj all custom 1000 production.lammpstrj id type xu yu zu
dump_modify prod_traj sort id

# DCD dump (every 0.5 ps for smooth visualization)
dump prod_dcd all dcd 500 production.dcd
dump_modify prod_dcd unwrap yes

# Detailed thermodynamics (every 1 ps)
fix thermo_avg all ave/time 100 10 1000 v_epsilon_co v_temp v_press v_pe v_ke v_etotal v_vol v_dens     file production_thermo.dat

# Very detailed thermodynamics (every 0.1 ps for fluctuation analysis)
fix thermo_detailed all ave/time 10 10 100 v_temp v_press v_pe v_ke v_vol v_dens     file production_detailed_thermo.dat

# Compute RDFs on-the-fly (C60-water, C60-C60, water-water)
# Syntax: compute ID group-ID rdf Nbin type1 type2 [cutoff]
# Type 1=C, Type 2=O, Type 3=H
compute rdf_CO all rdf 150 1 2  # C-O pairs (C60-water)
compute rdf_CC all rdf 150 1 1  # C-C pairs (C60-C60)
compute rdf_OO all rdf 150 2 2  # O-O pairs (water-water)

# Average RDFs over production run (every 10 ps)
# FIXED: Explicit column indexing (RDF outputs [1]=r, [2]=g(r), [3]=coordination)
fix rdf_CO_avg all ave/time 1000 10 10000 c_rdf_CO[1] c_rdf_CO[2] c_rdf_CO[3] file rdf_CO.dat mode vector
fix rdf_CC_avg all ave/time 1000 10 10000 c_rdf_CC[1] c_rdf_CC[2] c_rdf_CC[3] file rdf_CC.dat mode vector
fix rdf_OO_avg all ave/time 1000 10 10000 c_rdf_OO[1] c_rdf_OO[2] c_rdf_OO[3] file rdf_OO.dat mode vector

# Compute MSD for water oxygen (diffusion analysis)
# Need to use the oxygen group defined earlier
compute msd_water oxygen msd
# MSD compute outputs: [1]=dxÂ², [2]=dyÂ², [3]=dzÂ², [4]=total rÂ²
fix msd_avg all ave/time 100 10 1000 c_msd_water[1] c_msd_water[2] c_msd_water[3] c_msd_water[4] file msd_water.dat

# Dump images every 20 ps for visualization
dump prod_img all image 10000 production_*.ppm type type     axes yes 0.8 0.02 view 60 30 zoom 1.5     box no 0.01 shiny 0.5
dump_modify prod_img pad 6 backcolor white

run 2000000  # 4000 ps = 4 ns at 2 fs timestep
PPPM initialization ...
  extracting TIP4P info from pair style
  using 12-bit tables for long-range coulomb
  G vector (1/distance) = 0.28785665
  grid = 50 50 50
  stencil order = 5
  estimated absolute RMS force accuracy = 0.00033820001
  estimated relative force accuracy = 1.0184793e-06
  using double precision FFTW3
  3d grid and FFT values/proc = 205379 125000
Generated 0 of 3 mixed pair_coeff terms from geometric mixing rule
Neighbor list info ...
  update: every = 1 steps, delay = 5 steps, check = yes
  max neighbors/atom: 2000, page size: 100000
  master list distance cutoff = 14.3092
  ghost atom cutoff = 18
  binsize = 7.1546, bins = 6 6 6
  3 neighbor lists, perpetual/occasional/extra = 0 3 0
  (1) compute rdf, occasional
      attributes: half, newton off
      pair build: half/bin/newtoff
      stencil: full/bin/3d
      bin: standard
  (2) compute rdf, occasional
      attributes: half, newton off
      pair build: half/bin/newtoff
      stencil: full/bin/3d
      bin: standard
  (3) compute rdf, occasional
      attributes: half, newton off
      pair build: half/bin/newtoff
      stencil: full/bin/3d
      bin: standard
Per MPI rank memory allocation (min/avg/max) = 58.91 | 58.91 | 58.91 Mbytes
   Step          Temp          Press          Volume         PotEng         KinEng         TotEng        Density    
    600010   296.68526      778.33418      55731.894     -20255.957      3319.0122     -16936.945      1.0236052    
    601000   296.95423     -518.99831      55224.787     -20352.614      3322.0211     -17030.593      1.0330046    
    602000   300.24859     -171.16778      55585.266     -20261.676      3358.875      -16902.801      1.0263054    
    603000   297.29099     -163.97789      55130.198     -20175.783      3325.7883     -16849.995      1.0347769    
    604000   305.1501       413.67832      55423.103     -20344.896      3413.7081     -16931.188      1.0293083    
    605000   299.34346      394.05207      55351.739     -20150.588      3348.7494     -16801.838      1.0306353    
    606000   297.32422     -75.857027      55154.654     -20236.886      3326.1601     -16910.726      1.0343181    
    607000   301.96912      37.433253      55482.385     -20175.263      3378.1225     -16797.14       1.0282085    
    608000   298.46091     -367.23787      55413.903     -20401.572      3338.8763     -17062.696      1.0294791    
    609000   297.8157       181.54108      55099.684     -20368.59       3331.6583     -17036.931      1.03535      
    610000   304.34565     -58.72582       55297.982     -20185.479      3404.7087     -16780.77       1.0316372    
    611000   301.72088     -520.2402       55469.146     -20297.382      3375.3454     -16922.036      1.0284539    
    612000   294.79886     -295.50382      56244.458     -20262.156      3297.909      -16964.248      1.0142769    
    613000   294.17476      47.106556      55607.487     -20309.363      3290.9272     -17018.436      1.0258953    
    614000   293.36086      145.87007      55671.814     -20285.258      3281.8221     -17003.436      1.0247099    
    615000   303.74625      534.38408      55449.491     -20364.14       3398.0032     -16966.136      1.0288184    
    616000   298.96467     -88.057211      55230.44      -20373.62       3344.5118     -17029.108      1.0328988    
    617000   301.46575     -8.3131044      56331.059     -20282.182      3372.4913     -16909.691      1.0127176    
    618000   299.50245      222.3233       55106.615     -20301.948      3350.5279     -16951.42       1.0352198    
    619000   302.2329      -236.94615      55200.608     -20293.312      3381.0735     -16912.238      1.0334571    
    620000   302.38404     -956.35085      56126.222     -20259.983      3382.7642     -16877.218      1.0164136    
    621000   301.32195      442.03745      55761.281     -20332.44       3370.8827     -16961.557      1.0230658    
    622000   307.91043      686.57489      54786.273     -20205.256      3444.5879     -16760.668      1.0412728    
    623000   299.36268      777.11584      54971.694     -20321.588      3348.9644     -16972.624      1.0377606    
    624000   297.58311     -99.248907      55836.027     -20360.349      3329.0564     -17031.293      1.0216962    
    625000   306.67229      157.18032      55330.001     -20302.184      3430.7368     -16871.447      1.0310402    
    626000   301.47581      784.02749      55524.397     -20190.453      3372.6039     -16817.849      1.0274305    
    627000   301.02918      516.24289      54871.601     -20498.36       3367.6074     -17130.753      1.0396536    
    628000   300.46857      449.39079      55634.497     -20346.733      3361.3359     -16985.397      1.0253972    
    629000   299.34398      422.84645      55211.157     -20316.402      3348.7551     -16967.647      1.0332596    
    630000   305.62631     -273.32297      55925.773     -20421.733      3419.0355     -17002.698      1.0200567    
    631000   299.62831     -380.91626      55158.565     -20409.081      3351.936      -17057.145      1.0342448    
    632000   295.14713      151.71331      55250.421     -20261.022      3301.8051     -16959.217      1.0325253    
    633000   298.97234     -392.0629       55672.92      -20304.454      3344.5976     -16959.856      1.0246895    
    634000   302.35044     -535.4115       55269.914     -20182.912      3382.3884     -16800.524      1.0321611    
    635000   299.48391      317.03436      55246.553     -20392.635      3350.3206     -17042.315      1.0325976    
    636000   296.90815      296.43747      55882.923     -20415.106      3321.5055     -17093.601      1.0208388    
    637000   293.99601     -695.92982      55605.783     -20411.852      3288.9276     -17122.925      1.0259267    
    638000   298.17814      59.165987      54889.113     -20420.018      3335.7129     -17084.305      1.0393219    
    639000   307.432        598.88461      55154.385     -20311.882      3439.2357     -16872.647      1.0343231    
    640000   295.58165      338.04454      55426.899     -20231.708      3306.6661     -16925.042      1.0292378    
    641000   296.40371      63.801409      55147.625     -20305.823      3315.8624     -16989.961      1.0344499    
    642000   298.85008     -1197.0737      55410.099     -20165.215      3343.2299     -16821.985      1.0295498    
    643000   297.33156      341.71846      55115.171     -20267.288      3326.2422     -16941.046      1.0350591    
    644000   299.51122     -219.42524      55415.194     -20130.884      3350.6261     -16780.258      1.0294552    
    645000   309.59612     -57.993199      55288.784     -20181.209      3463.4456     -16717.763      1.0318089    
    646000   304.45405      141.2919       55654.828     -20303.913      3405.9214     -16897.992      1.0250226    
    647000   303.78464      5.1208395      55668.34      -20371.401      3398.4327     -16972.969      1.0247738    
    648000   297.9361       185.38402      55743.558     -20235.254      3333.0052     -16902.248      1.023391     
    649000   295.3154       75.90645       55069.593     -20344.903      3303.6875     -17041.215      1.0359157    
    650000   300.87644      101.19767      56079.381     -20221.315      3365.8987     -16855.416      1.0172626    
    651000   300.15064     -849.53882      55813.356     -20241.038      3357.7792     -16883.259      1.0221112    
    652000   300.18293      78.089543      55116.319     -20270.012      3358.1404     -16911.871      1.0350375    
    653000   299.71259      43.172975      55903.461     -20168.336      3352.8788     -16815.457      1.0204638    
    654000   290.35017      304.27651      55139.479     -20324.721      3248.1416     -17076.58       1.0346028    
    655000   300.91825      273.57983      55836.987     -20312.369      3366.3665     -16946.003      1.0216787    
    656000   300.07957     -171.78134      55344.838     -20288.042      3356.9842     -16931.058      1.0307638    
    657000   297.52915      269.95416      55573.553     -20216.676      3328.4527     -16888.223      1.0265217    
    658000   299.76124     -11.899291      55181.649     -20259.462      3353.4231     -16906.039      1.0338121    
    659000   296.02363      73.681943      55232.453     -20337.497      3311.6105     -17025.886      1.0328612    
    660000   305.00883      51.015235      55289.045     -20333.61       3412.1277     -16921.483      1.031804     
    661000   308.15592      73.889141      55306.631     -20188.009      3447.3341     -16740.674      1.0314759    
    662000   303.83873     -99.246785      55693.309     -20302.744      3399.0379     -16903.706      1.0243144    
    663000   300.47093      231.92026      55496.796     -20253.003      3361.3624     -16891.641      1.0279415    
    664000   294.7924       244.19717      55667.15      -20315.136      3297.8368     -17017.3        1.0247957    
    665000   299.19831      178.55068      55132.795     -20407.896      3347.1256     -17060.771      1.0347282    
    666000   310.42438     -454.53908      55232.321     -20433.991      3472.7113     -16961.28       1.0328637    
    667000   301.01402      53.722333      55764.636     -20181.624      3367.4379     -16814.186      1.0230042    
    668000   293.09529      555.46055      55418.099     -20268.168      3278.8512     -16989.317      1.0294012    
    669000   299.26908     -326.58557      55474.613     -20313.96       3347.9172     -16966.043      1.0283525    
    670000   298.34868     -226.87868      55431.244     -20267.933      3337.6207     -16930.313      1.0291571    
    671000   293.08858     -40.964697      55237.921     -20393.625      3278.7762     -17114.849      1.032759     
    672000   301.8607       541.51164      55699.297     -20356.399      3376.9097     -16979.489      1.0242043    
    673000   295.63532     -939.66352      55880.455     -20300.83       3307.2664     -16993.563      1.0208839    
    674000   297.38074      314.66653      54974.705     -20249.069      3326.7925     -16922.276      1.0377037    
    675000   301.42174     -714.19785      55462.869     -20184.918      3371.999      -16812.919      1.0285703    
    676000   299.80739     -115.31178      55603.078     -20353.051      3353.9393     -16999.112      1.0259766    
    677000   300.06764     -244.42922      56174.759     -20390.404      3356.8507     -17033.553      1.0155354    
    678000   304.66595      8.7519126      55975.95      -20174.244      3408.2919     -16765.952      1.0191423    
    679000   294.90464     -30.150961      55829.775     -20138.396      3299.0923     -16839.304      1.0218106    
    680000   300.93768     -229.0256       55465.597     -20266.001      3366.5838     -16899.418      1.0285197    
    681000   306.27892     -248.63457      56058.282     -20180.71       3426.3362     -16754.373      1.0176455    
    682000   301.58526      50.156492      55854.826     -20408.981      3373.8283     -17035.152      1.0213523    
    683000   299.86169     -215.87706      55692.035     -20285.271      3354.5467     -16930.724      1.0243378    
    684000   305.04673     -602.81062      55298.555     -20253.079      3412.5517     -16840.528      1.0316266    
    685000   302.00209     -363.05892      55928.049     -20332.569      3378.4914     -16954.078      1.0200152    
    686000   298.59972      449.24723      55808.183     -20204.489      3340.4291     -16864.06       1.022206     
    687000   303.92145      894.02971      55166.881     -20390.444      3399.9633     -16990.481      1.0340889    
    688000   301.27981      62.547696      55566.317     -20242.848      3370.4112     -16872.436      1.0266554    
    689000   291.78784      443.3693       55099.066     -20260.726      3264.2248     -16996.501      1.0353616    
    690000   299.23141     -67.289295      55333.13      -20256.52       3347.4958     -16909.024      1.0309819    
    691000   301.39333     -467.50149      55677.163     -20228.422      3371.6812     -16856.74       1.0246114    
    692000   303.07104      315.80316      55200.104     -20364.223      3390.4498     -16973.774      1.0334665    
    693000   300.2998      -285.71485      56023.545     -20193.463      3359.4479     -16834.015      1.0182765    
    694000   292.20987     -225.59937      55377.384     -20219.731      3268.946      -16950.785      1.030158     
    695000   306.71284      168.88177      55227.942     -20327.39       3431.1904     -16896.2        1.0329456    
    696000   299.78801      432.01577      55558.906     -20391.405      3353.7225     -17037.683      1.0267923    
    697000   292.62307     -476.37714      56012.581     -20372.135      3273.5685     -17098.567      1.0184758    
    698000   301.6448      -574.47696      55819.636     -20374.441      3374.4944     -16999.946      1.0219962    
    699000   307.97544     -644.0978       55692.739     -20352.71       3445.3151     -16907.395      1.0243249    
    700000   302.46075      707.89329      54852.841     -20542.978      3383.6224     -17159.356      1.0400092    
    701000   301.04936     -271.99184      55910.955     -20342.73       3367.8332     -16974.897      1.020327     
    702000   297.84747     -374.93377      55009.165     -20362.699      3332.0137     -17030.686      1.0370537    
    703000   298.89042      347.73809      55562.813     -20315.884      3343.6812     -16972.203      1.0267201    
    704000   297.42446      668.75148      54940.2       -20392.619      3327.2815     -17065.337      1.0383555    
    705000   301.09053      111.30414      55280.18      -20204.085      3368.2938     -16835.791      1.0319695    
    706000   294.47306      175.39316      56015.862     -20156.406      3294.2642     -16862.142      1.0184161    
    707000   297.60768      328.48668      56032.272     -20196.626      3329.3312     -16867.295      1.0181179    
    708000   298.03141     -271.4879       56161.595     -20223.102      3334.0715     -16889.031      1.0157735    
    709000   298.69273     -386.25362      55632.011     -20319.388      3341.4697     -16977.919      1.025443     
    710000   293.78631     -243.69287      55584.92      -20376.225      3286.5816     -17089.643      1.0263118    
    711000   302.82755      334.93494      55489.312     -20273.711      3387.7258     -16885.985      1.0280801    
    712000   298.75533     -11.773979      55551.191     -20325.842      3342.1699     -16983.672      1.0269349    
    713000   292.44834     -405.13163      55921.377     -20231.023      3271.6138     -16959.409      1.0201368    
    714000   300.37437     -335.73946      55749.922     -20366.286      3360.2821     -17006.004      1.0232742    
    715000   298.8168       243.8677       55121.561     -20428.968      3342.8576     -17086.111      1.0349391    
    716000   296.35229      823.57791      55119.617     -20426.875      3315.2872     -17111.588      1.0349756    
    717000   298.74989     -213.43732      56130.608     -20249.746      3342.109      -16907.637      1.0163342    
    718000   302.54796     -484.72722      55619.405     -20316.043      3384.598      -16931.445      1.0256754    
    719000   303.8438      -410.32403      55547.739     -20420.282      3399.0946     -17021.187      1.0269987    
    720000   294.83665     -272.26032      55593.125     -20399.661      3298.3318     -17101.33       1.0261603    
    721000   299.8904      -500.60811      55331.48      -20277.582      3354.868      -16922.714      1.0310127    
    722000   296.18997      317.30553      55295.862     -20254.022      3313.4713     -16940.55       1.0316768    
    723000   300.9535      -455.88253      55238.76      -20297.473      3366.7608     -16930.712      1.0327433    
    724000   298.70991     -235.10575      54987.813     -20397.114      3341.6618     -17055.452      1.0374564    
    725000   297.75057      74.729415      55360.954     -20290.309      3330.9297     -16959.379      1.0304638    
    726000   297.06922      11.060184      55487.155     -20240.15       3323.3075     -16916.843      1.0281201    
    727000   294.59169      302.27928      55585.133     -20223.29       3295.5913     -16927.698      1.0263078    
    728000   298.34794     -124.65113      55640.623     -20252.438      3337.6125     -16914.825      1.0252843    
    729000   302.16946     -29.505528      55449.091     -20322.772      3380.3638     -16942.409      1.0288258    
    730000   304.22916     -996.47785      55425.781     -20178.156      3403.4055     -16774.75       1.0292585    
    731000   301.36486      931.54159      55498.067     -20376.734      3371.3627     -17005.372      1.0279179    
    732000   299.00876      94.144273      55301.321     -20448.52       3345.005      -17103.515      1.031575     
    733000   304.76587      594.63678      55017.422     -20252.89       3409.4098     -16843.48       1.036898     
    734000   305.70994     -369.32498      55628.231     -20225.428      3419.9711     -16805.457      1.0255127    
    735000   297.29353      470.95327      55210.611     -20347.51       3325.8168     -17021.694      1.0332698    
    736000   295.71701      42.563376      55375.447     -20316.465      3308.1803     -17008.285      1.0301941    
    737000   299.26202     -497.90935      55116.518     -20197.085      3347.8383     -16849.247      1.0350338    
    738000   310.9115      -463.6907       55722.61      -20269.314      3478.1608     -16791.153      1.0237758    
    739000   299.54743     -545.36294      55546.817     -20340.025      3351.0312     -16988.994      1.0270158    
    740000   292.62867      136.0354       55144.624     -20408.982      3273.6311     -17135.351      1.0345062    
    741000   296.17266     -49.071855      55326.569     -20214.313      3313.2777     -16901.035      1.0311042    
    742000   294.48443     -1257.3017      56053.176     -20351.8        3294.3915     -17057.409      1.0177382    
    743000   301.49486      116.72691      55164.509     -20335.704      3372.8171     -16962.887      1.0341333    
    744000   303.09538      142.55128      56140.483     -20290.187      3390.722      -16899.465      1.0161554    
    745000   305.00742      374.7184       55648.455     -20313.549      3412.1119     -16901.437      1.02514      
    746000   304.25253     -21.898752      56352.294     -20267.253      3403.667      -16863.586      1.012336     
    747000   303.30967     -270.44708      56021.092     -20264.289      3393.1192     -16871.17       1.0183211    
    748000   295.52408      127.05167      54983.144     -20194.862      3306.0221     -16888.84       1.0375445    
    749000   300.6169       597.50465      55266.329     -20282.857      3362.9953     -16919.861      1.0322281    
    750000   298.46674      1207.7669      54952.387     -20335.023      3338.9415     -16996.081      1.0381252    
    751000   298.12157      60.382798      56225.203     -20370.037      3335.0801     -17034.957      1.0146243    
    752000   304.09028      192.81336      55283.668     -20399.007      3401.852      -16997.155      1.0319043    
    753000   302.93355     -240.61285      55526.643     -20477.13       3388.9116     -17088.218      1.0273889    
    754000   301.57377     -474.24357      55900.888     -20256.884      3373.6997     -16883.184      1.0205108    
    755000   293.72698     -15.637303      55188.882     -20322.737      3285.9178     -17036.819      1.0336766    
    756000   298.78255      363.41612      55695.176     -20222.609      3342.4744     -16880.135      1.02428      
    757000   297.38725     -383.542        55864.277     -20379.649      3326.8653     -17052.784      1.0211796    
    758000   304.89226      181.65972      55343.594     -20335.638      3410.8237     -16924.814      1.030787     
    759000   302.51408      1015.967       55275.061     -20332.025      3384.219      -16947.806      1.032065     
    760000   305.17251      223.68631      55448.703     -20292.483      3413.9588     -16878.524      1.028833     
    761000   294.3047      -110.83592      55465.437     -20215.597      3292.3808     -16923.217      1.0285226    
    762000   292.14371      175.24787      55462.44      -20279.12       3268.2059     -17010.914      1.0285782    
    763000   292.90056      107.76562      55327.823     -20222.911      3276.6728     -16946.238      1.0310808    
    764000   302.96911     -36.411089      55333.323     -20297.033      3389.3094     -16907.724      1.0309783    
    765000   304.63251     -591.57293      55463.216     -20360.372      3407.9179     -16952.454      1.0285638    
    766000   297.21781     -26.687797      55383.301     -20337.031      3324.9697     -17012.061      1.030048     
    767000   300.91057      469.92867      55201.249     -20325.257      3366.2806     -16958.977      1.0334451    
    768000   292.88956     -330.61431      55303.078     -20335.168      3276.5497     -17058.619      1.0315422    
    769000   300.74987      454.88266      55251.793     -20293.441      3364.4828     -16928.959      1.0324997    
    770000   307.7249      -396.49239      56099.671     -20293.448      3442.5124     -16850.935      1.0168947    
    771000   300.27723     -107.40086      55664.878     -20376.879      3359.1954     -17017.683      1.0248376    
    772000   296.90671     -183.50765      55527.828     -20262.06       3321.4895     -16940.57       1.027367     
    773000   298.97192     -424.21621      56092.214     -20286.395      3344.5929     -16941.802      1.0170299    
    774000   303.09579      82.155337      55888.406     -20258.061      3390.7265     -16867.335      1.0207387    
    775000   299.12182     -47.356273      55466.503     -20293.531      3346.2698     -16947.261      1.0285029    
    776000   298.33114      48.109003      55486.041     -20495.973      3337.4246     -17158.548      1.0281407    
    777000   297.30287      231.55608      55471.741     -20286.014      3325.9212     -16960.093      1.0284057    
    778000   295.85914      650.65416      55221.39      -20419.786      3309.7704     -17110.016      1.0330681    
    779000   298.40041     -112.64338      55634.91      -20267.063      3338.1995     -16928.864      1.0253896    
    780000   300.62613     -21.78316       55307.739     -20386.949      3363.0986     -17023.851      1.0314553    
    781000   306.30409     -379.45887      55628.373     -20426.131      3426.6177     -16999.513      1.0255101    
    782000   303.0125       36.815014      55620.328     -20375.687      3389.7949     -16985.892      1.0256584    
    783000   298.29624     -777.76273      55594.729     -20393.118      3337.0341     -17056.083      1.0261307    
    784000   306.87195      65.415762      55341.568     -20326.631      3432.9704     -16893.661      1.0308247    
    785000   304.73138      612.63267      54881.023     -20343.315      3409.0238     -16934.291      1.0394751    
    786000   300.46718      418.25618      55593.96      -20420.916      3361.3203     -17059.595      1.0261449    
    787000   301.59738      447.0059       55355.995     -20255.157      3373.9639     -16881.193      1.0305561    
    788000   305.34189     -231.70393      55893.885     -20369.856      3415.8537     -16954.002      1.0206386    
    789000   298.71253     -38.795751      55643.973     -20294.678      3341.6911     -16952.987      1.0252226    
    790000   303.73918      301.40729      55307.976     -20260.923      3397.9242     -16862.999      1.0314508    
    791000   298.87214     -781.00641      56011.938     -20290.92       3343.4767     -16947.443      1.0184875    
    792000   294.45328     -375.651        55386.954     -20215.781      3294.043      -16921.738      1.02998      
    793000   295.2494      -183.6258       55739.958     -20216.367      3302.9492     -16913.417      1.0234571    
    794000   294.90933      382.58354      55729.709     -20457.959      3299.1448     -17158.815      1.0236454    
    795000   298.53432     -156.73315      55806.756     -20224.616      3339.6975     -16884.918      1.0222321    
    796000   300.98532     -504.48421      54866.134     -20389.372      3367.1168     -17022.255      1.0397572    
    797000   292.2699       131.25365      55309.946     -20336.122      3269.6176     -17066.504      1.0314141    
    798000   306.58222     -469.13849      55962.15      -20295.907      3429.7292     -16866.178      1.0193936    
    799000   295.3388      -146.72901      55472.596     -20324.582      3303.9492     -17020.632      1.0283899    
    800000   303.3954      -558.24343      55276.279     -20147.235      3394.0783     -16753.156      1.0320423    
    801000   296.7776       16.478338      55547.376     -20248.192      3320.0451     -16928.147      1.0270054    
    802000   293.94787      294.52378      55482.94      -20383.619      3288.389      -17095.23       1.0281982    
    803000   303.29927     -25.512399      55908.757     -20261.15       3393.0029     -16868.147      1.0203671    
    804000   294.13832     -948.65142      55473.852     -20297.685      3290.5195     -17007.165      1.0283666    
    805000   300.42068      637.93548      54940.823     -20230.769      3360.8002     -16869.969      1.0383437    
    806000   298.68744     -431.79782      55983.597     -20261.319      3341.4104     -16919.909      1.0190031    
    807000   295.77288     -159.61214      54935.096     -20330.576      3308.8053     -17021.771      1.038452     
    808000   303.23263      562.30584      54738.344     -20463.81       3392.2574     -17071.553      1.0421846    
    809000   300.30434      1102.7671      55915.579     -20209.381      3359.4987     -16849.883      1.0202426    
    810000   307.42784      41.347237      55495.813     -20128.998      3439.1891     -16689.809      1.0279597    
    811000   298.64599     -406.99207      55477.875     -20267.215      3340.9467     -16926.269      1.0282921    
    812000   298.12615      13.55603       55351.896     -20239.635      3335.1314     -16904.504      1.0306324    
    813000   295.58717     -403.43497      55858.099     -20358.242      3306.7278     -17051.514      1.0212925    
    814000   306.77914      184.48798      55169.933     -20442.644      3431.9321     -17010.712      1.0340317    
    815000   306.82573     -51.333676      55398.762     -20380.799      3432.4533     -16948.346      1.0297605    
    816000   295.66383     -285.71269      55549.603     -20345.636      3307.5854     -17038.051      1.0269643    
    817000   293.6495      -66.100193      56043.731     -20299.606      3285.0511     -17014.555      1.0179097    
    818000   303.30554     -44.412381      55931.876     -20264.171      3393.0731     -16871.098      1.0199454    
    819000   298.12903     -520.15818      55454.373     -20359.401      3335.1635     -17024.238      1.0287278    
    820000   301.19807      246.23202      55549.262     -20384.734      3369.4968     -17015.237      1.0269706    
    821000   302.50909     -331.37608      55822.863     -20351.16       3384.1632     -16966.997      1.0219372    
    822000   296.43378      193.20399      55217.728     -20379.721      3316.1988     -17063.522      1.0331366    
    823000   300.62609     -425.14623      55551.168     -20241.302      3363.0981     -16878.204      1.0269353    
    824000   302.79541     -2.5683862      55702.708     -20369.378      3387.3663     -16982.012      1.0241416    
    825000   291.11965     -353.36502      55369.08      -20437.723      3256.7497     -17180.973      1.0303125    
    826000   301.85334     -276.73394      55104.165     -20285.122      3376.8273     -16908.295      1.0352658    
    827000   301.30783     -262.30945      55583.009     -20163.206      3370.7248     -16792.482      1.0263471    
    828000   296.03103      741.21295      55052.645     -20373.691      3311.6932     -17061.997      1.0362346    
    829000   301.04075      384.42074      55453.188     -20306.096      3367.7369     -16938.359      1.0287498    
    830000   309.96748     -30.939015      55114.987     -20324.602      3467.6001     -16857.002      1.0350625    
    831000   300.13609      224.36811      55788.002     -20322.434      3357.6165     -16964.817      1.0225757    
    832000   299.08974      1009.1711      55322.03      -20325.806      3345.911      -16979.895      1.0311888    
    833000   295.89197     -187.58053      55137.334     -20390.148      3310.1376     -17080.01       1.034643     
    834000   299.65461      45.725808      54986.322     -20272.386      3352.2302     -16920.156      1.0374845    
    835000   303.20074     -1007.5429      55478.32      -20314.937      3391.9006     -16923.036      1.0282838    
    836000   300.77893      461.74262      54875.609     -20387.471      3364.8079     -17022.663      1.0395777    
    837000   298.42224      85.681621      55913.976     -20155.795      3338.4437     -16817.352      1.0202719    
    838000   300.84692      603.49759      54767.733     -20304.19       3365.5685     -16938.622      1.0416253    
    839000   303.11972     -382.30758      55494.157     -20288.692      3390.9943     -16897.698      1.0279903    
    840000   303.86843     -222.27368      55962.194     -20230.411      3399.3701     -16831.041      1.0193928    
    841000   306.85206     -400.72303      55707.571     -20260.987      3432.7479     -16828.239      1.0240522    
    842000   300.17441     -223.97898      55460.406     -20337.801      3358.0451     -16979.756      1.0286159    
    843000   297.74241      320.01285      55580.101     -20208.504      3330.8384     -16877.666      1.0264008    
    844000   296.26183     -196.48953      55995.463     -20336.27       3314.2752     -17021.995      1.0187871    
    845000   299.38134      129.55083      55447.455     -20353.939      3349.1731     -17004.766      1.0288562    
    846000   298.02516     -252.75976      55691.974     -20322.317      3334.0015     -16988.316      1.0243389    
    847000   298.25457     -106.28044      55308.932     -20324.45       3336.5679     -16987.882      1.031433     
    848000   302.14918      57.606271      55422.421     -20246.207      3380.1369     -16866.07       1.0293209    
    849000   299.90338      137.96287      56030.807     -20158.607      3355.0131     -16803.594      1.0181445    
    850000   300.82353     -47.516886      55541.988     -20269.947      3365.3068     -16904.64       1.0271051    
    851000   298.83152      265.31335      55844.287     -20329.129      3343.0223     -16986.107      1.0215451    
    852000   296.50717      84.132885      55545.302     -20312.99       3317.0198     -16995.97       1.0270438    
    853000   303.9168      -386.16043      55260.53      -20316.889      3399.9112     -16916.977      1.0323364    
    854000   301.66296      84.83353       55059.444     -20398.466      3374.6975     -17023.768      1.0361067    
    855000   303.86641      109.57814      55417.417     -20253.995      3399.3475     -16854.648      1.0294139    
    856000   297.06102     -485.97007      55050.058     -20412.57       3323.2158     -17089.354      1.0362833    
    857000   295.27168     -299.52023      55433.745     -20375.689      3303.1984     -17072.491      1.0291107    
    858000   297.13744     -389.60424      55865.857     -20372.896      3324.0706     -17048.825      1.0211507    
    859000   300.22601     -59.679432      55539.338     -20372.111      3358.6223     -17013.489      1.0271541    
    860000   300.83697      70.161759      55633.266     -20307.515      3365.4572     -16942.057      1.0254199    
    861000   306.12323      5.9421366      55348.216     -20310.112      3424.5945     -16885.517      1.0307009    
    862000   300.92938     -281.43081      56096.44      -20276.907      3366.491      -16910.416      1.0169533    
    863000   303.36542     -640.25201      55970.995     -20059.103      3393.743      -16665.36       1.0192325    
    864000   296.28561      370.09832      55311.814     -20281.538      3314.5412     -16966.997      1.0313793    
    865000   302.05723     -763.96442      55969.64      -20297.383      3379.1083     -16918.274      1.0192572    
    866000   306.76137     -888.00393      56061.457     -20302.668      3431.7333     -16870.935      1.0175879    
    867000   306.09298      105.90477      55062.032     -20385.052      3424.2561     -16960.796      1.036058     
    868000   301.837       -231.21991      55227.018     -20252.212      3376.6445     -16875.568      1.0329628    
    869000   306.78544      658.92748      56115.196     -20282.616      3432.0026     -16850.614      1.0166134    
    870000   307.58763      764.1723       55024.236     -20398.248      3440.9767     -16957.271      1.0367696    
    871000   296.67106      1395.682       55405.859     -20343.16       3318.8532     -17024.307      1.0296286    
    872000   303.49164     -460.08666      55447.097     -20351.597      3395.1549     -16956.442      1.0288628    
    873000   307.15461      303.06822      55001.296     -20238.39       3436.1325     -16802.258      1.0372021    
    874000   298.84081     -16.00576       55938.906     -20277.623      3343.1262     -16934.497      1.0198172    
    875000   297.20211      377.52604      54776.35      -20498.203      3324.7941     -17173.409      1.0414615    
    876000   298.64545     -846.44549      55575.124     -20310.646      3340.9407     -16969.705      1.0264927    
    877000   296.47696     -88.564652      55321.166     -20284.974      3316.6819     -16968.292      1.0312049    
    878000   294.3525      -854.87101      56038.061     -20247.067      3292.9156     -16954.152      1.0180127    
    879000   300.83028     -175.33231      54990.075     -20426.876      3365.3824     -17061.494      1.0374137    
    880000   302.2034       615.81289      55163.416     -20302.145      3380.7435     -16921.402      1.0341538    
    881000   297.58262      697.53502      56091.984     -20140.514      3329.0508     -16811.463      1.0170341    
    882000   305.98914      830.9449       55655.434     -20396.009      3423.0944     -16972.915      1.0250115    
    883000   300.93772     -159.29397      55538.706     -20497.8        3366.5843     -17131.216      1.0271658    
    884000   293.01559      102.96012      55493.754     -20298.924      3277.9596     -17020.964      1.0279978    
    885000   305.44045     -323.7322       55696.036     -20333.953      3416.9563     -16916.996      1.0242642    
    886000   296.27864     -825.38234      55268.903     -20262.571      3314.4632     -16948.107      1.03218      
    887000   300.09886     -1094.2266      55752.619     -20437.885      3357.2        -17080.685      1.0232247    
    888000   296.96201     -175.1157       55435.567     -20274.185      3322.1082     -16952.077      1.0290768    
    889000   292.19301      657.91162      55530.352     -20303.725      3268.7574     -17034.968      1.0273203    
    890000   295.87996      291.96013      54693.014     -20470.294      3310.0033     -17160.291      1.0430483    
    891000   302.96371      339.80517      55346.452     -20323.806      3389.249      -16934.557      1.0307338    
    892000   300.28648     -280.551        55677.267     -20352.947      3359.2989     -16993.648      1.0246095    
    893000   301.97411      14.551165      55520.919     -20359.812      3378.1784     -16981.633      1.0274948    
    894000   306.87793     -474.40509      55669.585     -20188.258      3433.0373     -16755.221      1.0247509    
    895000   301.98734     -248.62546      55545.832     -20339.832      3378.3264     -16961.506      1.027034     
    896000   299.25266     -813.46934      55670.581     -20321.509      3347.7336     -16973.775      1.0247326    
    897000   293.54723     -299.61305      55572.365     -20257.145      3283.907      -16973.238      1.0265436    
    898000   294.91094     -240.44695      55771.304     -20334.97       3299.1628     -17035.807      1.0228819    
    899000   293.86594     -1247.1245      55642.58      -20319.621      3287.4724     -17032.149      1.0252482    
    900000   303.56962      59.567777      55350.593     -20396.925      3396.0273     -17000.898      1.0306567    
    901000   300.07621     -678.35764      55739.437     -20421.235      3356.9466     -17064.288      1.0234667    
    902000   299.22635     -826.94165      55578.901     -20374.748      3347.4392     -17027.309      1.0264229    
    903000   305.43641     -581.11061      55327.818     -20284.986      3416.911      -16868.075      1.0310809    
    904000   301.0995      -36.995133      55869.748     -20171.063      3368.3942     -16802.668      1.0210796    
    905000   300.72888      364.09809      55702.835     -20250.58       3364.248      -16886.332      1.0241392    
    906000   305.14178      204.79956      55496.341     -20263.321      3413.615      -16849.706      1.0279499    
    907000   292.28028      354.98933      55755.796     -20303.268      3269.7337     -17033.534      1.0231664    
    908000   300.92366      63.806608      55509.412     -20407.471      3366.4271     -17041.044      1.0277078    
    909000   292.32264     -307.37771      54985.919     -20257.939      3270.2075     -16987.732      1.0374921    
    910000   294.70225     -575.60253      55321.772     -20310.765      3296.8282     -17013.937      1.0311936    
    911000   306.64478     -141.38506      55468.524     -20205.676      3430.4291     -16775.247      1.0284654    
    912000   296.79119     -254.82982      55669.049     -20257.277      3320.1971     -16937.079      1.0247608    
    913000   304.41594      159.32103      55305.197     -20454.248      3405.4951     -17048.753      1.0315027    
    914000   307.11548      612.60365      55078.647     -20323.626      3435.6947     -16887.931      1.0357454    
    915000   296.65594     -127.93816      55447.724     -20361.872      3318.6841     -17043.188      1.0288512    
    916000   300.8745      -483.66767      55497.397     -20385.231      3365.877      -17019.354      1.0279303    
    917000   292.26373     -85.507175      55450.66      -20393.38       3269.5485     -17123.831      1.0287967    
    918000   299.14851      532.28478      55850.662     -20345.872      3346.5684     -16999.303      1.0214285    
    919000   295.32901      547.35952      55068.738     -20442.613      3303.8398     -17138.773      1.0359318    
    920000   300.10056      306.56222      55662.3       -20327.725      3357.219      -16970.506      1.024885     
    921000   302.85511      129.5448       55915.551     -20366.274      3388.0341     -16978.24       1.0202431    
    922000   302.68939      92.307931      55752.993     -20386.095      3386.1802     -16999.915      1.0232179    
    923000   303.63752     -148.55901      55427.48      -20310.162      3396.7869     -16913.375      1.029227     
    924000   301.30854      391.60632      55621.04      -20297.676      3370.7327     -16926.944      1.0256453    
    925000   297.05043     -16.743842      55882.58      -20262.17       3323.0972     -16939.073      1.0208451    
    926000   302.92076      15.254394      55490.707     -20365.272      3388.7685     -16976.504      1.0280543    
    927000   297.44898     -36.344884      55142.866     -20325.526      3327.5558     -16997.97       1.0345392    
    928000   297.50122      887.79626      55284.33      -20306.014      3328.1402     -16977.873      1.031892     
    929000   306.16181     -341.87144      56068.908     -20304.88       3425.0261     -16879.854      1.0174526    
    930000   299.32504     -693.57331      55609.001     -20287.046      3348.5432     -16938.503      1.0258673    
    931000   288.62752      672.28668      55319.813     -20336.81       3228.8703     -17107.939      1.0312301    
    932000   301.24521      279.85191      55486.251     -20323.838      3370.0241     -16953.814      1.0281368    
    933000   296.38488     -10.80911       55687.86      -20198.497      3315.6518     -16882.846      1.0244146    
    934000   303.53314     -461.88378      55392.828     -20381.218      3395.6192     -16985.598      1.0298708    
    935000   294.81414      57.823888      55569.401     -20262.952      3298.0799     -16964.872      1.0265984    
    936000   297.95813     -25.697525      55900.114     -20304.465      3333.2517     -16971.213      1.0205249    
    937000   299.28748     -20.777669      55662.269     -20515.025      3348.123      -17166.902      1.0248856    
    938000   293.2248       300.92647      55879.85      -20323.395      3280.3        -17043.095      1.020895     
    939000   302.14674      536.43316      55420.727     -20381.013      3380.1096     -17000.903      1.0293524    
    940000   295.67449     -743.77841      55995.447     -20306.503      3307.7047     -16998.798      1.0187874    
    941000   298.21301      296.4957       55397.73      -20268.258      3336.103      -16932.155      1.0297797    
    942000   297.59272      126.62141      56315.452     -20312.668      3329.1639     -16983.504      1.0129983    
    943000   303.48998      623.39205      55795.569     -20312.166      3395.1363     -16917.03       1.0224371    
    944000   297.84991      544.04457      55322.152     -20400.443      3332.041      -17068.402      1.0311865    
    945000   296.70109      366.5675       55998.837     -20251.353      3319.1891     -16932.164      1.0187258    
    946000   300.03565     -291.68743      55569.09      -20267.97       3356.4928     -16911.477      1.0266041    
    947000   298.06667      67.835459      55325.312     -20304.804      3334.466      -16970.338      1.0311276    
    948000   298.95409     -321.61245      55477.388     -20260.32       3344.3934     -16915.927      1.0283011    
    949000   293.96088      77.906597      54901.772     -20401.747      3288.5345     -17113.212      1.0390823    
    950000   298.35793     -739.18026      56002.48      -20225.019      3337.7242     -16887.295      1.0186595    
    951000   302.63035      100.83749      55620.42      -20312.53       3385.5197     -16927.01       1.0256567    
    952000   296.43338      836.27919      55984.747     -20345.984      3316.1943     -17029.79       1.0189822    
    953000   298.00245     -209.86955      55136.631     -20472.905      3333.7475     -17139.158      1.0346562    
    954000   298.14462     -432.14857      55230.884     -20419.263      3335.3379     -17083.925      1.0328905    
    955000   300.36768      304.27614      55513.147     -20292.987      3360.2073     -16932.78       1.0276387    
    956000   302.3978       25.334348      55136.713     -20394.585      3382.9182     -17011.667      1.0346547    
    957000   301.98481      341.22176      55832.455     -20350.424      3378.298      -16972.126      1.0217616    
    958000   309.44723      824.81223      55741.333     -20399.71       3461.78       -16937.93       1.0234319    
    959000   299.20814     -175.91253      56425.615     -20465.679      3347.2355     -17118.444      1.0110206    
    960000   298.07852      191.78661      55696.432     -20251.363      3334.5985     -16916.765      1.024257     
    961000   295.53324     -171.43585      55342.003     -20329.807      3306.1244     -17023.683      1.0308166    
    962000   301.80934     -137.08961      55515.332     -20286.165      3376.335      -16909.83       1.0275982    
    963000   296.53689     -423.35115      55450.257     -20442.104      3317.3523     -17124.751      1.0288042    
    964000   302.14403     -308.2778       55404.401     -20409.331      3380.0793     -17029.252      1.0296557    
    965000   294.97627      45.02691       55721.551     -20364.852      3299.8936     -17064.959      1.0237952    
    966000   298.84125      351.49232      55567.833     -20260.356      3343.1311     -16917.225      1.0266274    
    967000   296.18391     -91.281079      55447.971     -20263.3        3313.4035     -16949.897      1.0288466    
    968000   297.0179      -801.31997      55569.37      -20363.673      3322.7333     -17040.94       1.026599     
    969000   308.90238     -262.31539      56149.905     -20285.739      3455.6848     -16830.055      1.0159849    
    970000   296.93496      262.41372      55375.469     -20386.46       3321.8055     -17064.654      1.0301937    
    971000   296.64656      56.651035      55759.276     -20380.669      3318.5792     -17062.09       1.0231026    
    972000   303.82445      536.94647      55853.736     -20267.321      3398.8781     -16868.443      1.0213723    
    973000   301.14952      378.88206      55903.979     -20397.819      3368.9537     -17028.865      1.0204543    
    974000   297.8407      -231.94939      55939.734     -20253.824      3331.938      -16921.886      1.0198021    
    975000   299.15367     -503.66554      55969.954     -20466.661      3346.6262     -17120.035      1.0192515    
    976000   298.7731       897.27817      55000.571     -20411.535      3342.3688     -17069.167      1.0372157    
    977000   298.5886       254.0795       54984.605     -20269.446      3340.3047     -16929.141      1.0375169    
    978000   299.15414      941.13715      55129.352     -20343.292      3346.6314     -16996.661      1.0347928    
    979000   299.32128     -324.33549      55553.524     -20357.505      3348.5012     -17009.004      1.0268918    
    980000   299.58087     -515.06838      56125.001     -20302.892      3351.4052     -16951.487      1.0164358    
    981000   306.96383      1120.6175      55267.011     -20331.975      3433.9983     -16897.977      1.0322154    
    982000   290.77655      382.82929      54974.176     -20331.933      3252.9115     -17079.022      1.0377137    
    983000   298.06007      360.10803      55506.236     -20312.798      3334.392      -16978.406      1.0277666    
    984000   298.9624       445.83404      55508.484     -20273.748      3344.4865     -16929.261      1.027725     
    985000   298.43169      82.639297      55741.902     -20299.284      3338.5494     -16960.734      1.0234214    
    986000   300.17234      254.84457      55769.213     -20256.21       3358.022      -16898.188      1.0229203    
    987000   295.46676      886.54255      55333.374     -20324.329      3305.3808     -17018.948      1.0309774    
    988000   297.27528      235.46292      55578.024     -20376.65       3325.6127     -17051.037      1.0264391    
    989000   299.90497     -939.84829      55450.624     -20320.609      3355.031      -16965.578      1.0287974    
    990000   297.58654     -484.89188      54993.278     -20189.776      3329.0948     -16860.681      1.0373533    
    991000   296.45334      367.29862      55653.659     -20274.82       3316.4176     -16958.402      1.0250442    
    992000   303.97213     -60.925437      55672.968     -20321.095      3400.5301     -16920.564      1.0246886    
    993000   302.52144     -481.87925      55996.317     -20319.446      3384.3013     -16935.145      1.0187716    
    994000   296.84825     -0.51885464     55279.499     -20271.515      3320.8354     -16950.68       1.0319822    
    995000   300.6997      -319.23214      55633.144     -20276.58       3363.9216     -16912.659      1.0254221    
    996000   303.51319     -1450.0224      55609.883     -20237.897      3395.396      -16842.501      1.0258511    
    997000   301.427        147.04992      55467.213     -20252.961      3372.0578     -16880.903      1.0284897    
    998000   309.80301      586.67991      55841.636     -20305.802      3465.7601     -16840.042      1.0215936    
    999000   306.25426     -362.44028      55540.741     -20217.515      3426.0603     -16791.455      1.0271281    
   1000000   302.29011      13.851261      55630.165     -20246.46       3381.7135     -16864.746      1.025477     
   1001000   303.47345      70.730111      55213.996     -20336.982      3394.9514     -16942.03       1.0332065    
   1002000   307.90998      141.81812      56070.441     -20381.133      3444.5828     -16936.55       1.0174248    
   1003000   299.87408      148.21303      56101.865     -20174.947      3354.6853     -16820.262      1.0168549    
   1004000   297.57981      55.081064      54996.154     -20301.032      3329.0195     -16972.012      1.037299     
   1005000   291.39726     -344.76889      55531.404     -20290.949      3259.8554     -17031.094      1.0273008    
   1006000   305.31631      285.16903      55419.187     -20291.255      3415.5675     -16875.687      1.029381     
   1007000   297.32245     -223.76815      55513.628     -20480.05       3326.1403     -17153.91       1.0276298    
   1008000   299.68486      124.45839      55166.987     -20354.262      3352.5686     -17001.693      1.0340869    
   1009000   300.48702     -579.34822      55645.703     -20361.898      3361.5423     -17000.355      1.0251907    
   1010000   296.45728     -384.9069       55858.114     -20290.484      3316.4617     -16974.022      1.0212922    
   1011000   307.23058      145.97223      55689.172     -20416.216      3436.9824     -16979.233      1.0243905    
   1012000   300.32362     -107.05432      55023.978     -20407.637      3359.7143     -17047.922      1.0367745    
   1013000   298.3186      -868.5598       54956.268     -20416.327      3337.2843     -17079.043      1.0380519    
   1014000   295.55871     -15.317835      55828.475     -20196.06       3306.4094     -16889.651      1.0218344    
   1015000   303.60243     -92.000743      55778.671     -20461.899      3396.3944     -17065.504      1.0227468    
   1016000   293.97149      409.93553      55599.391     -20390.188      3288.6532     -17101.534      1.0260447    
   1017000   294.49216      690.65138      55536.202     -20342.92       3294.4779     -17048.442      1.0272121    
   1018000   311.15158      399.66217      55164.415     -20374.302      3480.8465     -16893.455      1.0341351    
   1019000   295.05573      375.82862      55836.513     -20236.667      3300.7825     -16935.884      1.0216873    
   1020000   307.38634     -183.88977      54815.583     -20433.637      3438.7249     -16994.912      1.0407161    
   1021000   296.53319     -18.356137      55347.041     -20314.172      3317.3109     -16996.861      1.0307228    
   1022000   305.05483      79.982413      55355.412     -20296.531      3412.6423     -16883.889      1.0305669    
   1023000   309.10373      1255.8505      55192.831     -20299.116      3457.9373     -16841.179      1.0336027    
   1024000   303.5768      -75.262471      55572.628     -20326.05       3396.1076     -16929.942      1.0265388    
   1025000   293.65127     -559.70281      55758.512     -20222.564      3285.0709     -16937.493      1.0231166    
   1026000   303.7897       337.17224      54840.682     -20418.336      3398.4894     -17019.847      1.0402398    
   1027000   296.14812     -224.40605      55938.449     -20271.686      3313.0032     -16958.683      1.0198255    
   1028000   298.41544     -409.37055      55801.062     -20327.894      3338.3676     -16989.526      1.0223364    
   1029000   298.42565      408.49809      55361.754     -20349.823      3338.4818     -17011.342      1.0304489    
   1030000   301.27217      536.04296      55883.338     -20208.522      3370.3258     -16838.196      1.0208313    
   1031000   307.40122     -178.02759      55476.728     -20303.89       3438.8913     -16864.999      1.0283133    
   1032000   302.46199      513.51216      55249.946     -20339.276      3383.6363     -16955.64       1.0325342    
   1033000   298.39599     -1070.7304      55515.946     -20341.448      3338.15       -17003.298      1.0275869    
   1034000   307.19615     -311.04538      55381.975     -20295.187      3436.5972     -16858.589      1.0300726    
   1035000   302.76706     -587.95033      55697.716     -20117.509      3387.0491     -16730.459      1.0242333    
   1036000   299.19886     -825.57293      55446.546     -20379.694      3347.1317     -17032.563      1.0288731    
   1037000   291.41095     -826.46539      55339.006     -20210.983      3260.0085     -16950.974      1.0308725    
   1038000   302.29432      129.81085      55267.052     -20370.191      3381.7606     -16988.431      1.0322146    
   1039000   302.02437      245.12823      54762.082     -20245.902      3378.7406     -16867.162      1.0417328    
   1040000   305.70915     -614.85426      55497.517     -20273.915      3419.9622     -16853.953      1.0279281    
   1041000   302.03972     -137.13909      55371.231     -20153.606      3378.9124     -16774.693      1.0302725    
   1042000   294.65251     -132.82791      55295.18      -20329.026      3296.2717     -17032.754      1.0316895    
   1043000   310.95306     -83.602948      55593.817     -20402.291      3478.6257     -16923.665      1.0261475    
   1044000   296.67523      16.705688      55745.657     -20216.859      3318.8999     -16897.959      1.0233525    
   1045000   299.05238     -616.27034      55850.122     -20482.256      3345.493      -17136.763      1.0214384    
   1046000   302.70423     -357.86148      55625.305     -20362.534      3386.3462     -16976.188      1.0255667    
   1047000   293.39523      398.3606       55315.449     -20256.745      3282.2066     -16974.539      1.0313115    
   1048000   294.51605     -460.72219      55287.139     -20340.85       3294.7452     -17046.105      1.0318396    
   1049000   296.82621     -204.6882       55427.54      -20267.372      3320.5889     -16946.783      1.0292259    
   1050000   301.35414     -335.70175      55959.971     -20297.665      3371.2427     -16926.423      1.0194333    
   1051000   296.40853      190.83525      55228.893     -20292.25       3315.9163     -16976.333      1.0329278    
   1052000   298.2071       537.63695      55348.225     -20310.058      3336.0369     -16974.021      1.0307008    
   1053000   302.77661     -472.03971      55351.314     -20252.689      3387.1559     -16865.533      1.0306432    
   1054000   300.77005      505.74873      55401.145     -20424.687      3364.7086     -17059.978      1.0297162    
   1055000   301.48157      162.95161      55514.03      -20302.242      3372.6683     -16929.574      1.0276223    
   1056000   302.82973      41.027696      54953.551     -20381.971      3387.7502     -16994.221      1.0381032    
   1057000   298.18414     -169.40131      55138.636     -20357.918      3335.7801     -17022.138      1.0346186    
   1058000   308.37777     -460.11108      55334.726     -20305.797      3449.816      -16855.981      1.0309522    
   1059000   299.38627      213.1935       55343.27      -20316.302      3349.2282     -16967.074      1.030793     
   1060000   296.13625     -4.282421       55777.266     -20294.074      3312.8703     -16981.204      1.0227726    
   1061000   294.44438     -94.834183      55202.977     -20247.443      3293.9435     -16953.499      1.0334127    
   1062000   292.45794     -422.64423      55843.869     -20267.447      3271.7211     -16995.726      1.0215528    
   1063000   305.53046      47.749931      55310.562     -20288.888      3417.9632     -16870.924      1.0314026    
   1064000   299.90274      536.13517      54993.185     -20415.974      3355.006      -17060.968      1.037355     
   1065000   301.03194      697.34069      55633.265     -20307.437      3367.6383     -16939.799      1.0254199    
   1066000   303.07322      759.59296      55416.657     -20323.813      3390.4741     -16933.338      1.029428     
   1067000   302.10637      816.45144      55027.952     -20331.399      3379.658      -16951.741      1.0366996    
   1068000   299.85721     -562.62678      55355.537     -20386.402      3354.4966     -17031.906      1.0305646    
   1069000   299.55013     -871.03711      55204.308     -20429.17       3351.0613     -17078.109      1.0333878    
   1070000   298.96086     -696.31993      55696.846     -20368.227      3344.4692     -17023.757      1.0242493    
   1071000   294.54163      63.454782      55316.009     -20275.021      3295.0313     -16979.99       1.031301     
   1072000   302.72173      470.55723      55559.445     -20378.685      3386.5419     -16992.143      1.0267824    
   1073000   296.74753     -791.60823      55638.511     -20208.006      3319.7087     -16888.297      1.0253232    
   1074000   303.66362     -911.18219      55493.2       -20350.949      3397.0789     -16953.87       1.0280081    
   1075000   302.20288      563.64116      55121.834     -20289.668      3380.7376     -16908.93       1.0349339    
   1076000   299.60545      469.98193      55258.428     -20175.23       3351.6803     -16823.55       1.0323757    
   1077000   300.232       -141.22903      55395.807     -20385.313      3358.6894     -17026.623      1.0298154    
   1078000   295.00813     -556.68004      55906.212     -20178.525      3300.2501     -16878.275      1.0204136    
   1079000   294.87645     -279.36208      55678.305     -20223.021      3298.777      -16924.245      1.0245904    
   1080000   298.35952     -537.59947      55390.561     -20249.71       3337.742      -16911.968      1.029913     
   1081000   294.56443     -13.554267      55252.141     -20309.027      3295.2865     -17013.74       1.0324932    
   1082000   296.64449      78.457073      55634.609     -20281.758      3318.556      -16963.202      1.0253951    
   1083000   293.60075      102.58241      55624.136     -20307.868      3284.5057     -17023.363      1.0255882    
   1084000   294.21847      307.10661      55560.408     -20296.729      3291.4161     -17005.313      1.0267646    
   1085000   299.7493       214.51852      55142.815     -20383.407      3353.2895     -17030.118      1.0345402    
   1086000   302.6232       64.517916      55089.5       -20298.622      3385.4398     -16913.182      1.0355414    
   1087000   299.2457       271.26013      55572.512     -20298.677      3347.6557     -16951.022      1.0265409    
   1088000   300.39098      156.13157      55476.683     -20267.586      3360.4679     -16907.118      1.0283141    
   1089000   299.90514     -93.612772      55057.923     -20296.526      3355.0328     -16941.493      1.0361353    
   1090000   309.88215      352.30106      55481.235     -20364.476      3466.6455     -16897.831      1.0282298    
   1091000   293.56976     -263.03595      55367.636     -20396.339      3284.1591     -17112.18       1.0303394    
   1092000   297.58828      36.758433      55123.879     -20258.477      3329.1141     -16929.363      1.0348956    
   1093000   307.01656      82.094787      55152.94      -20283.775      3434.5882     -16849.187      1.0343503    
   1094000   296.36757      118.96915      55216.624     -20237.121      3315.4581     -16921.662      1.0331573    
   1095000   300.94461      392.37462      55996.897     -20343.165      3366.6613     -16976.504      1.018761     
   1096000   303.67855      121.74175      56251.849     -20240.027      3397.246      -16842.781      1.0141437    
   1097000   294.7622       97.822881      55795.805     -20333.095      3297.4988     -17035.596      1.0224327    
   1098000   298.99985     -625.83238      55684.758     -20311.967      3344.9054     -16967.062      1.0244717    
   1099000   300.00535     -301.74497      55964.843     -20379.21       3356.1539     -17023.056      1.0193446    
   1100000   300.53625     -253.2214       55889.637     -20328.111      3362.0931     -16966.018      1.0207162    
   1101000   298.39506     -420.31034      55411.546     -20323.415      3338.1396     -16985.275      1.0295229    
   1102000   298.93211     -617.26633      55156.646     -20260.467      3344.1476     -16916.32       1.0342808    
   1103000   297.92587      11.926525      56016.447     -20205.75       3332.8908     -16872.859      1.0184055    
   1104000   300.54712      72.836941      55462.052     -20334.471      3362.2147     -16972.257      1.0285854    
   1105000   299.67064      435.11233      55197.391     -20277.514      3352.4095     -16925.104      1.0335173    
   1106000   303.1137      -70.698883      56189.288     -20355.622      3390.927      -16964.695      1.0152728    
   1107000   304.37141      302.07059      55408.914     -20269.481      3404.9969     -16864.484      1.0295718    
   1108000   300.07401      586.18095      55414.9       -20264.588      3356.9219     -16907.666      1.0294606    
   1109000   300.97221     -629.6242       55923.675     -20259.433      3366.9701     -16892.463      1.0200949    
   1110000   299.75107      72.107382      56027.749     -20192.991      3353.3093     -16839.682      1.0182001    
   1111000   292.59739      1016.6131      55440.074     -20311.831      3273.2812     -17038.55       1.0289932    
   1112000   308.86014     -158.2199       55754.216     -20320.708      3455.2122     -16865.495      1.0231954    
   1113000   300.39548     -105.20415      55673.183     -20329.5        3360.5182     -16968.982      1.0246847    
   1114000   301.14422      432.5993       55458.025     -20313.425      3368.8944     -16944.531      1.0286601    
   1115000   298.18452     -380.02908      55655.427     -20324.99       3335.7843     -16989.206      1.0250116    
   1116000   299.40665     -662.72565      55600.304     -20257.917      3349.4563     -16908.461      1.0260278    
   1117000   303.06051     -26.639092      55584.767     -20338.453      3390.3319     -16948.121      1.0263146    
   1118000   303.32768      538.14955      55543.56      -20315.229      3393.3207     -16921.909      1.027076     
   1119000   305.11015      141.97145      55173.519     -20231.16       3413.2612     -16817.899      1.0339645    
   1120000   301.959        597.83647      55199.142     -20476.987      3378.0094     -17098.977      1.0334845    
   1121000   303.0547       91.285049      55448.618     -20458.842      3390.2669     -17068.575      1.0288346    
   1122000   299.72945     -463.1691       56325.301     -20333.901      3353.0674     -16980.833      1.0128212    
   1123000   297.18118     -208.14295      55452.964     -20358.994      3324.56       -17034.434      1.028754     
   1124000   307.89832      419.64032      55222.553     -20363.3        3444.4524     -16918.848      1.0330464    
   1125000   300.57064      297.51206      55104.699     -20386.496      3362.4778     -17024.019      1.0352558    
   1126000   301.61284     -587.90315      55628.994     -20279.781      3374.1369     -16905.644      1.0254986    
   1127000   291.76946     -69.889122      55227.036     -20334.349      3264.0192     -17070.329      1.0329625    
   1128000   305.14783     -595.67866      55449.511     -20340.62       3413.6827     -16926.937      1.028818     
   1129000   301.61312     -196.46892      55556.392     -20345.476      3374.14       -16971.336      1.0268388    
   1130000   298.88124      134.6194       55724.743     -20341.096      3343.5785     -16997.517      1.0237366    
   1131000   301.85296     -491.98961      56151.146     -20352.159      3376.823      -16975.336      1.0159625    
   1132000   299.94598      1010.7751      55357.523     -20295.41       3355.4897     -16939.92       1.0305277    
   1133000   303.10398      630.27886      55616.297     -20295.722      3390.8182     -16904.904      1.0257327    
   1134000   298.87094     -348.99087      55876.204     -20275.958      3343.4633     -16932.495      1.0209616    
   1135000   301.70589      4.0677291      55769.406     -20313.308      3375.1778     -16938.13       1.0229167    
   1136000   296.58538     -121.80407      56057.703     -20320.423      3317.8947     -17002.528      1.017656     
   1137000   298.2964      -424.22791      55765.181     -20288.704      3337.0359     -16951.668      1.0229942    
   1138000   298.26633      7.424343       55632.116     -20330.145      3336.6995     -16993.445      1.0254411    
   1139000   298.18511      528.88989      55493.589     -20465.786      3335.7909     -17129.995      1.0280009    
   1140000   304.88866     -696.82966      55780.651     -20330.421      3410.7834     -16919.638      1.0227105    
   1141000   307.4374      -632.25783      55284.289     -20328.7        3439.2961     -16889.404      1.0318928    
   1142000   298.46636     -318.33555      56010.301     -20389.817      3338.9372     -17050.88       1.0185173    
   1143000   291.74303     -825.25391      56080.66      -20322.931      3263.7234     -17059.208      1.0172394    
   1144000   301.46111      86.725939      55194.991     -20240.716      3372.4394     -16868.276      1.0335622    
   1145000   306.08681      672.47983      55634.159     -20505.781      3424.1871     -17081.594      1.0254034    
   1146000   302.02114      624.43324      55434.228     -20371.114      3378.7045     -16992.409      1.0291017    
   1147000   298.46244      263.86655      54926.362     -20428.134      3338.8934     -17089.241      1.0386171    
   1148000   306.21504      294.15154      54899.668     -20334.027      3425.6215     -16908.406      1.0391221    
   1149000   298.94468     -688.47841      55871.949     -20485.958      3344.2882     -17141.67       1.0210393    
   1150000   296.98622     -220.52272      55791.173     -20265.857      3322.379      -16943.478      1.0225176    
   1151000   306.85679      309.02574      55390.784     -20253.061      3432.8009     -16820.26       1.0299088    
   1152000   298.60719     -205.95938      55403.699     -20248.272      3340.5127     -16907.76       1.0296687    
   1153000   295.65345      38.777878      55071.906     -20272.197      3307.4692     -16964.728      1.0358722    
   1154000   295.78446      221.97854      55139.553     -20241.626      3308.9349     -16932.691      1.0346014    
   1155000   295.45269     -197.93762      55924.137     -20487.33       3305.2234     -17182.106      1.0200865    
   1156000   296.72816      52.373714      55226.115     -20397.821      3319.4921     -17078.329      1.0329797    
   1157000   301.88238      34.484597      55145.905     -20354.257      3377.1522     -16977.105      1.0344822    
   1158000   301.0009       91.753831      55746.836     -20309.148      3367.291      -16941.857      1.0233309    
   1159000   302.42761      97.79793       55616.016     -20252.701      3383.2516     -16869.45       1.0257379    
   1160000   296.86948     -80.20354       55969.946     -20285.973      3321.073      -16964.9        1.0192516    
   1161000   301.20061      468.62407      55188.386     -20353.046      3369.5252     -16983.521      1.0336859    
   1162000   295.75745     -445.20233      55931.416     -20251.213      3308.6327     -16942.58       1.0199538    
   1163000   297.15521      318.40549      55929.967     -20311.3        3324.2694     -16987.03       1.0199802    
   1164000   299.52284      636.26818      55063.847     -20368.526      3350.756      -17017.77       1.0360238    
   1165000   304.55892      260.41697      55615.332     -20268.206      3407.0945     -16861.111      1.0257506    
   1166000   301.15177     -408.61737      55535.299     -20303.906      3368.9789     -16934.927      1.0272288    
   1167000   308.11799      157.43823      55718.762     -20422.145      3446.9098     -16975.235      1.0238465    
   1168000   300.16283     -357.75265      55800.791     -20311.259      3357.9156     -16953.344      1.0223414    
   1169000   302.46353     -380.63555      55581.916     -20229.317      3383.6535     -16845.664      1.0263672    
   1170000   300.62113     -18.213306      55292.573     -20404.193      3363.0426     -17041.15       1.0317382    
   1171000   300.66833     -597.44901      55619.939     -20351.728      3363.5706     -16988.158      1.0256656    
   1172000   302.27484      567.01503      55414.528     -20286.264      3381.5426     -16904.721      1.0294675    
   1173000   302.57026     -419.44682      55277.706     -20307.21       3384.8474     -16922.363      1.0320156    
   1174000   306.14234     -633.20333      55039.868     -20418.868      3424.8082     -16994.06       1.0364752    
   1175000   299.34484      471.29057      55505.111     -20308.263      3348.7647     -16959.498      1.0277875    
   1176000   305.40909      250.58466      55591.948     -20295.095      3416.6054     -16878.49       1.026182     
   1177000   294.26022      591.64203      55461.092     -20261.5        3291.8833     -16969.617      1.0286032    
   1178000   299.95704     -236.48662      55916.461     -20278.622      3355.6135     -16923.008      1.0202265    
   1179000   298.21232      1331.7808      55754.713     -20304.613      3336.0953     -16968.518      1.0231863    
   1180000   298.93673      1173.1963      55433.952     -20297.465      3344.1992     -16953.266      1.0291068    
   1181000   306.75644      105.86296      54920.67      -20437.649      3431.6782     -17005.971      1.0387247    
   1182000   306.29175      562.01103      55127.714     -20251.85       3426.4797     -16825.37       1.0348236    
   1183000   303.034        685.05973      55175.872     -20274.204      3390.0354     -16884.169      1.0339204    
   1184000   302.39849      884.17591      55253.245     -20313.948      3382.9259     -16931.022      1.0324725    
   1185000   287.96677      35.174627      55416.253     -20387.329      3221.4785     -17165.85       1.0294355    
   1186000   297.38397      683.32774      55604.23      -20309.888      3326.8285     -16983.06       1.0259554    
   1187000   297.71192      61.79885       55435.425     -20289.784      3330.4973     -16959.286      1.0290795    
   1188000   302.72992     -190.14292      56001.885     -20244.54       3386.6336     -16857.907      1.0186703    
   1189000   300.63773      594.45409      55237.825     -20267.906      3363.2283     -16904.678      1.0327607    
   1190000   294.8398      -338.91449      55755.444     -20200.159      3298.367      -16901.792      1.0231729    
   1191000   297.25007     -430.57938      55603.332     -20286.573      3325.3306     -16961.242      1.0259719    
   1192000   302.50806      680.42589      55509.703     -20353.595      3384.1517     -16969.443      1.0277025    
   1193000   297.74803     -71.378713      55408.266     -20378.303      3330.9013     -17047.402      1.0295839    
   1194000   294.16149      582.12519      55304.399     -20256.59       3290.7787     -16965.812      1.0315175    
   1195000   303.15052     -431.99001      55589.524     -20308.291      3391.3388     -16916.952      1.0262268    
   1196000   301.56952     -790.35103      56455.606     -20165.948      3373.6522     -16792.295      1.0104835    
   1197000   304.99202     -410.12077      55877.714     -20347.657      3411.9396     -16935.718      1.020934     
   1198000   298.18103     -112.77776      55580.954     -20406.45       3335.7453     -17070.704      1.026385     
   1199000   301.38683      175.43261      54921.17      -20367.069      3371.6084     -16995.461      1.0387153    
   1200000   295.94482     -58.542033      55426.728     -20170.851      3310.7288     -16860.122      1.0292409    
   1201000   299.35188     -269.0648       55896.014     -20232.154      3348.8436     -16883.31       1.0205997    
   1202000   297.49977     -732.18444      55284.527     -20241.192      3328.124      -16913.068      1.0318883    
   1203000   299.45121     -745.28927      55395.136     -20216.43       3349.9547     -16866.475      1.0298279    
   1204000   297.9403      -285.34666      55351.964     -20433.329      3333.0522     -17100.277      1.0306311    
   1205000   300.6897      -53.399119      55527.101     -20322.082      3363.8097     -16958.272      1.0273804    
   1206000   299.88015      387.12731      55379.77      -20284.31       3354.7533     -16929.557      1.0301137    
   1207000   301.34276      802.27409      54597.922     -20402.744      3371.1154     -17031.629      1.044865     
   1208000   297.45673      148.89484      55243.981     -20415.373      3327.6425     -17087.73       1.0326457    
   1209000   298.01119     -8.0077982      55598.797     -20331.204      3333.8452     -16997.358      1.0260556    
   1210000   302.13161      294.88252      55291.284     -20208.023      3379.9403     -16828.083      1.0317622    
   1211000   304.81563     -291.93909      55790.483     -20244.85       3409.9664     -16834.883      1.0225303    
   1212000   302.53568     -42.761938      55673.576     -20273.433      3384.4606     -16888.972      1.0246774    
   1213000   300.7332      -3.5506745      55407.871     -20186.162      3364.2964     -16821.865      1.0295912    
   1214000   293.27561      65.662226      55441.222     -20269.716      3280.8684     -16988.847      1.0289719    
   1215000   295.44354     -1019.9142      55358.776     -20296.794      3305.121      -16991.673      1.0305043    
   1216000   301.6288       618.9115       55506.197     -20262.938      3374.3154     -16888.622      1.0277674    
   1217000   297.37779     -898.2438       56146.43      -20169.28       3326.7594     -16842.52       1.0160478    
   1218000   298.49762     -49.60569       55251.263     -20362.878      3339.2869     -17023.591      1.0325096    
   1219000   300.61192     -481.68084      55797.287     -20315.148      3362.9396     -16952.209      1.0224056    
   1220000   302.62043      44.350634      55468.708     -20268.601      3385.4087     -16883.193      1.028462     
   1221000   299.65323      363.53494      55746.935     -20245.446      3352.2147     -16893.231      1.023329     
   1222000   301.7181      -361.75907      54918.35      -20319.852      3375.3144     -16944.537      1.0387686    
   1223000   299.42424     -66.316034      55259.323     -20296.25       3349.653      -16946.597      1.032359     
   1224000   305.90531      479.09201      55957.864     -20330.225      3422.1566     -16908.069      1.0194717    
   1225000   300.11001     -316.14125      55566.42      -20364.202      3357.3247     -17006.877      1.0266535    
   1226000   297.85434      37.163412      55542.119     -20222.31       3332.0905     -16890.22       1.0271027    
   1227000   293.1356      -401.03958      56050.814     -20262.049      3279.3021     -16982.747      1.0177811    
   1228000   296.13686      378.47563      55773.379     -20315.818      3312.8771     -17002.941      1.0228438    
   1229000   299.76787     -96.411778      55118.613     -20327.234      3353.4972     -16973.737      1.0349944    
   1230000   294.29822     -397.76368      55444.9       -20285.082      3292.3083     -16992.774      1.0289036    
   1231000   298.45444     -878.61412      55594.281     -20301.458      3338.8039     -16962.654      1.026139     
   1232000   297.85636     -150.25396      55550.33      -20289.023      3332.1132     -16956.91       1.0269508    
   1233000   298.26776      518.43789      55331.494     -20406.553      3336.7155     -17069.837      1.0310124    
   1234000   296.28042     -33.991773      55757.32      -20528.656      3314.4832     -17214.172      1.0231384    
   1235000   300.58031      556.6972       55287.912     -20294.387      3362.586      -16931.801      1.0318251    
   1236000   300.36975      314.15118      55693.803     -20328.175      3360.2305     -16967.944      1.0243053    
   1237000   290.77307     -631.53052      55653.67      -20412.835      3252.8726     -17159.963      1.0250439    
   1238000   305.63637     -191.42701      55636.62      -20292.561      3419.148      -16873.413      1.0253581    
   1239000   300.94354     -462.94403      55362.236     -20305.206      3366.6495     -16938.557      1.0304399    
   1240000   296.33243      484.82186      55045.559     -20269.322      3315.065      -16954.257      1.036368     
   1241000   299.21403     -59.578533      55830.939     -20320.001      3347.3014     -16972.699      1.0217893    
   1242000   307.46156     -73.81942       55679.326     -20386.79       3439.5664     -16947.223      1.0245716    
   1243000   299.14196     -452.77559      55539.964     -20350.933      3346.4951     -17004.438      1.0271425    
   1244000   302.10443      472.13317      54695.216     -20339.395      3379.6362     -16959.759      1.0430063    
   1245000   298.96097     -615.0156       55294.542     -20259.584      3344.4704     -16915.114      1.0317014    
   1246000   298.89782     -368.36323      55570.13      -20364.777      3343.764      -17021.013      1.0265849    
   1247000   305.43909     -34.704533      56007.234     -20268.203      3416.9411     -16851.262      1.018573     
   1248000   299.41279      1026.4069      55639.005     -20259.154      3349.5249     -16909.629      1.0253141    
   1249000   293.86298     -417.0735       55157.174     -20489.588      3287.4394     -17202.148      1.0342709    
   1250000   295.97935     -219.85173      56089.9       -20339.474      3311.1151     -17028.359      1.0170718    
   1251000   298.92589      85.098858      55951.561     -20334.863      3344.078      -16990.785      1.0195865    
   1252000   302.46579      387.86388      55109.797     -20384.034      3383.6788     -17000.355      1.03516      
   1253000   299.79531     -334.29845      55368.129     -20310.391      3353.8042     -16956.587      1.0303302    
   1254000   296.27899     -51.070513      55301.249     -20185.041      3314.4672     -16870.574      1.0315763    
   1255000   299.28043     -235.43792      55517.051     -20433.994      3348.0442     -17085.95       1.0275664    
   1256000   300.32314     -241.4414       55582.317     -20408.347      3359.709      -17048.638      1.0263598    
   1257000   299.47976     -226.99071      55440.622     -20307.393      3350.2741     -16957.119      1.028983     
   1258000   301.15866     -865.45901      55340.702     -20334.92       3369.056      -16965.864      1.0308409    
   1259000   298.39314     -331.24322      55362.686     -20280.936      3338.1181     -16942.818      1.0304315    
   1260000   293.19899     -21.904292      55582.722     -20373.436      3280.0113     -17093.425      1.0263523    
   1261000   293.61754      386.44596      55578.135     -20324.295      3284.6936     -17039.601      1.0264371    
   1262000   299.20209     -184.75806      55045.703     -20297.331      3347.1678     -16950.163      1.0363653    
   1263000   303.54836     -374.81469      55171.198     -20345.753      3395.7894     -16949.964      1.034008     
   1264000   298.39752      0.70649435     55052.927     -20380.032      3338.1671     -17041.865      1.0362293    
   1265000   305.99205      590.98826      55033.489     -20349.806      3423.127      -16926.679      1.0365953    
   1266000   298.24392     -16.137081      55535.329     -20366.88       3336.4488     -17030.431      1.0272282    
   1267000   305.17221     -136.07619      55620.472     -20267.558      3413.9554     -16853.602      1.0256558    
   1268000   307.26188     -555.79368      55425.54      -20406.091      3437.3325     -16968.758      1.029263     
   1269000   303.79016     -270.45195      55158.535     -20338.826      3398.4945     -16940.331      1.0342453    
   1270000   309.41151     -792.36355      55539.544     -20370.668      3461.3804     -16909.287      1.0271503    
   1271000   299.62624      118.44555      55480.799     -20294.909      3351.9128     -16942.996      1.0282379    
   1272000   292.32383      982.48464      55065.567     -20411.319      3270.2209     -17141.098      1.0359915    
   1273000   301.44989      25.326533      55756.903     -20321.014      3372.3139     -16948.7        1.0231461    
   1274000   295.81764     -626.38026      55503.194     -20412.239      3309.3061     -17102.933      1.027823     
   1275000   294.85972     -16.221259      55565.593     -20415.704      3298.5898     -17117.114      1.0266687    
   1276000   303.01093     -51.838658      55948.925     -20268.152      3389.7773     -16878.375      1.0196346    
   1277000   304.17858     -199.80754      55234.478     -20237.715      3402.8397     -16834.875      1.0328233    
   1278000   298.50542     -570.53277      55738.79      -20300.877      3339.3742     -16961.503      1.0234786    
   1279000   303.21126     -113.03223      55416.974     -20218.815      3392.0184     -16826.797      1.0294221    
   1280000   299.46463     -258.07542      55410.113     -20233.605      3350.1048     -16883.5        1.0295496    
   1281000   294.89027      175.90717      55803.277     -20249.51       3298.9316     -16950.578      1.0222958    
   1282000   301.06892      812.25838      55269.602     -20301.353      3368.052      -16933.301      1.032167     
   1283000   300.63417     -386.82432      55446.657     -20312.793      3363.1885     -16949.605      1.028871     
   1284000   299.29288     -220.80496      55464.003     -20222.23       3348.1835     -16874.047      1.0285492    
   1285000   300.5066      -677.3101       55799.581     -20364.088      3361.7614     -17002.327      1.0223635    
   1286000   299.31812      147.68339      55878.674     -20313.725      3348.4659     -16965.259      1.0209165    
   1287000   297.16235      228.70651      55372.487     -20346.124      3324.3493     -17021.775      1.0302491    
   1288000   296.22241     -234.57831      55396.549     -20343.112      3313.8342     -17029.278      1.0298016    
   1289000   294.88717      567.6424       54982.013     -20225.453      3298.8969     -16926.557      1.0375658    
   1290000   301.13223      1388.9691      55455.464     -20259.143      3368.7603     -16890.383      1.0287076    
   1291000   299.12663      523.98527      55114.291     -20353.797      3346.3237     -17007.473      1.0350756    
   1292000   302.58812      144.03168      54772.11      -20332.019      3385.0473     -16946.972      1.0415421    
   1293000   302.10345     -566.5035       55533.974     -20278.316      3379.6253     -16898.69       1.0272533    
   1294000   302.17783      755.29251      55529.733     -20274.276      3380.4574     -16893.819      1.0273317    
   1295000   299.40302     -550.43394      56147.437     -20310.864      3349.4156     -16961.448      1.0160296    
   1296000   299.83462      56.838021      55520.297     -20280.81       3354.2439     -16926.566      1.0275064    
   1297000   303.49827      1101.1887      55348.362     -20409.605      3395.2291     -17014.376      1.0306982    
   1298000   302.80324      730.90915      55187.396     -20270.98       3387.4538     -16883.526      1.0337045    
   1299000   299.75886      173.44692      55705.93      -20297.932      3353.3964     -16944.536      1.0240823    
   1300000   300.32154      310.9107       55640.734     -20247.885      3359.6911     -16888.194      1.0252823    
   1301000   301.30414     -30.765402      54951.98      -20303.508      3370.6835     -16932.825      1.0381329    
   1302000   299.51005     -295.95707      55374.07      -20235.396      3350.6129     -16884.783      1.0302197    
   1303000   299.34974      262.74596      54784.758     -20380.493      3348.8196     -17031.674      1.0413016    
   1304000   298.42545      348.84155      55117.559     -20314.116      3338.4796     -16975.636      1.0350142    
   1305000   300.57867      133.41333      55380.873     -20314.664      3362.5676     -16952.096      1.0300931    
   1306000   299.06776      88.196543      55387.552     -20242.727      3345.6651     -16897.062      1.0299689    
   1307000   299.58591     -427.87993      55775.088     -20300.527      3351.4616     -16949.065      1.0228125    
   1308000   306.91282      182.4832       55769.773     -20242.478      3433.4276     -16809.05       1.02291      
   1309000   305.90671      238.85525      55660.564     -20402.804      3422.1723     -16980.631      1.024917     
   1310000   292.03865     -220.9691       55699.123     -20327.945      3267.0306     -17060.914      1.0242075    
   1311000   307.46702      596.33103      55072.11      -20226.36       3439.6275     -16786.732      1.0358684    
   1312000   301.53062     -113.91449      55223.09      -20360.467      3373.2171     -16987.25       1.0330363    
   1313000   297.83884      573.86776      54768.393     -20369.462      3331.9172     -17037.545      1.0416128    
   1314000   294.68686     -411.44615      55383.451     -20429.787      3296.6561     -17133.131      1.0300452    
   1315000   299.75416     -189.95044      55313.126     -20321.026      3353.3439     -16967.683      1.0313548    
   1316000   300.12201      164.94807      55372.405     -20289.275      3357.4589     -16931.816      1.0302507    
   1317000   307.05265     -473.81987      55427.176     -20332.574      3434.9918     -16897.582      1.0292326    
   1318000   294.1099      -73.354135      55389.246     -20245.97       3290.2016     -16955.768      1.0299374    
   1319000   298.00884      156.01492      56112.619     -20257.269      3333.819      -16923.45       1.01666      
   1320000   303.36456     -128.85135      56121.406     -20364.549      3393.7333     -16970.815      1.0165009    
   1321000   298.12202     -251.0643       55770.042     -20277.654      3335.0851     -16942.569      1.0229051    
   1322000   291.02952      71.636104      55505.029     -20285.663      3255.7415     -17029.922      1.027789     
   1323000   304.71308     -348.20687      55756.291     -20194.738      3408.8192     -16785.919      1.0231573    
   1324000   301.16683     -1083.3523      55601.281     -20324.609      3369.1474     -16955.462      1.0260098    
   1325000   301.68005      59.834035      56032.192     -20216.235      3374.8887     -16841.346      1.0181193    
   1326000   302.76203      653.36654      55416.478     -20141.163      3386.9928     -16754.17       1.0294313    
   1327000   293.59939      686.00306      55294.892     -20366.048      3284.4905     -17081.558      1.0316949    
   1328000   298.60304      885.62567      55245.942     -20372.975      3340.4663     -17032.508      1.032609     
   1329000   304.76043      314.9689       55446.784     -20290.935      3409.3489     -16881.586      1.0288686    
   1330000   294.89711      313.58416      55342.556     -20282.899      3299.0081     -16983.89       1.0308063    
   1331000   300.71846     -167.00286      55659.64      -20233.541      3364.1314     -16869.41       1.024934     
   1332000   294.21819     -308.23777      55433.045     -20358.38       3291.4131     -17066.967      1.0291236    
   1333000   298.43265     -167.14728      55390.501     -20284.356      3338.5601     -16945.795      1.0299141    
   1334000   299.35019      237.83091      55958.909     -20343.033      3348.8247     -16994.208      1.0194526    
   1335000   294.60272     -543.02501      55975.341     -20219.889      3295.7148     -16924.174      1.0191534    
   1336000   300.43503     -228.44081      55805.165     -20236.841      3360.9607     -16875.88       1.0222612    
   1337000   299.20465     -379.48062      55799.703     -20332.326      3347.1965     -16985.129      1.0223613    
   1338000   297.86482      260.51624      55589.631     -20286.058      3332.2078     -16953.85       1.0262248    
   1339000   297.83706      38.625277      55501.851     -20580.523      3331.8973     -17248.626      1.0278478    
   1340000   301.57722     -804.67818      55625.605     -20382.721      3373.7384     -17008.982      1.0255611    
   1341000   292.7082      -161.05791      55885.04      -20441.516      3274.5208     -17166.995      1.0208002    
   1342000   298.78683      251.86812      55453.049     -20344.531      3342.5223     -17002.008      1.0287524    
   1343000   304.23819      530.33769      55354.645     -20358.208      3403.5066     -16954.702      1.0305812    
   1344000   295.06046     -498.79648      55348.755     -20247.945      3300.8355     -16947.11       1.0306909    
   1345000   302.60498     -620.83163      55562.582     -20430.853      3385.2359     -17045.617      1.0267244    
   1346000   298.96603      763.15545      55387.324     -20424.176      3344.5271     -17079.649      1.0299732    
   1347000   303.08216     -676.62936      56198.388     -20225.365      3390.5741     -16834.791      1.0151084    
   1348000   295.97984     -69.243638      55501.358     -20209.333      3311.1205     -16898.212      1.027857     
   1349000   298.82405      76.006098      55412.727     -20305.349      3342.9387     -16962.411      1.029501     
   1350000   296.38704     -85.013905      55491.987     -20303.692      3315.6759     -16988.016      1.0280305    
   1351000   296.94164     -924.35883      55968.218     -20427.901      3321.8802     -17106.021      1.0192831    
   1352000   295.78582     -427.76344      55321.15      -20475.619      3308.9501     -17166.669      1.0312052    
   1353000   293.88397      34.093776      55132.684     -20382.825      3287.6741     -17095.151      1.0347303    
   1354000   298.01506      158.25348      55664.148     -20387.526      3333.8886     -17053.638      1.024851     
   1355000   297.631       -381.4381       56020.129     -20350.14       3329.5921     -17020.548      1.0183386    
   1356000   302.51437     -216.60062      55241.35      -20249.861      3384.2223     -16865.639      1.0326948    
   1357000   294.97919     -467.7114       56258.945     -20285.597      3299.9263     -16985.671      1.0140158    
   1358000   302.36736     -207.04987      55804.025     -20365.764      3382.5776     -16983.187      1.0222821    
   1359000   301.16875     -302.60017      55867.723     -20379.464      3369.1688     -17010.295      1.0211166    
   1360000   304.34071     -40.645977      55745.317     -20286.061      3404.6534     -16881.408      1.0233587    
   1361000   303.27225      46.555438      55761.338     -20259.457      3392.7006     -16866.757      1.0230647    
   1362000   292.06643     -181.6585       55784.323     -20352.404      3267.3413     -17085.063      1.0226432    
   1363000   299.13914      28.539794      55574.212     -20318.323      3346.4636     -16971.86       1.0265095    
   1364000   295.72738     -888.16581      55593.598     -20357.257      3308.2963     -17048.961      1.0261516    
   1365000   300.1771       375.11964      55544.931     -20412.416      3358.0752     -17054.34       1.0270506    
   1366000   298.85147      283.6036       55759.388     -20423.813      3343.2454     -17080.568      1.0231005    
   1367000   305.35421     -3.3117627      55750.755     -20306.003      3415.9915     -16890.012      1.0232589    
   1368000   304.62798      276.07174      55700.105     -20299.796      3407.8672     -16891.929      1.0241894    
   1369000   305.41993      122.68989      55214.106     -20308.971      3416.7267     -16892.244      1.0332044    
   1370000   303.14731      316.51529      55167.89      -20273.124      3391.3029     -16881.822      1.03407      
   1371000   297.12208      95.351572      55421.828     -20287.97       3323.8988     -16964.071      1.0293319    
   1372000   295.0853      -68.917556      55199.373     -20387.995      3301.1134     -17086.881      1.0334802    
   1373000   297.71164     -100.56217      55717.955     -20331.739      3330.4942     -17001.245      1.0238613    
   1374000   303.22647      394.28181      54981.904     -20354.299      3392.1885     -16962.111      1.0375679    
   1375000   305.39221      223.75419      55534.468     -20263.211      3416.4165     -16846.794      1.0272441    
   1376000   305.21828      655.78105      55545.57      -20366.481      3414.4709     -16952.01       1.0270388    
   1377000   292.08098     -5.7236808      55826.986     -20387.902      3267.5042     -17120.397      1.0218617    
   1378000   295.78628     -498.52564      55614.807     -20341.405      3308.9553     -17032.45       1.0257602    
   1379000   304.4584      -182.71786      55753.026     -20323.889      3405.9701     -16917.918      1.0232172    
   1380000   298.72574     -43.009834      55835.764     -20321.223      3341.8389     -16979.384      1.021701     
   1381000   308.64251      139.98526      55946.345     -20290.842      3452.7776     -16838.065      1.0196816    
   1382000   292.97399     -996.66771      55750.582     -20279.059      3277.4942     -17001.565      1.0232621    
   1383000   304.10937     -228.69431      55170.682     -20433.985      3402.0654     -17031.919      1.0340176    
   1384000   299.01044      598.67251      54944.87      -20457.921      3345.0238     -17112.898      1.0382672    
   1385000   299.86023     -225.38421      55312.224     -20229.946      3354.5304     -16875.416      1.0313716    
   1386000   294.95937     -403.86973      55781.728     -20250.342      3299.7046     -16950.637      1.0226908    
   1387000   303.32519      397.07874      55327.734     -20362.655      3393.2929     -16969.362      1.0310825    
   1388000   299.87168      604.16147      54721.868     -20343.225      3354.6586     -16988.567      1.0424984    
   1389000   300.7708      -43.153306      55640.221     -20281.244      3364.717      -16916.527      1.0252917    
   1390000   299.18268     -48.24898       55634.667     -20369.961      3346.9507     -17023.01       1.0253941    
   1391000   299.69552      107.27196      55629.874     -20312.246      3352.6878     -16959.558      1.0254824    
   1392000   294.55638     -0.55272297     55704.034     -20225.294      3295.1964     -16930.097      1.0241172    
   1393000   302.14807      281.69238      55230.659     -20211.719      3380.1245     -16831.595      1.0328948    
   1394000   293.58665     -221.20235      55427.235     -20307.464      3284.348      -17023.116      1.0292315    
   1395000   300.06279      915.53625      54914.205     -20339.695      3356.7965     -16982.899      1.038847     
   1396000   297.78622      114.40359      55321.793     -20316.462      3331.3286     -16985.134      1.0311932    
   1397000   297.01295     -141.70303      55418.306     -20416.556      3322.6779     -17093.878      1.0293974    
   1398000   297.05868     -119.16467      55502.951     -20411.757      3323.1895     -17088.568      1.0278275    
   1399000   297.07494     -267.35601      55444.75      -20321.253      3323.3715     -16997.881      1.0289064    
   1400000   301.02424     -341.9229       55233.469     -20296.348      3367.5521     -16928.796      1.0328422    
   1401000   294.90481     -544.74559      55825.176     -20320.779      3299.0943     -17021.685      1.0218948    
   1402000   295.88837     -259.00554      55630.861     -20502.784      3310.0974     -17192.686      1.0254642    
   1403000   301.42041     -484.71976      55289.079     -20418.238      3371.9841     -17046.253      1.0318034    
   1404000   297.46911     -136.22538      55954.757     -20461.478      3327.781      -17133.697      1.0195283    
   1405000   310.82028      417.6662       56451.299     -20267.645      3477.1403     -16790.505      1.0105606    
   1406000   302.22868     -262.92469      55970.067     -20217.545      3381.0262     -16836.518      1.0192494    
   1407000   297.63857     -301.29383      55613.517     -20212.977      3329.6768     -16883.3        1.025784     
   1408000   293.38384     -508.09336      55449.097     -20372.261      3282.0791     -17090.182      1.0288257    
   1409000   308.52254      291.35481      55175.878     -20260.213      3451.4355     -16808.778      1.0339203    
   1410000   299.05174     -145.27616      55666.287     -20331.678      3345.4859     -16986.192      1.0248116    
   1411000   301.54492     -549.25897      55776.302     -20198.576      3373.377      -16825.199      1.0227902    
   1412000   305.29368      190.30483      55556.92      -20318.954      3415.3144     -16903.639      1.026829     
   1413000   306.3815      -112.6955       55002.151     -20313.261      3427.4837     -16885.777      1.0371859    
   1414000   294.53225      408.78024      55207.251     -20264.286      3294.9264     -16969.359      1.0333327    
   1415000   303.57524     -135.89562      55533.942     -20364.071      3396.0902     -16967.981      1.0272539    
   1416000   300.33106     -204.32927      55269.399     -20321.546      3359.7976     -16961.749      1.0321708    
   1417000   298.3163       196.95499      55856.019     -20224.779      3337.2586     -16887.52       1.0213305    
   1418000   298.1284      -724.21795      55460.514     -20164.984      3335.1565     -16829.828      1.0286139    
   1419000   299.90097      1195.9861      55074.899     -20338.034      3354.9862     -16983.048      1.0358159    
   1420000   300.50449     -119.40746      55978.832     -20364.737      3361.7378     -17003          1.0190898    
   1421000   303.37528      36.183558      55658.445     -20343.892      3393.8532     -16950.038      1.024956     
   1422000   295.91054      31.422891      54902.737     -20358.445      3310.3454     -17048.099      1.039064     
   1423000   297.90908     -140.25982      55413.912     -20296.727      3332.703      -16964.024      1.029479     
   1424000   302.39051     -174.58561      55958.793     -20314.545      3382.8366     -16931.708      1.0194548    
   1425000   306.56569      1001.4163      55196.627     -20300.519      3429.5443     -16870.974      1.0335316    
   1426000   301.42311     -302.71639      55485.984     -20210.902      3372.0144     -16838.888      1.0281418    
   1427000   302.75809      63.513613      55559.856     -20274.924      3386.9487     -16887.975      1.0267748    
   1428000   307.08077     -66.294913      55410.56      -20292.242      3435.3065     -16856.936      1.0295413    
   1429000   296.1096      -46.338638      55082.868     -20256.65       3312.5722     -16944.078      1.0356661    
   1430000   296.48974      272.87858      55604.49      -20299.817      3316.8248     -16982.992      1.0259506    
   1431000   297.36626     -314.22545      55452.564     -20310.091      3326.6305     -16983.461      1.0287614    
   1432000   303.60935     -253.81943      55323.131     -20308.253      3396.4717     -16911.781      1.0311683    
   1433000   303.61196     -189.00118      55826.461     -20410.572      3396.5009     -17014.071      1.0218713    
   1434000   297.20675      193.31756      55567.581     -20314.266      3324.846      -16989.42       1.026632     
   1435000   297.06084     -1114.9709      55850.798     -20425.503      3323.2138     -17102.289      1.021426     
   1436000   304.34518      668.66549      55162.119     -20425.406      3404.7035     -17020.703      1.0341781    
   1437000   296.31544      10.440339      55202.77      -20306.4        3314.875      -16991.526      1.0334166    
   1438000   298.44721     -178.412        55809.915     -20387.955      3338.723      -17049.232      1.0221742    
   1439000   306.35468      182.96774      55728.175     -20273.21       3427.1838     -16846.026      1.0236735    
   1440000   295.51284     -215.75317      55618.663     -20277.553      3305.8963     -16971.656      1.0256891    
   1441000   296.59481     -424.79864      55846.61      -20280.929      3318.0002     -16962.929      1.0215026    
   1442000   294.99581     -479.96915      55693.806     -20386.018      3300.1122     -17085.905      1.0243052    
   1443000   297.7437      -100.23708      55066.202     -20282.59       3330.8529     -16951.737      1.0359795    
   1444000   298.14546     -82.312749      55244.366     -20381.707      3335.3473     -17046.359      1.0326385    
   1445000   303.27483      195.39941      55893.825     -20325.864      3392.7295     -16933.135      1.0206397    
   1446000   294.4538      -207.51595      55656.763     -20235.333      3294.0488     -16941.284      1.024987     
   1447000   301.42718     -641.58554      55571.319     -20361.804      3372.0599     -16989.744      1.026563     
   1448000   303.00633      30.387526      55133.951     -20308.042      3389.7257     -16918.316      1.0347065    
   1449000   299.93447     -440.41873      55401.183     -20312.566      3355.361      -16957.205      1.0297155    
   1450000   298.34655      573.89727      55012.565     -20360.363      3337.5969     -17022.766      1.0369896    
   1451000   303.76991      193.42232      55097.58      -20316.12       3398.268      -16917.852      1.0353895    
   1452000   301.63711      296.66759      56138.401     -20282.733      3374.4084     -16908.325      1.0161931    
   1453000   299.57721      431.33212      55320.89      -20326.441      3351.3642     -16975.076      1.0312101    
   1454000   301.73058      529.44628      55378.722     -20303.123      3375.454      -16927.668      1.0301331    
   1455000   305.81613     -815.33729      55405.492     -20278.385      3421.159      -16857.226      1.0296354    
   1456000   297.84582      197.61973      55052.387     -20368.817      3331.9952     -17036.821      1.0362395    
   1457000   298.61031     -225.56111      55050.324     -20403.929      3340.5476     -17063.382      1.0362783    
   1458000   297.1086       333.59634      55186.804     -20354.393      3323.748      -17030.645      1.0337156    
   1459000   297.58572      210.37866      55308.055     -20270.302      3329.0855     -16941.216      1.0314493    
   1460000   300.20266     -120.60425      55563.22      -20153.064      3358.3611     -16794.703      1.0267126    
   1461000   298.67612     -115.18252      55493.191     -20414.362      3341.2838     -17073.078      1.0280082    
   1462000   302.2922      -79.064711      55206.519     -20334.389      3381.7368     -16952.652      1.0333464    
   1463000   303.3384      -237.98855      55455.041     -20285.444      3393.4407     -16892.004      1.0287155    
   1464000   298.64718      618.38738      55293.23      -20333.147      3340.96       -16992.187      1.0317259    
   1465000   299.03796     -234.6527       55269.551     -20438.943      3345.3317     -17093.612      1.0321679    
   1466000   299.53203      1078.9283      55258.134     -20401.828      3350.8589     -17050.969      1.0323812    
   1467000   301.48156     -348.17465      55293.411     -20276.096      3372.6682     -16903.428      1.0317225    
   1468000   298.19171     -410.17419      55544.698     -20418.92       3335.8647     -17083.056      1.027055     
   1469000   300.26379     -103.93972      55986.75      -20259.296      3359.0451     -16900.251      1.0189457    
   1470000   294.75497     -81.159618      55060.793     -20486.363      3297.4179     -17188.945      1.0360813    
   1471000   303.69125     -212.51997      55859.532     -20424.781      3397.388      -17027.393      1.0212663    
   1472000   293.38077     -448.98987      56146.692     -20289.288      3282.0449     -17007.244      1.0160431    
   1473000   297.36006      800.58722      55711.451     -20461.261      3326.561      -17134.7        1.0239808    
   1474000   297.55079      223.59601      56259.303     -20316.762      3328.6948     -16988.067      1.0140093    
   1475000   300.1761      -97.441202      55759.738     -20422.139      3358.064      -17064.075      1.0230941    
   1476000   294.05525      147.88834      55224.823     -20339.76       3289.5903     -17050.17       1.0330039    
   1477000   305.1632      -93.308493      55433.578     -20265.223      3413.8547     -16851.369      1.0291137    
   1478000   298.40568     -59.558383      55256.772     -20314.713      3338.2585     -16976.455      1.0324066    
   1479000   306.75819      365.97448      55086.504     -20323.793      3431.6978     -16892.095      1.0355977    
   1480000   298.4847      -130.93291      55631.007     -20341.964      3339.1424     -17002.822      1.0254615    
   1481000   301.01838      434.58604      55737.537     -20323.853      3367.4866     -16956.366      1.0235016    
   1482000   293.20706      333.98587      55729.872     -20309.395      3280.1015     -17029.293      1.0236424    
   1483000   306.79962      423.08977      55668.816     -20291.067      3432.1612     -16858.905      1.0247651    
   1484000   305.64097     -192.80321      55611.017     -20361.605      3419.1995     -16942.405      1.0258301    
   1485000   302.47227     -174.01402      55735.79      -20267.022      3383.7513     -16883.27       1.0235337    
   1486000   298.68864     -754.20186      55894.974     -20367.061      3341.4239     -17025.637      1.0206187    
   1487000   302.11095     -784.44731      55926.859     -20235.895      3379.7092     -16856.185      1.0200369    
   1488000   303.83009     -346.24826      55160.644     -20189.409      3398.9412     -16790.468      1.0342058    
   1489000   308.35599      907.4523       54717.707     -20256.794      3449.5724     -16807.221      1.0425776    
   1490000   305.85886     -153.89691      55141.525     -20362.255      3421.637      -16940.618      1.0345644    
   1491000   307.91023     -316.74298      55366.876     -20354.776      3444.5856     -16910.19       1.0303536    
   1492000   299.34505      270.51608      55717.276     -20429.043      3348.7671     -17080.275      1.0238738    
   1493000   300.50583      319.14334      55764.789     -20337.431      3361.7527     -16975.678      1.0230014    
   1494000   296.28865      264.38455      55168.297     -20218.291      3314.5753     -16903.715      1.0340623    
   1495000   295.67424      165.20024      55760.455     -20177.179      3307.7019     -16869.477      1.0230809    
   1496000   295.41516     -828.72734      55670.471     -20222.938      3304.8035     -16918.135      1.0247346    
   1497000   297.60439      467.12464      55450.97      -20359.743      3329.2944     -17030.449      1.028791     
   1498000   307.34596      77.008596      55285.502     -20343.176      3438.2731     -16904.903      1.0318701    
   1499000   295.09384      99.571614      55760.643     -20256.915      3301.2089     -16955.706      1.0230775    
   1500000   294.12045      474.67407      55481.253     -20263.281      3290.3196     -16972.962      1.0282294    
   1501000   300.6653       405.12696      55612.279     -20368.75       3363.5367     -17005.214      1.0258069    
   1502000   303.64933     -147.33391      55858.986     -20323.521      3396.919      -16926.602      1.0212763    
   1503000   300.98803     -756.07029      55322.55      -20411.837      3367.1471     -17044.69       1.0311791    
   1504000   299.03881      285.43662      55718.934     -20310.862      3345.3412     -16965.521      1.0238433    
   1505000   305.60998      421.58706      55752.181     -20335.069      3418.8527     -16916.216      1.0232328    
   1506000   297.90132      374.05563      55919.713     -20340.804      3332.6161     -17008.188      1.0201672    
   1507000   304.9412       171.50264      55214.984     -20369.935      3411.3712     -16958.564      1.033188     
   1508000   303.3608       319.5689       55740.492     -20195.831      3393.6912     -16802.14       1.0234473    
   1509000   307.39823     -20.594467      55309.595     -20225.034      3438.8579     -16786.176      1.0314206    
   1510000   307.05068     -397.65635      55638.647     -20175.035      3434.9698     -16740.065      1.0253207    
   1511000   295.46648      521.27588      55200.987     -20293.348      3305.3776     -16987.971      1.03345      
   1512000   292.38615     -552.84335      55226.489     -20216.334      3270.918      -16945.416      1.0329727    
   1513000   304.97461     -310.17196      55412.007     -20323.192      3411.7449     -16911.447      1.0295144    
   1514000   296.79313     -80.242775      55864.16      -20370.016      3320.2188     -17049.797      1.0211817    
   1515000   296.98318      443.9324       56063.403     -20255.824      3322.3449     -16933.479      1.0175525    
   1516000   300.15714      918.14805      55513.565     -20384.644      3357.852      -17026.792      1.027631     
   1517000   294.03649     -125.94273      54873.1       -20245.551      3289.3804     -16956.171      1.0396252    
   1518000   303.63148     -81.695362      55647.645     -20261.115      3396.7193     -16864.395      1.0251549    
   1519000   299.78377     -205.76526      55088.145     -20260.484      3353.6751     -16906.809      1.0355669    
   1520000   298.40311     -179.69437      55455.646     -20249.229      3338.2297     -16910.999      1.0287042    
   1521000   303.66496     -857.16932      56081.136     -20376.015      3397.0938     -16978.922      1.0172308    
   1522000   295.53827     -326.06209      55773.23      -20420.947      3306.1808     -17114.766      1.0228466    
   1523000   301.46381      72.854441      55527.212     -20332.49       3372.4697     -16960.02       1.0273784    
   1524000   301.0125       276.02906      55499.064     -20248.383      3367.4208     -16880.962      1.0278994    
   1525000   298.8849      -223.32515      55506.974     -20393.054      3343.6194     -17049.435      1.027753     
   1526000   298.80304      585.2156       55716.07      -20355.153      3342.7037     -17012.449      1.0238959    
   1527000   301.56291      160.14055      54648.469     -20334.23       3373.5782     -16960.652      1.0438986    
   1528000   307.8701      -275.28917      55084.544     -20248.4        3444.1367     -16804.263      1.0356346    
   1529000   300.13797     -656.2556       56083.361     -20257.185      3357.6375     -16899.547      1.0171904    
   1530000   301.45025      388.93622      55218.595     -20328.576      3372.3179     -16956.259      1.0331204    
   1531000   296.30985      214.10142      55483.94      -20166.905      3314.8124     -16852.092      1.0281796    
   1532000   300.94663     -342.09094      55904.332     -20296.457      3366.684      -16929.774      1.0204479    
   1533000   296.12923      164.27365      55034.221     -20217.552      3312.7918     -16904.76       1.0365815    
   1534000   303.21726     -124.57918      55125.957     -20445.456      3392.0855     -17053.371      1.0348565    
   1535000   304.07328      132.95304      55408.047     -20233.296      3401.6617     -16831.634      1.029588     
   1536000   298.61179     -13.709829      55829.327     -20183.664      3340.5641     -16843.099      1.0218188    
   1537000   306.16046     -260.96188      56018.343     -20315.246      3425.011      -16890.235      1.018371     
   1538000   306.59991      104.28616      55353.987     -20231.941      3429.9271     -16802.013      1.0305935    
   1539000   304.97457     -149.72503      55123.107     -20359.1        3411.7444     -16947.355      1.0349101    
   1540000   297.57283      594.59665      55444.313     -20219.659      3328.9414     -16890.718      1.0289145    
   1541000   309.46862     -298.87321      56005.035     -20342.274      3462.0193     -16880.255      1.018613     
   1542000   303.79389     -102.83152      55741.551     -20265.216      3398.5362     -16866.68       1.0234279    
   1543000   307.48022      591.16745      55265.965     -20340.22       3439.7751     -16900.445      1.0322349    
   1544000   302.19894     -458.91971      55572.66      -20236.768      3380.6936     -16856.074      1.0265382    
   1545000   300.66567     -392.59201      55196.209     -20346.386      3363.5409     -16982.846      1.0335394    
   1546000   304.32665     -269.94355      54872.523     -20334.895      3404.4962     -16930.399      1.0396361    
   1547000   296.12839     -477.3869       56078.02      -20233.235      3312.7824     -16920.453      1.0172873    
   1548000   296.53447     -160.75643      55757.791     -20294.5        3317.3252     -16977.175      1.0231298    
   1549000   299.18485      116.79604      55372.281     -20296.085      3346.975      -16949.11       1.030253     
   1550000   299.67275      970.57558      54932.785     -20404.273      3352.4331     -17051.84       1.0384956    
   1551000   301.66664     -848.14836      55194.128     -20441.499      3374.7387     -17066.761      1.0335784    
   1552000   300.82388     -392.08226      55352.073     -20310.342      3365.3108     -16945.031      1.0306291    
   1553000   299.97711     -417.78507      55557.312     -20441.207      3355.838      -17085.369      1.0268218    
   1554000   304.11532      279.55184      55774.313     -20258.701      3402.132      -16856.569      1.0228267    
   1555000   300.66821     -769.48726      55644.302     -20318.145      3363.5693     -16954.575      1.0252165    
   1556000   300.56967     -426.37023      56021.174     -20411.99       3362.467      -17049.523      1.0183196    
   1557000   302.99033      17.493323      55996.091     -20295.282      3389.5468     -16905.735      1.0187757    
   1558000   303.99082     -788.01561      55447.95      -20333.97       3400.7393     -16933.23       1.028847     
   1559000   307.14764      277.41139      55047.14      -20366.248      3436.0545     -16930.194      1.0363383    
   1560000   290.35844     -38.101403      55484.058     -20228.231      3248.2341     -16979.997      1.0281775    
   1561000   299.92753      480.33674      55400.461     -20312.231      3355.2833     -16956.947      1.0297289    
   1562000   301.28903     -260.27496      55489.979     -20267.383      3370.5144     -16896.869      1.0280678    
   1563000   300.01788     -385.53125      55224.779     -20243.472      3356.294      -16887.178      1.0330047    
   1564000   302.16821      203.54171      55564.371     -20278.847      3380.3498     -16898.497      1.0266913    
   1565000   300.30031     -348.26633      55711.996     -20317.074      3359.4536     -16957.62       1.0239708    
   1566000   298.78909     -463.79242      55782.239     -20449.053      3342.5476     -17106.506      1.0226814    
   1567000   298.74373     -733.4768       55923.522     -20264.42       3342.0401     -16922.38       1.0200977    
   1568000   296.80239      245.48599      55199.737     -20329.222      3320.3225     -17008.899      1.0334734    
   1569000   302.40322      778.65936      54997.274     -20241.908      3382.9788     -16858.929      1.0372779    
   1570000   299.90565     -320.18334      55663.064     -20235.342      3355.0385     -16880.303      1.024871     
   1571000   301.39024      240.43339      55294.176     -20344.649      3371.6467     -16973.002      1.0317083    
   1572000   296.16068      761.02167      55482.038     -20273.934      3313.1437     -16960.791      1.0282149    
   1573000   306.51667     -676.54717      55758.164     -20286.721      3428.9959     -16857.725      1.023123     
   1574000   310.43601      643.33279      55268.835     -20292.905      3472.8414     -16820.063      1.0321813    
   1575000   301.34417      11.372167      55497.936     -20281.271      3371.1313     -16910.14       1.0279203    
   1576000   305.11144     -472.85519      55472.304     -20282.386      3413.2756     -16869.111      1.0283953    
   1577000   296.1029      -151.94216      55405.386     -20320.361      3312.4972     -17007.864      1.0296374    
   1578000   305.33993      220.54691      55157.601     -20449.185      3415.8317     -17033.353      1.0342628    
   1579000   302.73225     -53.459812      55415.45      -20357.232      3386.6597     -16970.572      1.0294504    
   1580000   297.81439     -612.02139      55062.223     -20296.207      3331.6437     -16964.563      1.0360544    
   1581000   307.03061     -334.28664      55289.502     -20358.825      3434.7453     -16924.08       1.0317955    
   1582000   300.51485     -41.448737      55562.046     -20357.626      3361.8537     -16995.772      1.0267343    
   1583000   299.15562     -76.632448      55195.228     -20396.53       3346.648      -17049.882      1.0335578    
   1584000   304.2121      -391.19016      55249.83      -20287.368      3403.2147     -16884.154      1.0325364    
   1585000   301.02329     -1132.4272      56184.255     -20368.777      3367.5416     -17001.235      1.0153638    
   1586000   302.49703     -93.704468      55728.872     -20364.649      3384.0283     -16980.62       1.0236607    
   1587000   295.19903     -108.10278      55347.328     -20317.285      3302.3857     -17014.9        1.0307175    
   1588000   304.03262     -667.96641      55342.901     -20410.534      3401.2069     -17009.327      1.0307999    
   1589000   290.86988     -16.740505      55646.361     -20301.759      3253.9556     -17047.803      1.0251786    
   1590000   298.01595     -756.04968      54922.267     -20382.341      3333.8985     -17048.442      1.0386945    
   1591000   297.21286      195.62826      55429.736     -20229.523      3324.9144     -16904.608      1.0291851    
   1592000   298.33136     -81.658129      55235.444     -20253.095      3337.427      -16915.668      1.0328053    
   1593000   309.32152     -105.51284      55375.536     -20374.763      3460.3737     -16914.39       1.0301924    
   1594000   297.5587      -457.66765      55349.016     -20241.188      3328.7833     -16912.405      1.030686     
   1595000   304.96316      483.22281      55445.239     -20229.023      3411.6168     -16817.406      1.0288973    
   1596000   303.75396     -686.43647      55333.456     -20281.532      3398.0896     -16883.442      1.0309759    
   1597000   302.91366      445.49551      54650.473     -20208.882      3388.6891     -16820.193      1.0438603    
   1598000   299.68534      226.07946      55284.189     -20290.831      3352.5739     -16938.257      1.0318946    
   1599000   297.22472     -626.13868      55564.155     -20326.32       3325.0471     -17001.273      1.0266953    
   1600000   310.19567      150.979        54985.171     -20373.154      3470.1528     -16903.002      1.0375062    
   1601000   301.82881      757.38412      55593.24      -20349.159      3376.553      -16972.606      1.0261582    
   1602000   297.93686      46.185397      55265.233     -20354.905      3333.0137     -17021.891      1.0322486    
   1603000   304.35339      1467.2046      55081.713     -20338.661      3404.7953     -16933.865      1.0356878    
   1604000   294.50531     -942.79359      55922.863     -20275.39       3294.6251     -16980.765      1.0201097    
   1605000   301.83582     -250.37316      55638.867     -20291.816      3376.6313     -16915.185      1.0253167    
   1606000   300.93992      403.74655      54686.238     -20362.797      3366.6089     -16996.188      1.0431776    
   1607000   300.29256     -454.26502      55830.044     -20198.768      3359.3669     -16839.401      1.0218057    
   1608000   299.73163     -392.01847      55778.544     -20404.171      3353.0918     -17051.079      1.0227491    
   1609000   301.48883      308.67431      55447.662     -20344.619      3372.7496     -16971.87       1.0288524    
   1610000   301.44556     -599.88095      55346.952     -20380.783      3372.2655     -17008.518      1.0307245    
   1611000   295.55943      77.677543      55573.867     -20324.775      3306.4175     -17018.357      1.0265159    
   1612000   302.65738      53.522097      55162.469     -20217.254      3385.8221     -16831.432      1.0341716    
   1613000   300.66873     -66.423928      55667.825     -20350.524      3363.5751     -16986.949      1.0247833    
   1614000   304.39306     -22.163187      55480.862     -20186.347      3405.2391     -16781.108      1.0282367    
   1615000   297.31238     -734.89571      56089.133     -20259.094      3326.0277     -16933.067      1.0170857    
   1616000   304.92934      204.04867      56151.71      -20266.404      3411.2384     -16855.166      1.0159523    
   1617000   299.85284      64.696428      55650.478     -20356.059      3354.4477     -17001.611      1.0251027    
   1618000   298.89759      131.29096      55625.252     -20336.04       3343.7614     -16992.278      1.0255676    
   1619000   298.52022      856.22138      55154.69      -20357.664      3339.5398     -17018.124      1.0343174    
   1620000   293.74166     -654.8961       56199.103     -20317.627      3286.0821     -17031.544      1.0150955    
   1621000   300.99831     -568.01899      55725.939     -20325.306      3367.2621     -16958.044      1.0237146    
   1622000   296.91549     -1047.457       55150.98      -20407.544      3321.5877     -17085.956      1.034387     
   1623000   290.51372      366.95494      55698.669     -20382.729      3249.9712     -17132.758      1.0242158    
   1624000   295.31927     -548.48496      55950.139     -20113.916      3303.7308     -16810.185      1.0196124    
   1625000   299.28656     -432.06283      55662.777     -20394.725      3348.1128     -17046.612      1.0248762    
   1626000   303.49601     -940.80393      55713.23      -20367.164      3395.2038     -16971.96       1.0239481    
   1627000   296.57505      670.34106      55451.19      -20456.655      3317.7792     -17138.876      1.0287869    
   1628000   295.24522     -269.50897      55613.998     -20279.458      3302.9024     -16976.556      1.0257752    
   1629000   300.70868      311.16544      55438.788     -20258.442      3364.022      -16894.42       1.029017     
   1630000   300.91661      236.45967      55352.206     -20174.543      3366.3481     -16808.195      1.0306266    
   1631000   297.61036      466.24411      55439.578     -20292.257      3329.3611     -16962.895      1.0290024    
   1632000   300.34192      486.50158      55242.989     -20303.324      3359.9191     -16943.405      1.0326642    
   1633000   306.30499      310.64074      55924.226     -20249.316      3426.6279     -16822.688      1.0200849    
   1634000   300.07873      44.143311      55903.192     -20295.262      3356.9748     -16938.287      1.0204687    
   1635000   303.239        771.97422      55714.878     -20173.895      3392.3287     -16781.566      1.0239178    
   1636000   296.93005     -600.52509      55681.007     -20196.856      3321.7505     -16875.105      1.0245407    
   1637000   292.37648      329.76891      54929.81      -20278.918      3270.8099     -17008.108      1.0385519    
   1638000   290.22255     -524.9552       55741.272     -20178.44       3246.7139     -16931.726      1.023433     
   1639000   300.2066       72.61267       55564.906     -20364.129      3358.4053     -17005.724      1.0266814    
   1640000   303.15737     -527.67371      55407.674     -20375.586      3391.4155     -16984.171      1.0295949    
   1641000   307.14373      877.0636       55090.988     -20273.088      3436.0108     -16837.077      1.0355134    
   1642000   303.2638      -5.1655141      55513.949     -20378.191      3392.6061     -16985.585      1.0276238    
   1643000   300.46397     -148.62428      55598.413     -20302.364      3361.2845     -16941.08       1.0260627    
   1644000   301.95138      88.234874      55090.984     -20382.388      3377.9241     -17004.464      1.0355135    
   1645000   301.5467       128.16306      55356.048     -20280.486      3373.397      -16907.089      1.0305551    
   1646000   299.24818      990.07522      55570.032     -20260.416      3347.6834     -16912.733      1.0265867    
   1647000   308.40668     -368.80764      55491.469     -20338.127      3450.1394     -16887.987      1.0280401    
   1648000   304.03276      85.947364      55725.121     -20240.075      3401.2084     -16838.866      1.0237296    
   1649000   293.51212      971.46058      55700.308     -20349.884      3283.5142     -17066.37       1.0241857    
   1650000   299.37376      348.44133      55357.484     -20296.472      3349.0884     -16947.384      1.0305284    
   1651000   297.24969     -837.29912      55527.741     -20075.082      3325.3263     -16749.755      1.0273686    
   1652000   301.78417     -301.40108      56152.269     -20283.321      3376.0535     -16907.268      1.0159422    
   1653000   291.65533      263.17741      55166.102     -20274.461      3262.7424     -17011.718      1.0341035    
   1654000   302.37976      20.070726      54844.83      -20243.371      3382.7164     -16860.655      1.0401611    
   1655000   295.66619     -1208.1042      56003.28      -20394.927      3307.6118     -17087.315      1.0186449    
   1656000   296.10142     -90.39682       55498.253     -20342.268      3312.4807     -17029.787      1.0279145    
   1657000   300.6736       20.172238      55144.595     -20345.103      3363.6296     -16981.473      1.0345068    
   1658000   299.68766      41.819036      55947.003     -20425.23       3352.5999     -17072.63       1.0196696    
   1659000   296.58254     -263.73897      55748.988     -20299.729      3317.8629     -16981.866      1.0232914    
   1660000   299.3848      -533.46827      56492.595     -20255.858      3349.2118     -16906.646      1.0098219    
   1661000   301.0811       842.95819      56007.626     -20309.34       3368.1883     -16941.151      1.0185659    
   1662000   302.34349      402.56512      55808.411     -20272.221      3382.3106     -16889.91       1.0222018    
   1663000   294.5131      -269.4485       55616.383     -20257.92       3294.7122     -16963.208      1.0257312    
   1664000   302.86181     -297.75406      55522.346     -20315.387      3388.1091     -16927.278      1.0274684    
   1665000   298.86486      305.5587       55586.913     -20168.19       3343.3952     -16824.794      1.026275     
   1666000   303.76184      284.12189      55249.141     -20314.441      3398.1777     -16916.264      1.0325492    
   1667000   299.63588     -136.04035      55151.98      -20143.735      3352.0206     -16791.715      1.0343683    
   1668000   298.82325      176.67281      55497.035     -20286.248      3342.9298     -16943.318      1.027937     
   1669000   297.94143      491.3442       55504.231     -20209.952      3333.0648     -16876.888      1.0278038    
   1670000   298.50513     -65.150027      55173.204     -20302.018      3339.371      -16962.647      1.0339704    
   1671000   299.02241      632.72421      55540.228     -20230.618      3345.1577     -16885.46       1.0271376    
   1672000   298.64487      566.64606      55555.795     -20333.378      3340.9343     -16992.443      1.0268498    
   1673000   304.21408     -411.94774      55008.563     -20403.823      3403.2368     -17000.586      1.037065     
   1674000   292.94321     -1032.4119      55113.09      -20321.411      3277.1499     -17044.261      1.0350982    
   1675000   296.55798     -611.25467      55406.517     -20289.513      3317.5883     -16971.925      1.0296164    
   1676000   293.27746     -131.20437      55116.185     -20440.718      3280.8891     -17159.829      1.03504      
   1677000   306.7587      -381.64214      55338.328     -20264.532      3431.7034     -16832.828      1.0308851    
   1678000   299.21174     -1720.0057      55733.013     -20306.165      3347.2758     -16958.889      1.0235847    
   1679000   298.18363      945.36766      55097.513     -20384.25       3335.7744     -17048.476      1.0353908    
   1680000   299.33849      501.32306      55805.257     -20149.694      3348.6937     -16801          1.0222596    
   1681000   296.30963     -1104.684       55914.04      -20258.961      3314.8099     -16944.151      1.0202707    
   1682000   303.26502      544.84572      55573.236     -20261.404      3392.6198     -16868.784      1.0265276    
   1683000   307.23285     -402.01763      55389.956     -20385.825      3437.0078     -16948.817      1.0299242    
   1684000   300.14496     -854.0984       55589.473     -20324.102      3357.7157     -16966.387      1.0262277    
   1685000   295.82369      182.63658      55245.584     -20345.695      3309.3738     -17036.322      1.0326157    
   1686000   305.6656      -508.91479      55600.735     -20268.081      3419.475      -16848.606      1.0260198    
   1687000   307.83046      63.690162      55686.911     -20359.952      3443.6933     -16916.259      1.0244321    
   1688000   297.44269      342.66045      55091.079     -20357.395      3327.4854     -17029.909      1.0355117    
   1689000   303.23273      423.73351      55566.91      -20353.701      3392.2586     -16961.443      1.0266444    
   1690000   309.30208      323.05858      55937.386     -20353.634      3460.1562     -16893.478      1.0198449    
   1691000   308.29186     -365.62882      55379.91      -20251.083      3448.855      -16802.228      1.030111     
   1692000   299.42637     -309.42819      55429.112     -20367.352      3349.6768     -17017.676      1.0291967    
   1693000   299.22994     -6.1366175      55442.588     -20311.875      3347.4794     -16964.395      1.0289465    
   1694000   297.14933      51.16923       55307.109     -20406.593      3324.2037     -17082.39       1.031467     
   1695000   298.51081      105.25921      55264.291     -20340.516      3339.4345     -17001.082      1.0322662    
   1696000   307.04782     -609.92019      56107.37      -20320.497      3434.9378     -16885.559      1.0167552    
   1697000   293.80931     -260.82133      55545.858     -20328.338      3286.8389     -17041.499      1.0270335    
   1698000   296.85322     -85.231271      55800.52      -20274.603      3320.8911     -16953.712      1.0223463    
   1699000   292.37019     -222.94038      55283.569     -20216.684      3270.7395     -16945.945      1.0319062    
   1700000   300.64121     -74.423019      55693.437     -20237.434      3363.2672     -16874.166      1.024312     
   1701000   304.60156     -92.439655      55763.292     -20327.832      3407.5716     -16920.261      1.0230289    
   1702000   308.31826     -707.24117      56069.62      -20251.986      3449.1502     -16802.836      1.0174397    
   1703000   305.4082      -234.08244      55992.281     -20259.969      3416.5955     -16843.374      1.018845     
   1704000   302.6632       166.12629      55350.079     -20275.442      3385.8872     -16889.555      1.0306662    
   1705000   303.18389      500.20203      55477.327     -20245.631      3391.7121     -16853.919      1.0283022    
   1706000   308.87286      476.75926      54990.866     -20288.376      3455.3546     -16833.021      1.0373988    
   1707000   302.0279      -192.01515      55574.316     -20244.833      3378.7801     -16866.052      1.0265076    
   1708000   296.98932     -9.1986376      55539.297     -20140.753      3322.4137     -16818.339      1.0271548    
   1709000   293.92635      751.42629      54800.409     -20271.315      3288.1482     -16983.167      1.0410042    
   1710000   305.42088     -260.70563      55869.029     -20268.809      3416.7373     -16852.072      1.0210927    
   1711000   307.64373     -634.54586      56379.11      -20372.133      3441.6043     -16930.529      1.0118545    
   1712000   301.03577      338.59619      55207.488     -20433.931      3367.6811     -17066.25       1.0333283    
   1713000   295.35025      611.98282      55128.673     -20361.043      3304.0774     -17056.966      1.0348056    
   1714000   301.15252      69.869184      55735.774     -20248.532      3368.9873     -16879.545      1.023534     
   1715000   303.86068      956.82518      55160.013     -20365.135      3399.2833     -16965.852      1.0342176    
   1716000   303.29687     -758.91031      55484.115     -20303.5        3392.976      -16910.523      1.0281764    
   1717000   300.09906     -611.89619      55261.129     -20453.769      3357.2023     -17096.567      1.0323252    
   1718000   300.36576      914.6555       55375.161     -20402.966      3360.1857     -17042.781      1.0301994    
   1719000   300.13774      439.25133      55452.69      -20237.241      3357.6349     -16879.607      1.0287591    
   1720000   301.11036      358.01368      55873.055     -20222.657      3368.5156     -16854.141      1.0210191    
   1721000   298.16406     -6.4399033      55550.612     -20338.104      3335.5554     -17002.549      1.0269456    
   1722000   295.74375     -247.0704       55611.75      -20370.949      3308.4795     -17062.469      1.0258166    
   1723000   297.91338     -34.75175       55124.28      -20311.247      3332.7511     -16978.496      1.034888     
   1724000   297.41441     -19.180612      55804.565     -20190.369      3327.1691     -16863.2        1.0222722    
   1725000   306.75451     -291.23496      55712.176     -20255.967      3431.6566     -16824.31       1.0239675    
   1726000   300.38712      232.41008      55400.946     -20306.657      3360.4248     -16946.232      1.0297199    
   1727000   294.66468      336.68015      55515.143     -20116.983      3296.4079     -16820.575      1.0276018    
   1728000   291.12665      304.83107      55465.368     -20355.902      3256.8281     -17099.074      1.0285239    
   1729000   295.53901     -565.52493      55128.702     -20382.525      3306.1891     -17076.336      1.034805     
   1730000   298.54457      256.61017      55691.974     -20298.721      3339.8122     -16958.909      1.0243389    
   1731000   309.0533       1153.235       55963.1       -20313.7        3457.3731     -16856.327      1.0193763    
   1732000   302.03117      776.16461      55660.839     -20233.491      3378.8166     -16854.675      1.0249119    
   1733000   303.06818     -117.37051      56020.074     -20316.122      3390.4177     -16925.704      1.0183396    
   1734000   300.60315      293.30969      55774.246     -20321.015      3362.8414     -16958.174      1.0228279    
   1735000   302.01058      212.99517      54989.195     -20293.733      3378.5863     -16915.146      1.0374303    
   1736000   296.7832       425.01344      55506.076     -20379.341      3320.1077     -17059.234      1.0277696    
   1737000   302.14875     -178.21361      55194.946     -20293.731      3380.132      -16913.599      1.0335631    
   1738000   299.82129     -179.03035      55567.253     -20205.361      3354.0948     -16851.266      1.0266381    
   1739000   307.19028      116.91051      55424.457     -20332.211      3436.5316     -16895.679      1.0292831    
   1740000   303.68068      176.53572      55208.071     -20315.015      3397.2698     -16917.745      1.0333173    
   1741000   298.42461     -3.8350374      55332.768     -20381.053      3338.4702     -17042.583      1.0309887    
   1742000   303.38188      604.97518      55395.181     -20484.416      3393.9271     -17090.489      1.0298271    
   1743000   303.33746      30.382703      55705.842     -20269.697      3393.4302     -16876.267      1.0240839    
   1744000   293.2204      -426.10113      55376.266     -20301.091      3280.2508     -17020.84       1.0301788    
   1745000   299.04009     -296.9994       55690.595     -20386.178      3345.3556     -17040.823      1.0243643    
   1746000   293.80901      551.3433       55634.118     -20503.207      3286.8356     -17216.371      1.0254042    
   1747000   295.88975     -121.18037      55518.479     -20407.316      3310.1128     -17097.203      1.02754      
   1748000   296.58457      396.29637      54908.008     -20417.764      3317.8857     -17099.878      1.0389643    
   1749000   304.51897     -785.39703      55576.868     -20133.82       3406.6477     -16727.172      1.0264605    
   1750000   300.51692      718.28629      55252.594     -20288.359      3361.8768     -16926.482      1.0324847    
   1751000   301.64205     -230.99673      55591.727     -20270.39       3374.4636     -16895.927      1.0261861    
   1752000   302.85942      29.844078      55808.198     -20307.026      3388.0823     -16918.944      1.0222057    
   1753000   294.30533     -311.24092      56100.773     -20254.836      3292.3879     -16962.448      1.0168747    
   1754000   298.06086     -274.64677      56065.172     -20336.931      3334.401      -17002.53       1.0175204    
   1755000   297.45842     -1134.9846      56476.14      -20302.807      3327.6614     -16975.146      1.0101161    
   1756000   300.52047      32.020888      55353.855     -20390.907      3361.9165     -17028.99       1.0305959    
   1757000   300.31804     -189.59888      55596.235     -20311.275      3359.6519     -16951.623      1.0261029    
   1758000   297.32717      331.34546      55590.983     -20250.676      3326.1932     -16924.483      1.0261998    
   1759000   302.53822     -222.14252      54961.378     -20398.661      3384.489      -17014.172      1.0379554    
   1760000   297.05808     -326.68087      55441.857     -20240.334      3323.1828     -16917.151      1.0289601    
   1761000   290.39742     -376.35407      55648.027     -20308.084      3248.6702     -17059.414      1.0251479    
   1762000   300.14306     -1170.5465      55754.148     -20319.119      3357.6945     -16961.425      1.0231967    
   1763000   293.63313     -835.04544      55691.889     -20437.52       3284.868      -17152.652      1.0243405    
   1764000   297.28896      458.68781      55143.485     -20327.557      3325.7657     -17001.791      1.0345276    
   1765000   301.29813     -108.90502      56016.363     -20397.856      3370.6162     -17027.24       1.018407     
   1766000   301.67582      413.93183      55436.605     -20381.066      3374.8414     -17006.224      1.0290576    
   1767000   295.06632      259.08042      55479.107     -20363.207      3300.9011     -17062.306      1.0282692    
   1768000   295.70379     -42.983877      55416.754     -20347.853      3308.0324     -17039.82       1.0294262    
   1769000   298.19676      748.45921      55305.535     -20267.506      3335.9212     -16931.585      1.0314964    
   1770000   298.38323     -20.691063      55635.494     -20265.873      3338.0073     -16927.866      1.0253788    
   1771000   303.51543      170.93543      55840.669     -20333.649      3395.421      -16938.228      1.0216113    
   1772000   294.90732      671.02568      55477.568     -20347.365      3299.1223     -17048.243      1.0282977    
   1773000   296.44964      197.00821      55278.961     -20276.812      3316.3763     -16960.436      1.0319922    
   1774000   303.19242     -314.98346      55966.042     -20394.162      3391.8076     -17002.355      1.0193227    
   1775000   301.82827     -945.65103      55526.037     -20316.402      3376.5469     -16939.855      1.0274001    
   1776000   295.34938     -232.96545      55393.115     -20366.623      3304.0676     -17062.556      1.0298655    
   1777000   301.90586      196.41513      55750.473     -20312.149      3377.4148     -16934.734      1.0232641    
   1778000   301.79332      93.150142      55368.692     -20389.426      3376.1559     -17013.27       1.0303198    
   1779000   296.38952     -764.02805      56270.276     -20441.765      3315.7036     -17126.061      1.0138116    
   1780000   303.94814      334.44096      55626.944     -20338.761      3400.2618     -16938.5        1.0255364    
   1781000   301.24915     -48.806521      55893.951     -20349.407      3370.0682     -16979.339      1.0206374    
   1782000   304.3871      -374.90733      55248.77      -20396.165      3405.1725     -16990.992      1.0325562    
   1783000   307.23747     -329.98358      55441.821     -20247.939      3437.0595     -16810.88       1.0289608    
   1784000   299.80602      944.5466       55573.484     -20393.92       3353.924      -17039.996      1.026523     
   1785000   304.67262      611.17727      55987.451     -20404.824      3408.3665     -16996.457      1.0189329    
   1786000   296.43921     -20.689097      55720.049     -20343.116      3316.2596     -17026.856      1.0238228    
   1787000   304.58808      1020.7439      55311.58      -20340.725      3407.4208     -16933.304      1.0313836    
   1788000   301.59117      293.78582      55757.964     -20279.975      3373.8944     -16906.08       1.0231266    
   1789000   299.03396      337.89941      55486.625     -20383.449      3345.287      -17038.162      1.0281299    
   1790000   302.62916      707.04722      54784.093     -20360.262      3385.5064     -16974.756      1.0413143    
   1791000   297.61027     -51.202342      55790.207     -20239.263      3329.3602     -16909.902      1.0225353    
   1792000   303.15293     -768.13147      55646.173     -20360.13       3391.3659     -16968.764      1.0251821    
   1793000   305.21946     -679.18567      55890.995     -20394.025      3414.484      -16979.541      1.0206914    
   1794000   300.14089     -53.80825       54926.782     -20352.772      3357.6702     -16995.102      1.0386091    
   1795000   300.71818      264.64913      56177.012     -20177.024      3364.1283     -16812.895      1.0154947    
   1796000   300.19428     -85.868983      55325.844     -20324.82       3358.2674     -16966.552      1.0311177    
   1797000   311.90828      351.421        54766.992     -20242.875      3489.3118     -16753.563      1.0416394    
   1798000   299.38402     -144.76942      55394.437     -20370.322      3349.203      -17021.118      1.0298409    
   1799000   301.87178     -83.46842       55679.841     -20385.183      3377.0336     -17008.15       1.0245622    
   1800000   296.38203      186.2461       54966.488     -20372.383      3315.6198     -17056.764      1.0378589    
   1801000   293.45063     -481.62042      55943.537     -20305.721      3282.8264     -17022.895      1.0197328    
   1802000   301.7088       32.68159       54872.951     -20331.283      3375.2103     -16956.072      1.039628     
   1803000   300.87714     -670.2364       56075.479     -20267.432      3365.9066     -16901.526      1.0173334    
   1804000   305.10821     -535.33109      55711.715     -20396.856      3413.2395     -16983.617      1.023976     
   1805000   297.73544      411.9028       55682.887     -20310.045      3330.7605     -16979.285      1.0245061    
   1806000   296.46499      841.95059      54806.573     -20360.388      3316.5479     -17043.84       1.0408872    
   1807000   297.24909     -187.19837      55532.164     -20230.949      3325.3197     -16905.629      1.0272868    
   1808000   305.27455      479.14715      55297.706     -20214.046      3415.1003     -16798.946      1.0316424    
   1809000   297.13269      825.10223      55254.964     -20359.696      3324.0175     -17035.679      1.0324404    
   1810000   300.75388     -865.40548      55568.054     -20354.658      3364.5276     -16990.13       1.0266233    
   1811000   298.57049     -156.49311      54807.26      -20388.701      3340.1021     -17048.599      1.0408741    
   1812000   300.08397      225.54753      55451.236     -20222.518      3357.0334     -16865.485      1.028786     
   1813000   299.66645      166.50146      55784.929     -20214.877      3352.3626     -16862.515      1.0226321    
   1814000   300.75391      746.7937       56169.819     -20244.509      3364.528      -16879.981      1.0156247    
   1815000   300.34874      23.455777      55443.774     -20405.703      3359.9953     -17045.708      1.0289245    
   1816000   300.7534      -24.347523      55454.228     -20260.029      3364.5223     -16895.507      1.0287305    
   1817000   300.90476     -1210.6232      55667.172     -20438.393      3366.2156     -17072.178      1.0247953    
   1818000   301.00444      223.79341      55967.488     -20417.54       3367.3307     -17050.21       1.0192964    
   1819000   300.01368      253.22519      55662.44      -20432.153      3356.2471     -17075.906      1.0248824    
   1820000   299.64944     -289.57864      55602.307     -20455.478      3352.1723     -17103.306      1.0259908    
   1821000   301.40058      17.097249      55496.854     -20401.07       3371.7623     -17029.308      1.0279404    
   1822000   299.07019      236.3808       55731.108     -20349.628      3345.6923     -17003.936      1.0236197    
   1823000   302.19377     -853.43405      55215.708     -20302.427      3380.6357     -16921.791      1.0331744    
   1824000   298.96732      61.902184      55489.369     -20390.559      3344.5414     -17046.018      1.028079     
   1825000   296.91416     -696.89376      55555.665     -20333.738      3321.5728     -17012.166      1.0268522    
   1826000   301.37111     -517.45913      55595.882     -20313.051      3371.4326     -16941.618      1.0261094    
   1827000   303.96956      466.90743      55036.791     -20295.065      3400.5014     -16894.564      1.0365331    
   1828000   303.68578     -96.066998      55381.534     -20372.867      3397.3268     -16975.54       1.0300808    
   1829000   297.97237     -110.05785      55162.123     -20391.095      3333.411      -17057.684      1.0341781    
   1830000   306.2461      -744.36254      55444.985     -20151.006      3425.969      -16725.037      1.028902     
   1831000   298.92222     -38.911609      54974.671     -20254.034      3344.0369     -16909.997      1.0377044    
   1832000   299.10822      363.33851      55410.34      -20286.364      3346.1177     -16940.246      1.0295453    
   1833000   299.84925     -201.65748      55364.609     -20289.575      3354.4075     -16935.168      1.0303957    
   1834000   305.74814     -116.66446      55183.068     -20286.756      3420.3983     -16866.357      1.0337855    
   1835000   302.6234      -774.21687      55994.557     -20277.217      3385.442      -16891.775      1.0188036    
   1836000   300.06795     -143.65546      55185.179     -20257.024      3356.8542     -16900.17       1.033746     
   1837000   303.09496      593.97669      55795.286     -20346.948      3390.7173     -16956.231      1.0224423    
   1838000   299.79634      169.54024      55744.013     -20298.288      3353.8157     -16944.472      1.0233827    
   1839000   292.83083      1059.9115      55397.632     -20328.291      3275.8926     -17052.399      1.0297815    
   1840000   295.10342      751.17445      55977.677     -20392.541      3301.3161     -17091.225      1.0191108    
   1841000   298.17489     -109.12653      55513.571     -20297.625      3335.6766     -16961.948      1.0276308    
   1842000   298.99945      809.2268       54752.122     -20320.905      3344.9009     -16976.004      1.0419223    
   1843000   301.24572      131.88952      55103.001     -20353.224      3370.0299     -16983.195      1.0352877    
   1844000   296.4544       259.4752       55485.472     -20288.585      3316.4295     -16972.156      1.0281512    
   1845000   298.18728      94.314871      55327.774     -20277.859      3335.8152     -16942.044      1.0310817    
   1846000   292.22756     -466.88809      55885.734     -20257.019      3269.144      -16987.875      1.0207875    
   1847000   301.24261     -626.4977       55925.873     -20238.71       3369.995      -16868.715      1.0200548    
   1848000   306.01018     -183.94814      55498.951     -20292.938      3423.3298     -16869.608      1.0279015    
   1849000   298.25137     -242.71584      55511.846     -20383.412      3336.5322     -17046.88       1.0276628    
   1850000   295.81848     -450.14377      54544.043     -20431.286      3309.3155     -17121.97       1.0458971    
   1851000   303.84972     -658.09229      55782.731     -20441.446      3399.1607     -17042.285      1.0226724    
   1852000   302.48152      23.265516      55080.324     -20304.803      3383.8548     -16920.948      1.0357139    
   1853000   294.98443     -558.54972      55814.412     -20399.137      3299.985      -17099.152      1.0220919    
   1854000   300.42206     -530.33743      55708.193     -20390.297      3360.8156     -17029.481      1.0240407    
   1855000   302.34266      867.22217      55292.517     -20266.82       3382.3014     -16884.519      1.0317392    
   1856000   299.06789      241.13562      55956.212     -20398.001      3345.6665     -17052.335      1.0195018    
   1857000   299.1084       78.987666      55507.641     -20379.609      3346.1197     -17033.489      1.0277406    
   1858000   296.99918      1267.4083      55365.6       -20371.535      3322.524      -17049.011      1.0303773    
   1859000   298.71525      386.57987      55131.481     -20369.983      3341.7215     -17028.261      1.0347529    
   1860000   301.78438      785.18652      55435.13      -20287.504      3376.0558     -16911.448      1.0290849    
   1861000   301.86097     -260.23585      55396.542     -20259.054      3376.9127     -16882.142      1.0298018    
   1862000   306.83079      369.8214       55828.615     -20297.525      3432.51       -16865.015      1.0218319    
   1863000   296.5817      -288.62056      55788.746     -20327.495      3317.8536     -17009.642      1.0225621    
   1864000   302.62419     -1122.166       56117.991     -20312.259      3385.4508     -16926.808      1.0165627    
   1865000   297.10305     -634.97483      55999.091     -20343.32       3323.6859     -17019.634      1.0187211    
   1866000   308.10855      654.25197      55105.407     -20292.372      3446.8042     -16845.568      1.0352425    
   1867000   303.3013      -437.28245      55294.668     -20185.375      3393.0257     -16792.35       1.0316991    
   1868000   292.49115      148.0561       55459.772     -20284.457      3272.0926     -17012.364      1.0286277    
   1869000   304.77463      71.548051      55206.028     -20311.619      3409.5077     -16902.111      1.0333556    
   1870000   295.29645     -481.14846      55717.332     -20380.19       3303.4755     -17076.714      1.0238727    
   1871000   289.77445     -176.80289      55777.671     -20298.966      3241.701      -17057.265      1.0227651    
   1872000   296.10164     -55.050365      55610.97      -20241.304      3312.4831     -16928.82       1.025831     
   1873000   297.3634      -295.68209      55466.242     -20261.366      3326.5984     -16934.768      1.0285077    
   1874000   298.81198      273.2278       55049.24      -20469.837      3342.8036     -17127.034      1.0362987    
   1875000   297.65386     -291.08107      55432.166     -20311.585      3329.8478     -16981.737      1.02914      
   1876000   292.00607     -586.5591       55222.65      -20294.863      3266.6661     -17028.197      1.0330445    
   1877000   296.59451     -624.46211      55602.803     -20256.18       3317.9969     -16938.183      1.0259817    
   1878000   298.76777      230.75418      55163.406     -20338.918      3342.3091     -16996.609      1.034154     
   1879000   287.29084     -505.86694      55918.203     -20317.501      3213.9169     -17103.584      1.0201948    
   1880000   300.19646     -607.6286       55538.916     -20273.917      3358.2918     -16915.625      1.0271619    
   1881000   305.89809      30.958226      55556.589     -20306.296      3422.0759     -16884.221      1.0268351    
   1882000   300.48013      363.05969      55055.417     -20219.531      3361.4652     -16858.065      1.0361825    
   1883000   298.58126     -107.59868      55388.611     -20241.93       3340.2226     -16901.707      1.0299492    
   1884000   290.24628      323.3013       55139.212     -20249.257      3246.9793     -17002.277      1.0346078    
   1885000   297.11325      550.67219      55681.869     -20297.592      3323.8        -16973.792      1.0245248    
   1886000   298.68099     -1080.5582      55784.821     -20361.606      3341.3383     -17020.268      1.0226341    
   1887000   305.32998     -12.054966      55855.326     -20311.137      3415.7204     -16895.417      1.0213432    
   1888000   309.73417      426.27999      55256.138     -20300.031      3464.9899     -16835.041      1.0324185    
   1889000   300.69147     -1162.9634      56132.444     -20190.104      3363.8295     -16826.274      1.016301     
   1890000   299.22687      77.289671      55418.066     -20266.448      3347.4451     -16919.003      1.0294018    
   1891000   301.81141      496.52594      55625.956     -20388.192      3376.3582     -17011.834      1.0255546    
   1892000   297.10602      48.342135      55267.296     -20351.602      3323.7192     -17027.883      1.03221      
   1893000   300.73489      224.45128      55421.706     -20236.478      3364.3152     -16872.163      1.0293342    
   1894000   299.48464     -233.068        55889.391     -20273.875      3350.3287     -16923.546      1.0207207    
   1895000   304.6896      -396.62518      55890.449     -20358.802      3408.5565     -16950.246      1.0207014    
   1896000   299.59712     -743.19699      56428.177     -20328.146      3351.5871     -16976.559      1.0109747    
   1897000   296.00977     -629.55547      55780.573     -20237.817      3311.4555     -16926.361      1.0227119    
   1898000   306.69063     -321.92161      56196.914     -20390.524      3430.942      -16959.582      1.0151351    
   1899000   296.81955      235.21096      55193.363     -20321.009      3320.5144     -17000.495      1.0335927    
   1900000   292.31624      1044.9039      55096.916     -20313.271      3270.136      -17043.135      1.035402     
   1901000   293.40276     -300.9354       55537.272     -20358.445      3282.2909     -17076.154      1.0271923    
   1902000   303.16739     -595.38253      55789.575     -20321.249      3391.5276     -16929.721      1.0225469    
   1903000   301.45859     -50.759846      55682.42      -20339.927      3372.4113     -16967.516      1.0245147    
   1904000   298.70846     -564.64825      55739.524     -20281.933      3341.6456     -16940.287      1.0234651    
   1905000   305.58293      719.98393      55192.963     -20373.203      3418.5502     -16954.653      1.0336002    
   1906000   298.42036     -487.54374      55347.214     -20253.064      3338.4226     -16914.641      1.0307196    
   1907000   297.05243      437.87933      55409.263     -20281.509      3323.1196     -16958.39       1.0295654    
   1908000   292.60172     -546.12316      55462.908     -20306.034      3273.3297     -17032.705      1.0285695    
   1909000   302.7386       641.52409      55662.032     -20168.381      3386.7306     -16781.651      1.02489      
   1910000   295.59737     -354.096        55506.375     -20458.153      3306.8419     -17151.311      1.0277641    
   1911000   301.12918      640.34328      55320.13      -20406.603      3368.7261     -17037.877      1.0312242    
   1912000   295.53674     -89.60615       55231.296     -20287.418      3306.1636     -16981.254      1.0328828    
   1913000   302.33219      263.27513      55423.271     -20353          3382.1842     -16970.816      1.0293051    
   1914000   307.09466     -1331.9756      55623.198     -20327.13       3435.4618     -16891.669      1.0256055    
   1915000   300.81466      296.54307      55621.692     -20339.155      3365.2077     -16973.947      1.0256333    
   1916000   306.92495     -52.240011      55196.843     -20350.322      3433.5633     -16916.759      1.0335275    
   1917000   307.14698     -437.67412      55515.095     -20337.132      3436.0471     -16901.085      1.0276026    
   1918000   302.73686      896.37808      54528.145     -20459.552      3386.7112     -17072.841      1.0462021    
   1919000   307.72574      319.35965      55303.302     -20226.023      3442.5218     -16783.501      1.031538     
   1920000   305.41778     -110.82405      54918.564     -20344.393      3416.7026     -16927.691      1.0387645    
   1921000   301.89466      217.08171      55308.077     -20289.115      3377.2896     -16911.825      1.031449     
   1922000   300.99875     -598.64598      55091.065     -20293.542      3367.267      -16926.275      1.035512     
   1923000   298.94797      47.568941      55588.645     -20248.865      3344.325      -16904.54       1.026243     
   1924000   297.0438       350.60329      55651.93      -20369.685      3323.0231     -17046.662      1.025076     
   1925000   300.51071      395.3491       55143.643     -20307.64       3361.8073     -16945.833      1.0345247    
   1926000   296.04302      542.34116      55604.995     -20270.997      3311.8274     -16959.17       1.0259412    
   1927000   300.36449      155.08368      55455.988     -20323.794      3360.1716     -16963.622      1.0286979    
   1928000   297.88525      172.55274      55241.908     -20319.315      3332.4364     -16986.879      1.0326844    
   1929000   304.77327      418.58031      55169.509     -20332.965      3409.4926     -16923.472      1.0340396    
   1930000   299.24129      180.43339      55513.351     -20215.207      3347.6064     -16867.601      1.0276349    
   1931000   305.74243     -257.25405      55535.008     -20357.684      3420.3345     -16937.349      1.0272342    
   1932000   297.10508     -293.133        55800.732     -20325.323      3323.7087     -17001.614      1.0223425    
   1933000   305.04948      21.380023      55613.345     -20246.888      3412.5825     -16834.305      1.0257872    
   1934000   294.14902     -705.81167      55889.372     -20254.426      3290.6393     -16963.787      1.020721     
   1935000   298.8504       118.32075      55158.908     -20492.605      3343.2335     -17149.372      1.0342383    
   1936000   300.86863     -435.41972      55655.416     -20337.262      3365.8114     -16971.451      1.0250118    
   1937000   297.90649     -211.23062      55733.995     -20358.682      3332.674      -17026.008      1.0235666    
   1938000   297.98794      103.22848      55172.183     -20374.341      3333.5852     -17040.756      1.0339895    
   1939000   299.56639      567.40786      55275.701     -20344.262      3351.2432     -16993.019      1.0320531    
   1940000   297.83516     -283.92592      55110.724     -20270.881      3331.876      -16939.005      1.0351426    
   1941000   301.53057     -515.25283      55679.883     -20365.149      3373.2165     -16991.933      1.0245614    
   1942000   301.6191      -804.29155      55775.765     -20401.618      3374.2069     -17027.412      1.0228001    
   1943000   293.12473      573.05056      55673.459     -20302.765      3279.1805     -17023.584      1.0246796    
   1944000   305.26409      128.7174       55534.348     -20440.587      3414.9833     -17025.604      1.0272464    
   1945000   296.40904      658.47023      55410.465     -20277.95       3315.922      -16962.028      1.029543     
   1946000   296.49358      148.24646      55436.168     -20301.302      3316.8677     -16984.434      1.0290657    
   1947000   295.84429     -574.88415      55577.491     -20354.58       3309.6042     -17044.976      1.0264489    
   1948000   305.35283     -180.34761      55596.678     -20372.312      3415.9761     -16956.336      1.0260947    
   1949000   303.95333     -458.34894      55478.261     -20334.936      3400.3198     -16934.617      1.0282849    
   1950000   306.90246      68.836226      55567.979     -20279.706      3433.3118     -16846.394      1.0266247    
   1951000   295.75633      536.68441      55477.116     -20323.98       3308.6201     -17015.36       1.0283061    
   1952000   296.13069     -389.65337      55853.894     -20311.854      3312.8082     -16999.045      1.0213694    
   1953000   300.35945      405.58617      55618.461     -20427.158      3360.1152     -17067.043      1.0256928    
   1954000   303.18412     -461.65913      55299.046     -20376.295      3391.7147     -16984.58       1.0316174    
   1955000   300.91003      803.7514       55494.933     -20271.323      3366.2745     -16905.048      1.027976     
   1956000   297.06959      323.98736      55413.522     -20290.47       3323.3116     -16967.159      1.0294862    
   1957000   302.14299      927.8241       55062.742     -20275.811      3380.0676     -16895.743      1.0360446    
   1958000   297.03358     -780.20409      55306.958     -20273.906      3322.9087     -16950.997      1.0314698    
   1959000   296.83592      754.9819       55056.76      -20332.592      3320.6976     -17011.895      1.0361572    
   1960000   296.91403      953.16267      55258.056     -20355.375      3321.5713     -17033.803      1.0323826    
   1961000   301.728        381.62243      55154.141     -20322.641      3375.4251     -16947.215      1.0343277    
   1962000   299.96646      727.32045      55437.282     -20218.216      3355.7188     -16862.498      1.029045     
   1963000   305.3053      -3.3944953      55426.927     -20434.273      3415.4443     -17018.829      1.0292372    
   1964000   299.13532      181.09892      55779.37      -20170.658      3346.4209     -16824.237      1.022734     
   1965000   304.01355     -456.3294       55738.141     -20375.705      3400.9936     -16974.711      1.0234905    
   1966000   305.55507     -60.223726      55481.16      -20385.203      3418.2385     -16966.965      1.0282312    
   1967000   294.16197      375.56787      54979.354     -20214.143      3290.7841     -16923.359      1.037616     
   1968000   296.56556     -1046.2828      56126.419     -20324.468      3317.6731     -17006.795      1.0164101    
   1969000   294.85824      585.48324      55435.851     -20443.656      3298.5733     -17145.083      1.0290716    
   1970000   304.43023     -274.13016      55212.05      -20425.532      3405.6549     -17019.877      1.0332429    
   1971000   307.78895     -415.41916      55077.648     -20303.223      3443.2289     -16859.994      1.0357642    
   1972000   304.44351     -423.71538      55326.482     -20422.089      3405.8034     -17016.286      1.0311058    
   1973000   297.32449      810.65891      55251.546     -20382.958      3326.1631     -17056.795      1.0325043    
   1974000   302.73619      1142.0488      55361.989     -20357.135      3386.7037     -16970.432      1.0304445    
   1975000   311.08233     -406.51778      55858.904     -20221.944      3480.0718     -16741.872      1.0212778    
   1976000   304.79449      96.788361      55089.881     -20221.552      3409.7299     -16811.822      1.0355342    
   1977000   295.43208      17.212141      55179.559     -20446.92       3304.9928     -17141.927      1.0338513    
   1978000   295.08428     -531.8168       55723.955     -20257.805      3301.102      -16956.703      1.0237511    
   1979000   303.67582     -710.23408      55207.908     -20348.157      3397.2154     -16950.941      1.0333204    
   1980000   296.59945      499.50544      55495.586     -20205.644      3318.0521     -16887.592      1.0279639    
   1981000   303.99635     -352.34775      55890.641     -20390.244      3400.8011     -16989.443      1.0206979    
   1982000   299.23697      447.01779      55306.067     -20425.98       3347.558      -17078.422      1.0314864    
   1983000   287.08466     -936.00213      55911.998     -20387.292      3211.6103     -17175.682      1.020308     
   1984000   303.91192      368.60527      55809.333     -20278.138      3399.8567     -16878.281      1.0221849    
   1985000   303.92606      415.66373      55100.154     -20348.704      3400.0148     -16948.689      1.0353412    
   1986000   303.11475      214.73943      55311.221     -20285.831      3390.9387     -16894.893      1.0313903    
   1987000   297.282       -92.700308      55140.13      -20328.015      3325.6878     -17002.327      1.0345905    
   1988000   298.00728      261.44099      55391.967     -20285.664      3333.8015     -16951.862      1.0298868    
   1989000   302.48075      83.855962      55467.81      -20335.468      3383.8461     -16951.622      1.0284786    
   1990000   300.60219      23.799872      55411.57      -20384.136      3362.8307     -17021.306      1.0295225    
   1991000   301.44458     -250.87177      54935.052     -20392.67       3372.2545     -17020.416      1.0384528    
   1992000   302.07709     -92.199981      54938.175     -20227.425      3379.3304     -16848.095      1.0383938    
   1993000   297.5175       222.72306      55227.691     -20270.772      3328.3224     -16942.45       1.0329503    
   1994000   287.91209      119.96712      55996.932     -20342.192      3220.8668     -17121.325      1.0187604    
   1995000   296.52549      1037.2278      55322.535     -20376.478      3317.2248     -17059.253      1.0311794    
   1996000   291.97323     -44.659672      55488.73      -20430.212      3266.2987     -17163.913      1.0280909    
   1997000   292.37839      850.06944      55591.419     -20379.474      3270.8313     -17108.643      1.0261918    
   1998000   296.74601     -945.4285       55592.487     -20332.339      3319.6917     -17012.647      1.0261721    
   1999000   302.40334      361.77252      55682.46      -20187.167      3382.9801     -16804.187      1.024514     
   2000000   295.62368      81.391812      55423.594     -20224.283      3307.1362     -16917.146      1.0292991    
   2001000   299.41712     -529.57282      55445.487     -20275.967      3349.5734     -16926.393      1.0288927    
   2002000   296.62172     -276.32685      55447.38      -20337.643      3318.3013     -17019.342      1.0288576    
   2003000   296.47484     -581.35449      55705.989     -20408.803      3316.6581     -17092.145      1.0240812    
   2004000   306.87392     -462.97902      55557.575     -20184.829      3432.9925     -16751.836      1.0268169    
   2005000   301.22045      663.65183      55239.051     -20338.705      3369.7472     -16968.958      1.0327378    
   2006000   299.94505      170.80002      55751.904     -20278.464      3355.4793     -16922.985      1.0232378    
   2007000   296.03513      130.23474      55285.115     -20294.79       3311.7391     -16983.051      1.0318774    
   2008000   304.58421      320.42139      55331.386     -20336.381      3407.3775     -16929.004      1.0310144    
   2009000   300.73246     -158.02016      55439.515     -20274.144      3364.288      -16909.856      1.0290035    
   2010000   302.39163     -334.62492      55463.56      -20412.493      3382.8491     -17029.643      1.0285574    
   2011000   302.78877      536.56108      55801.013     -20292.138      3387.292      -16904.846      1.0223373    
   2012000   305.77172     -451.76351      55477.193     -20303.236      3420.6621     -16882.574      1.0283047    
   2013000   297.36946     -692.73039      55502.5       -20391.038      3326.6662     -17064.372      1.0278358    
   2014000   302.87895      429.61206      55158.934     -20303.784      3388.3008     -16915.483      1.0342378    
   2015000   296.94005      562.27765      55598.724     -20329.041      3321.8624     -17007.179      1.026057     
   2016000   290.84381     -628.22971      55345.97      -20464.309      3253.6639     -17210.646      1.0307428    
   2017000   295.66882     -700.6365       55396.726     -20285.146      3307.6412     -16977.505      1.0297984    
   2018000   303.28408     -607.54426      55061.87      -20291.906      3392.8329     -16899.073      1.036061     
   2019000   296.91472      324.09487      55407.984     -20279.703      3321.5791     -16958.124      1.0295891    
   2020000   303.23891     -430.37962      55878.037     -20309.403      3392.3277     -16917.076      1.0209281    
   2021000   301.22849      145.76921      55221.39      -20274.769      3369.8371     -16904.932      1.0330681    
   2022000   299.85388     -368.35454      55061.383     -20309.518      3354.4594     -16955.059      1.0360702    
   2023000   298.48986      569.69673      55677.751     -20213.323      3339.2002     -16874.122      1.0246006    
   2024000   308.99196      566.99571      55180.079     -20130.407      3456.6869     -16673.721      1.0338415    
   2025000   302.99884     -252.08309      55651.191     -20296.368      3389.642      -16906.726      1.0250896    
   2026000   302.59689      730.85939      55087.551     -20381.539      3385.1454     -16996.394      1.035578     
   2027000   294.16696     -517.50182      55811.42      -20304.976      3290.8399     -17014.136      1.0221467    
   2028000   292.72673     -274.49269      55203.067     -20517.597      3274.7281     -17242.868      1.033411     
   2029000   306.53141      468.5289       55379.972     -20383.781      3429.1608     -16954.62       1.0301099    
   2030000   297.09318      707.01684      55412.912     -20358.663      3323.5756     -17035.088      1.0294976    
   2031000   301.06332     -423.81088      56227.711     -20401.637      3367.9894     -17033.648      1.014579     
   2032000   295.73121      306.15079      55598.084     -20253.367      3308.3391     -16945.028      1.0260688    
   2033000   303.37411     -605.82481      55668.091     -20265.411      3393.8401     -16871.571      1.0247784    
   2034000   302.64058      17.984549      55804.64      -20318.214      3385.6341     -16932.58       1.0222709    
   2035000   299.93875     -185.90139      55852.373     -20356.583      3355.4089     -17001.175      1.0213972    
   2036000   295.1028       270.33619      55296.104     -20316.541      3301.3091     -17015.232      1.0316723    
   2037000   300.0563       250.34341      55805.85      -20285.269      3356.7239     -16928.545      1.0222487    
   2038000   301.66181     -980.42054      55482.678     -20195.042      3374.6846     -16820.357      1.028203     
   2039000   299.17711      368.36217      54990.28      -20279.493      3346.8884     -16932.605      1.0374098    
   2040000   302.95343      279.48279      55189.486     -20215.737      3389.134      -16826.603      1.0336653    
   2041000   304.30264      93.746106      55571.618     -20379.325      3404.2276     -16975.097      1.0265574    
   2042000   298.25586     -233.90778      55425.425     -20278.242      3336.5824     -16941.66       1.0292651    
   2043000   302.759        698.3364       55252.365     -20199.815      3386.959      -16812.856      1.032489     
   2044000   304.56049      218.69537      55226.465     -20277.391      3407.1121     -16870.279      1.0329732    
   2045000   298.08892     -965.93027      55333.245     -20368.442      3334.7148     -17033.727      1.0309798    
   2046000   294.13556      90.618004      55267.32      -20253.174      3290.4887     -16962.685      1.0322096    
   2047000   300.55425      377.76203      55326.251     -20311.796      3362.2944     -16949.501      1.0311101    
   2048000   301.57755      150.9118       55269.757     -20331.072      3373.7421     -16957.33       1.0321641    
   2049000   299.86194      382.75637      54963.751     -20291.359      3354.5496     -16936.809      1.0379106    
   2050000   298.51059     -507.03555      55807.542     -20253.381      3339.4321     -16913.949      1.0222177    
   2051000   302.91561     -345.71565      55661.925     -20196.742      3388.7109     -16808.031      1.0248919    
   2052000   294.18364     -1013.5756      55924.93      -20235.905      3291.0266     -16944.878      1.020072     
   2053000   302.7031       162.23223      55786.859     -20182.024      3386.3335     -16795.691      1.0225967    
   2054000   304.41937      18.640212      55267.687     -20256.269      3405.5334     -16850.736      1.0322027    
   2055000   301.78944     -406.16336      55524.854     -20322.573      3376.1125     -16946.461      1.027422     
   2056000   301.83164     -536.73408      56317.673     -20226.929      3376.5846     -16850.345      1.0129584    
   2057000   300.3042      -74.215997      56203.201     -20286.066      3359.4971     -16926.569      1.0150215    
   2058000   294.17134      151.67419      56163.633     -20187.234      3290.8889     -16896.345      1.0157366    
   2059000   300.09116      632.30251      55427.439     -20328.41       3357.1139     -16971.296      1.0292277    
   2060000   304.12879     -62.843066      55853.026     -20386.487      3402.2827     -16984.205      1.0213853    
   2061000   301.06151     -123.32202      55344.563     -20342.986      3367.9691     -16975.017      1.030769     
   2062000   301.0388       803.00404      55050.45      -20355.472      3367.715      -16987.757      1.036276     
   2063000   297.20727      1391.1494      55049.693     -20332.726      3324.8518     -17007.874      1.0362902    
   2064000   301.7189       91.597622      55232.206     -20378.015      3375.3234     -17002.691      1.0328658    
   2065000   297.25774      1105.1768      55696.452     -20293.628      3325.4165     -16968.211      1.0242566    
   2066000   297.75173      224.13236      55660.995     -20401.386      3330.9426     -17070.443      1.024909     
   2067000   305.58766      60.034919      55430.612     -20368.03       3418.603      -16949.427      1.0291688    
   2068000   301.07923      494.53559      55842.656     -20362.452      3368.1673     -16994.285      1.0215749    
   2069000   303.19239      25.00114       55547.476     -20295.094      3391.8073     -16903.286      1.0270036    
   2070000   305.97787     -121.65152      55780.076     -20421.353      3422.9683     -16998.384      1.022721     
   2071000   303.55485     -443.0289       55585.744     -20269.72       3395.8621     -16873.858      1.0262966    
   2072000   298.72688     -728.36299      55623.512     -20422.265      3341.8517     -17080.413      1.0255997    
   2073000   296.28549      156.27874      55232.064     -20362.941      3314.5399     -17048.401      1.0328685    
   2074000   302.36603     -248.60177      55219.432     -20359.302      3382.5627     -16976.74       1.0331048    
   2075000   298.43829     -479.72749      55717.318     -20346.02       3338.6232     -17007.397      1.023873     
   2076000   293.6915      -691.09762      55826.754     -20286.087      3285.521      -17000.566      1.0218659    
   2077000   301.81458      78.713259      55507.301     -20437.059      3376.3937     -17060.666      1.0277469    
   2078000   299.0016      -234.47367      55618.719     -20358.123      3344.925      -17013.198      1.0256881    
   2079000   302.99189     -374.18079      55115.253     -20326.621      3389.5643     -16937.057      1.0350575    
   2080000   308.67303      569.21619      54740.149     -20336.687      3453.119      -16883.568      1.0421502    
   2081000   305.64149     -110.38481      55499.05      -20319.767      3419.2053     -16900.562      1.0278997    
   2082000   306.5475       13.386624      55390.351     -20279.187      3429.3407     -16849.846      1.0299169    
   2083000   298.57447      511.87067      55256.46      -20451.03       3340.1467     -17110.883      1.0324125    
   2084000   299.47695      66.6699        55503.908     -20489.265      3350.2427     -17139.022      1.0278097    
   2085000   301.72996      44.562218      55508.379     -20352.602      3375.447      -16977.155      1.027727     
   2086000   302.27188     -432.36158      55483.169     -20339.149      3381.5095     -16957.64       1.0281939    
   2087000   295.19517      139.06362      55424.715     -20391.462      3302.3425     -17089.119      1.0292783    
   2088000   295.14962     -408.49803      55725.266     -20320.691      3301.8329     -17018.858      1.023727     
   2089000   305.23525     -94.90108       55994.649     -20287.194      3414.6607     -16872.534      1.0188019    
   2090000   291.31343     -377.86423      55802.512     -20291.473      3258.9175     -17032.556      1.0223098    
   2091000   306.62627      233.31529      55733.475     -20313.224      3430.222      -16883.002      1.0235762    
   2092000   296.8237      -32.113518      55653.489     -20412.98       3320.5608     -17092.419      1.0250473    
   2093000   295.65079     -103.08666      55749.084     -20332.852      3307.4395     -17025.413      1.0232896    
   2094000   306.26738      310.10043      55282.468     -20375.414      3426.2071     -16949.206      1.0319268    
   2095000   305.06778      726.51983      55111.963     -20381.372      3412.7871     -16968.584      1.0351193    
   2096000   304.45766      616.92014      54636.525     -20280.108      3405.9618     -16874.146      1.0441268    
   2097000   301.6849      -550.10882      55505.719     -20277.674      3374.943      -16902.731      1.0277762    
   2098000   298.52665     -253.51593      55139.362     -20256.761      3339.6117     -16917.15       1.034605     
   2099000   298.35511     -188.2537       55591.103     -20389.503      3337.6927     -17051.811      1.0261976    
   2100000   298.87439     -244.17963      55996.286     -20270.871      3343.5018     -16927.369      1.0187722    
   2101000   301.79188      97.420736      55367.725     -20209.882      3376.1397     -16833.742      1.0303378    
   2102000   292.79066      454.5423       55123.109     -20354.966      3275.4433     -17079.522      1.03491      
   2103000   302.88078     -260.62879      55830.442     -20421.942      3388.3213     -17033.621      1.0217984    
   2104000   300.94033      178.85793      55217.018     -20417.239      3366.6135     -17050.625      1.0331499    
   2105000   297.02825     -155.88785      55297.064     -20499.663      3322.8491     -17176.814      1.0316544    
   2106000   294.06335     -615.74636      55542.947     -20278.712      3289.6808     -16989.031      1.0270873    
   2107000   299.48306     -572.25526      55779.273     -20298.775      3350.3111     -16948.464      1.0227358    
   2108000   306.95737      772.30829      55603.855     -20306.489      3433.926      -16872.563      1.0259623    
   2109000   310.32395     -108.02115      55450.708     -20395.23       3471.5879     -16923.643      1.0287958    
   2110000   297.32477     -198.09252      55834.799     -20314.671      3326.1663     -16988.505      1.0217187    
   2111000   295.36617      142.65964      54997.709     -20444.818      3304.2555     -17140.562      1.0372697    
   2112000   305.17311      174.05094      55623.993     -20305.768      3413.9655     -16891.802      1.0255908    
   2113000   296.98212      465.19408      55690.998     -20267.721      3322.3331     -16945.388      1.0243569    
   2114000   298.02247     -29.363635      55734.53      -20411.669      3333.9715     -17077.697      1.0235568    
   2115000   301.44291     -450.26971      55586.341     -20301.186      3372.2359     -16928.95       1.0262855    
   2116000   297.10644      365.00864      55372.782     -20326.52       3323.7238     -17002.796      1.0302437    
   2117000   298.10519     -204.51942      55601.157     -20421.613      3334.8968     -17086.716      1.0260121    
   2118000   304.33163     -350.28939      55613.772     -20230.221      3404.5519     -16825.669      1.0257793    
   2119000   298.38776      928.90773      55142.046     -20412.974      3338.0579     -17074.916      1.0345546    
   2120000   289.97407      107.34628      55621.515     -20228.133      3243.9341     -16984.199      1.0256365    
   2121000   296.4805       885.62098      55422.058     -20445.095      3316.7215     -17128.374      1.0293277    
   2122000   293.78684     -684.0885       55741.19      -20476.573      3286.5876     -17189.985      1.0234345    
   2123000   294.79806     -615.38882      56387.633     -20224.821      3297.9        -16926.921      1.0117016    
   2124000   300.02486      715.76838      55705.07      -20289.059      3356.3722     -16932.687      1.0240981    
   2125000   303.96946      27.087517      55407.567     -20279.557      3400.5003     -16879.056      1.0295969    
   2126000   295.36072      363.1897       55391.232     -20226.127      3304.1945     -16921.932      1.0299005    
   2127000   304.31766     -72.870377      55616.772     -20213.32       3404.3956     -16808.924      1.025724     
   2128000   298.03754      335.14994      55251.589     -20339.015      3334.14       -17004.875      1.0325035    
   2129000   306.28991     -470.85566      55892.849     -20263.687      3426.4592     -16837.228      1.0206575    
   2130000   297.48722      84.65179       55626.518     -20337.038      3327.9836     -17009.054      1.0255443    
   2131000   302.33666      1083.78        55298.138     -20242.596      3382.2343     -16860.361      1.0316343    
   2132000   300.43585      421.61241      55642.009     -20235.055      3360.9699     -16874.086      1.0252588    
   2133000   298.08875      520.03206      55090.102     -20343.913      3334.7129     -17009.2        1.0355301    
   2134000   301.50775     -57.234466      55146.108     -20272.818      3372.9612     -16899.856      1.0344784    
   2135000   301.42933     -31.793458      55484.059     -20306.795      3372.0839     -16934.711      1.0281774    
   2136000   292.68384     -607.46827      55955.841     -20233.749      3274.2483     -16959.5        1.0195085    
   2137000   300.04572     -106.89894      55478.987     -20400.98       3356.6055     -17044.375      1.0282714    
   2138000   299.75187     -257.43731      55740.327     -20427.853      3353.3182     -17074.535      1.0234504    
   2139000   303.05883      102.65987      55645.396     -20317.572      3390.3131     -16927.259      1.0251964    
   2140000   297.83374      200.24747      55356.321     -20304.843      3331.8601     -16972.983      1.03055      
   2141000   297.65854      111.37306      55007.524     -20190.23       3329.9002     -16860.33       1.0370846    
   2142000   293.26425      835.52935      55455.952     -20356.61       3280.7413     -17075.868      1.0286986    
   2143000   302.72381     -38.958789      55485.458     -20406.678      3386.5652     -17020.113      1.0281515    
   2144000   291.54183      352.78544      55724.801     -20307.802      3261.4726     -17046.329      1.0237355    
   2145000   293.93172      457.67478      55494.25      -20363.691      3288.2083     -17075.482      1.0279886    
   2146000   299.67709      831.09246      55425.637     -20403.07       3352.4816     -17050.588      1.0292612    
   2147000   290.7383      -427.32482      55614.941     -20349.707      3252.4836     -17097.223      1.0257578    
   2148000   303.44582      296.13002      55698.327     -20289.446      3394.6423     -16894.804      1.0242221    
   2149000   295.91446     -264.81402      55766.25      -20399.121      3310.3892     -17088.732      1.0229746    
   2150000   301.15465      359.44772      56038.679     -20396.032      3369.011      -17027.021      1.0180015    
   2151000   299.4163      -29.234291      55745.242     -20281.87       3349.5642     -16932.305      1.0233601    
   2152000   295.72193      817.64446      55086.216     -20470.076      3308.2353     -17161.841      1.0356031    
   2153000   298.40527      399.08651      55354.474     -20357.557      3338.2538     -17019.303      1.0305844    
   2154000   302.73334     -394.44822      55777.956     -20299.848      3386.6718     -16913.176      1.0227599    
   2155000   299.72501      1000.0765      55231.306     -20379.489      3353.0178     -17026.471      1.0328827    
   2156000   301.00962      323.40027      55575.761     -20252.342      3367.3886     -16884.953      1.0264809    
   2157000   299.86227     -320.16897      55808.351     -20386.241      3354.5532     -17031.688      1.0222029    
   2158000   300.29607     -220.615        55387.373     -20493.984      3359.4061     -17134.578      1.0299723    
   2159000   301.57949      911.67375      55460.207     -20396.324      3373.7637     -17022.56       1.0286196    
   2160000   301.14598     -473.70135      55566.59      -20360.763      3368.9141     -16991.849      1.0266503    
   2161000   302.95443     -434.18785      55614.823     -20228.177      3389.1452     -16839.032      1.0257599    
   2162000   295.53356      39.047082      55577.727     -20262.169      3306.128      -16956.041      1.0264446    
   2163000   305.66254      36.043694      55791         -20380.612      3419.4408     -16961.171      1.0225208    
   2164000   304.09074      133.62459      55215.337     -20374.412      3401.857      -16972.555      1.0331814    
   2165000   291.92984      296.70546      55160.032     -20453.782      3265.8133     -17187.969      1.0342173    
   2166000   298.06648     -335.79739      55813.179     -20469.48       3334.4638     -17135.017      1.0221145    
   2167000   303.39564     -82.87272       55679.956     -20372.143      3394.081      -16978.062      1.02456      
   2168000   298.54614      298.39776      55822.885     -20294.316      3339.8297     -16954.486      1.0219367    
   2169000   292.73765     -339.18142      55657.692     -20222.479      3274.8502     -16947.629      1.0249699    
   2170000   294.65376     -342.52505      55524.229     -20460.393      3296.2858     -17164.107      1.0274336    
   2171000   294.97002     -822.7926       55835.359     -20324.936      3299.8238     -17025.112      1.0217084    
   2172000   291.94431     -70.891575      55483.268     -20302.817      3265.9752     -17036.841      1.0281921    
   2173000   298.1294      -142.79941      55610.061     -20355.919      3335.1677     -17020.751      1.0258478    
   2174000   299.15309      190.04999      55574.854     -20251.925      3346.6197     -16905.306      1.0264977    
   2175000   301.22809      230.69481      55428.009     -20273.553      3369.8327     -16903.721      1.0292171    
   2176000   304.47114      500.75244      55696.219     -20245.486      3406.1126     -16839.373      1.0242609    
   2177000   299.25395      150.05353      55790.164     -20181.101      3347.748      -16833.353      1.0225361    
   2178000   305.95158     -146.62557      55852.772     -20289.514      3422.6742     -16866.84       1.0213899    
   2179000   298.04242      38.754952      55832.453     -20307.18       3334.1947     -16972.985      1.0217616    
   2180000   301.08401     -498.81899      55697.254     -20462.54       3368.2208     -17094.319      1.0242418    
   2181000   302.67427      253.66765      55229.291     -20430.523      3386.0111     -17044.512      1.0329203    
   2182000   305.79323      828.41542      55827.975     -20253.639      3420.9028     -16832.736      1.0218436    
   2183000   298.01816      271.47962      54896.107     -20290.571      3333.9232     -16956.647      1.0391895    
   2184000   300.91543      744.39859      55768.049     -20231.905      3366.335      -16865.57       1.0229416    
   2185000   295.25014     -244.05542      54899.868     -20347.989      3302.9575     -17045.032      1.0391183    
   2186000   306.16706     -471.29522      54856.44      -20215.744      3425.0848     -16790.659      1.0399409    
   2187000   299.27225      284.79901      54732.594     -20339.399      3347.9528     -16991.446      1.0422941    
   2188000   303.67328     -475.99737      55494.652     -20292.856      3397.187      -16895.669      1.0279812    
   2189000   301.55819      188.45463      55406.202     -20333.023      3373.5255     -16959.497      1.0296222    
   2190000   302.31546      544.64018      55094.317     -20317.378      3381.997      -16935.381      1.0354509    
   2191000   301.12769      630.93483      55044.573     -20263.628      3368.7095     -16894.918      1.0363866    
   2192000   306.54587      35.903853      55569.676     -20319.614      3429.3226     -16890.291      1.0265933    
   2193000   300.8327       13.314645      55076.621     -20200.411      3365.4095     -16835.001      1.0357835    
   2194000   295.1531      -550.99289      55814.218     -20293.7        3301.8719     -16991.828      1.0220954    
   2195000   305.75863     -587.95441      55415.246     -20321.034      3420.5158     -16900.518      1.0294542    
   2196000   298.31764     -763.35842      55178.233     -20416.325      3337.2735     -17079.051      1.0338761    
   2197000   296.28448     -211.70663      56405.07      -20196.565      3314.5286     -16882.037      1.0113888    
   2198000   295.73457     -236.54335      55623.666     -20455.836      3308.3767     -17147.46       1.0255969    
   2199000   304.71015     -578.22755      55469.412     -20157.179      3408.7863     -16748.392      1.0284489    
   2200000   298.59537     -508.6038       55592.624     -20379.612      3340.3805     -17039.232      1.0261696    
   2201000   296.16469      582.84759      55136.724     -20333.484      3313.1885     -17020.296      1.0346545    
   2202000   298.97191     -64.957919      54950.875     -20329.174      3344.5928     -16984.581      1.0381538    
   2203000   298.62732     -613.68221      55378.824     -20270.32       3340.7378     -16929.582      1.0301313    
   2204000   295.52651     -853.5023       55534.946     -20300.374      3306.0492     -16994.325      1.0272353    
   2205000   299.62712     -280.54011      55363.931     -20395.91       3351.9226     -17043.987      1.0304084    
   2206000   304.19247     -49.956287      55309.708     -20196.846      3402.9951     -16793.851      1.0314185    
   2207000   302.42123      240.21595      55998.959     -20277.937      3383.1803     -16894.757      1.0187235    
   2208000   296.24663      51.657399      55563.669     -20431.528      3314.1051     -17117.423      1.0267043    
   2209000   302.26269      423.31811      55609.126     -20357.061      3381.4067     -16975.654      1.025865     
   2210000   300.69766     -299.89404      55333.374     -20405.917      3363.8988     -17042.019      1.0309774    
   2211000   303.19906      877.69041      55872.145     -20396.698      3391.8818     -17004.817      1.0210358    
   2212000   300.13659     -26.173849      55299.196     -20262.612      3357.6221     -16904.99       1.0316146    
   2213000   297.17034      184.73509      55086.852     -20402.784      3324.4387     -17078.345      1.0355912    
   2214000   303.12381      681.46888      55709.756     -20369.062      3391.04       -16978.022      1.024012     
   2215000   302.92072      688.29731      55247.311     -20359.839      3388.768      -16971.071      1.0325834    
   2216000   300.66224      114.95114      55192.554     -20342.177      3363.5025     -16978.675      1.0336079    
   2217000   301.32615      64.719542      55942.064     -20303.657      3370.9296     -16932.727      1.0197596    
   2218000   296.64714     -395.19608      55310.257     -20390.171      3318.5856     -17071.585      1.0314083    
   2219000   298.82489     -369.64294      55932.851     -20195.699      3342.9481     -16852.751      1.0199276    
   2220000   300.52467      553.27383      55608.889     -20258.437      3361.9635     -16896.474      1.0258694    
   2221000   299.78476      216.6026       55687.056     -20368.59       3353.6862     -17014.904      1.0244294    
   2222000   301.09783      535.82021      55310.356     -20427.618      3368.3755     -17059.243      1.0314064    
   2223000   295.59264      312.78216      55268.225     -20338.843      3306.789      -17032.054      1.0321927    
   2224000   294.66573      793.58767      55034.932     -20372.216      3296.4197     -17075.796      1.0365681    
   2225000   303.6459       347.52567      55594.833     -20460.703      3396.8807     -17063.823      1.0261288    
   2226000   301.18508      283.22604      56059.274     -20433.386      3369.3515     -17064.035      1.0176275    
   2227000   304.83538     -377.65975      55432.162     -20458.848      3410.1873     -17048.661      1.02914      
   2228000   295.54962     -134.76301      55669.515     -20211.587      3306.3077     -16905.279      1.0247522    
   2229000   304.81132     -551.23396      55733.28      -20385.672      3409.9182     -16975.754      1.0235798    
   2230000   305.03071     -145.92847      55141.522     -20225.229      3412.3724     -16812.856      1.0345644    
   2231000   300.54435      312.2584       55454.058     -20329.516      3362.1836     -16967.333      1.0287337    
   2232000   293.80467      67.88698       55873.216     -20182.11       3286.787      -16895.323      1.0210162    
   2233000   301.79793      682.39569      54721.729     -20462.158      3376.2075     -17085.95       1.042501     
   2234000   300.73814      280.65608      55481.036     -20419.534      3364.3516     -17055.182      1.0282335    
   2235000   301.83223     -32.663487      55449.276     -20360.373      3376.5911     -16983.782      1.0288224    
   2236000   301.55302      113.81379      55492.711     -20284.986      3373.4676     -16911.518      1.0280171    
   2237000   306.62362     -102.78672      55621.783     -20304.648      3430.1923     -16874.456      1.0256316    
   2238000   298.57483     -229.54976      55142.226     -20452.135      3340.1507     -17111.984      1.0345512    
   2239000   294.82644     -44.65527       55224.207     -20318.656      3298.2176     -17020.438      1.0330154    
   2240000   302.53         404.06182      55551.222     -20144.501      3384.3971     -16760.104      1.0269343    
   2241000   298.87372      53.16959       55916.076     -20353.915      3343.4944     -17010.42       1.0202336    
   2242000   307.15583      837.56067      55592.394     -20385.188      3436.1462     -16949.041      1.0261738    
   2243000   295.46431      580.07293      55448.706     -20292.443      3305.3534     -16987.089      1.028833     
   2244000   293.63268     -375.89691      55362.562     -20321.854      3284.8629     -17036.991      1.0304338    
   2245000   297.78003     -545.69492      56014.112     -20290.349      3331.2592     -16959.09       1.0184479    
   2246000   297.62193      183.82559      55450.27      -20291.191      3329.4906     -16961.701      1.028804     
   2247000   299.03611      720.31164      55586.787     -20322.624      3345.311      -16977.313      1.0262773    
   2248000   291.96492     -297.73411      55084.071     -20346.567      3266.2058     -17080.361      1.0356434    
   2249000   297.41425     -261.46992      55423.864     -20384.213      3327.1673     -17057.046      1.0292941    
   2250000   299.7473      -76.331883      55729.84      -20176.166      3353.267      -16822.899      1.023643     
   2251000   296.50327     -64.953539      55581.38      -20414.26       3316.9762     -17097.283      1.0263771    
   2252000   305.93588      156.87385      55921.51      -20274.504      3422.4986     -16852.005      1.0201344    
   2253000   298.11902     -898.94025      55845.358     -20227.059      3335.0516     -16892.008      1.0215255    
   2254000   299.20281     -886.05127      55393.868     -20391.353      3347.1759     -17044.178      1.0298515    
   2255000   298.49369     -507.51577      56066.161     -20122.502      3339.2429     -16783.259      1.0175025    
   2256000   306.49404     -259.11992      55530.564     -20373.52       3428.7427     -16944.777      1.0273164    
   2257000   298.28862      282.49193      55686.683     -20258.539      3336.9489     -16921.59       1.0244363    
   2258000   299.1671      -354.98286      55993.973     -20338.224      3346.7764     -16991.448      1.0188142    
   2259000   301.5189       198.99641      55515.125     -20219.128      3373.0859     -16846.042      1.0276021    
   2260000   298.11133     -449.045        55329.786     -20284.739      3334.9655     -16949.773      1.0310442    
   2261000   301.34978      88.727174      54865.352     -20435.692      3371.194      -17064.498      1.039772     
   2262000   307.90141      422.92264      54906.773     -20335.235      3444.487      -16890.748      1.0389876    
   2263000   306.29032      610.55784      55216.925     -20282.089      3426.4638     -16855.626      1.0331517    
   2264000   294.87988     -492.07731      55566.005     -20368.084      3298.8154     -17069.269      1.0266611    
   2265000   301.9426      -378.5787       55391.943     -20335.802      3377.8258     -16957.976      1.0298873    
   2266000   299.18697     -466.63246      55533.185     -20355.087      3346.9987     -17008.089      1.0272679    
   2267000   301.66516      82.603022      55559.381     -20364.242      3374.7222     -16989.52       1.0267835    
   2268000   299.47569     -113.26588      55825.355     -20327.266      3350.2286     -16977.038      1.0218915    
   2269000   304.42198     -711.31573      55782.981     -20426.927      3405.5627     -17021.364      1.0226678    
   2270000   300.92205      303.89719      55773.246     -20271.038      3366.409      -16904.629      1.0228463    
   2271000   291.9719       272.51155      55862.408     -20327.575      3266.2839     -17061.291      1.0212137    
   2272000   300.08463      713.07477      55026.708     -20300.651      3357.0408     -16943.61       1.0367231    
   2273000   300.50709      751.34627      55651.658     -20270.223      3361.7668     -16908.456      1.025081     
   2274000   298.30872      79.504533      55111.974     -20269.15       3337.1737     -16931.976      1.0351191    
   2275000   298.61114      93.49661       55632.897     -20265.79       3340.5569     -16925.234      1.0254267    
   2276000   303.26168     -217.64881      55371.584     -20334.589      3392.5823     -16942.007      1.030266     
   2277000   304.11029      30.942821      55391.918     -20266.532      3402.0758     -16864.457      1.0298877    
   2278000   298.76324      50.86394       54979.919     -20263.808      3342.2585     -16921.55       1.0376053    
   2279000   301.35925      125.89366      55173.93      -20270.305      3371.2999     -16899.005      1.0339568    
   2280000   294.58035     -39.221665      55168.485     -20350.78       3295.4645     -17055.315      1.0340588    
   2281000   299.2931       366.79904      55384.569     -20243.015      3348.186      -16894.829      1.0300244    
   2282000   296.64546     -237.51197      55086.791     -20331.652      3318.5668     -17013.085      1.0355923    
   2283000   297.2113       411.84339      55998.928     -20304.119      3324.8969     -16979.222      1.0187241    
   2284000   305.5989       475.47315      55419.99      -20318.696      3418.7289     -16899.967      1.0293661    
   2285000   301.63083      351.62957      55322.026     -20315.685      3374.3381     -16941.346      1.0311889    
   2286000   308.34478      112.37459      55363.368     -20181.012      3449.447      -16731.565      1.0304188    
   2287000   291.6923       564.58326      55606.832     -20245.068      3263.156      -16981.912      1.0259073    
   2288000   298.573       -746.70004      55508.1       -20308.928      3340.1302     -16968.798      1.0277321    
   2289000   299.6398      -255.68784      55439.001     -20357.427      3352.0645     -17005.363      1.0290131    
   2290000   302.43753     -418.16174      54892.461     -20362.716      3383.3626     -16979.354      1.0392585    
   2291000   300.0241       212.99895      55994.288     -20342.249      3356.3637     -16985.886      1.0188085    
   2292000   303.38587      109.74127      55631.7       -20204.324      3393.9717     -16810.353      1.0254488    
   2293000   303.18418      149.80986      54994.331     -20291          3391.7154     -16899.285      1.0373334    
   2294000   302.0183      -22.419938      55405.43      -20388.158      3378.6727     -17009.485      1.0296366    
   2295000   302.09706     -152.10518      55573.994     -20312.182      3379.5538     -16932.628      1.0265135    
   2296000   303.06901      119.73431      55952.899     -20284.946      3390.4269     -16894.519      1.0195622    
   2297000   303.29936      194.12747      55725.926     -20219.743      3393.0039     -16826.74       1.0237148    
   2298000   297.70194      729.5726       55271.931     -20429.16       3330.3857     -17098.774      1.0321235    
   2299000   299.66407     -239.52236      55459.863     -20318.66       3352.336      -16966.324      1.028626     
   2300000   294.75866      517.35614      55346.438     -20436.537      3297.4592     -17139.078      1.030734     
   2301000   307.88703      229.09902      55835.49      -20366.161      3444.3261     -16921.835      1.021706     
   2302000   292.30528      166.67302      55546.211     -20381.416      3270.0133     -17111.403      1.027027     
   2303000   300.80431      564.79931      55195.846     -20283.269      3365.0918     -16918.177      1.0335462    
   2304000   301.39693     -355.20992      55322.702     -20201.619      3371.7215     -16829.898      1.0311763    
   2305000   303.12041      8.1621971      54860.01      -20233.451      3391.002      -16842.449      1.0398733    
   2306000   299.31085      133.40233      55387.295     -20197.845      3348.3845     -16849.461      1.0299737    
   2307000   305.59495     -58.788523      55243.718     -20269.776      3418.6846     -16851.092      1.0326506    
   2308000   292.48231     -308.67928      55891.933     -20236.863      3271.9937     -16964.869      1.0206743    
   2309000   299.27466      799.48865      55210.116     -20368.329      3347.9797     -17020.35       1.0332791    
   2310000   293.14763      4.6112874      55824.396     -20246.045      3279.4368     -16966.608      1.0219091    
   2311000   302.35278     -41.977187      55525.312     -20402.457      3382.4145     -17020.042      1.0274135    
   2312000   300.03386     -18.206112      55778.219     -20327.543      3356.4728     -16971.071      1.0227551    
   2313000   301.64497      207.3009       55374.334     -20253.745      3374.4963     -16879.248      1.0302148    
   2314000   298.13994      29.484938      55731.78      -20379.041      3335.2856     -17043.755      1.0236073    
   2315000   305.67485     -339.28034      55328.218     -20288.507      3419.5785     -16868.928      1.0310735    
   2316000   295.3287       65.069348      55167.198     -20237.079      3303.8363     -16933.243      1.0340829    
   2317000   298.92395     -374.47474      55371.93      -20314.856      3344.0563     -16970.8        1.0302595    
   2318000   298.85216      56.090569      55250.775     -20331.048      3343.2532     -16987.795      1.0325187    
   2319000   299.51896     -35.850328      54960.103     -20355.101      3350.7126     -17004.389      1.0379795    
   2320000   301.58125     -346.55986      55685.002     -20351.312      3373.7834     -16977.528      1.0244672    
   2321000   307.81906     -306.53346      55758.344     -20390.701      3443.5657     -16947.135      1.0231196    
   2322000   299.66705      560.59948      55797.801     -20279.803      3352.3694     -16927.433      1.0223962    
   2323000   291.77587      150.24075      55567.315     -20210.491      3264.0909     -16946.4        1.0266369    
   2324000   293.73489     -1118.2184      55561.207     -20233.846      3286.0064     -16947.839      1.0267498    
   2325000   299.9242      -35.624951      55772.9       -20321.807      3355.2461     -16966.561      1.0228526    
   2326000   289.91778     -235.05989      55973.221     -20230.238      3243.3044     -16986.934      1.019192     
   2327000   298.59783      213.14081      55362.243     -20367.285      3340.408      -17026.877      1.0304398    
   2328000   304.54206      458.61732      55265.9       -20311.458      3406.9059     -16904.552      1.0322361    
   2329000   303.61981     -338.77762      55875.799     -20176.38       3396.5888     -16779.791      1.020969     
   2330000   302.36661      108.11857      55741.552     -20224.67       3382.5692     -16842.101      1.0234279    
   2331000   289.71746     -587.83021      55661.314     -20366.299      3241.0635     -17125.236      1.0249032    
   2332000   297.87173      29.638955      55799.279     -20229.759      3332.2852     -16897.474      1.0223691    
   2333000   296.33799     -154.10456      54993.084     -20375.042      3315.1272     -17059.915      1.0373569    
   2334000   306.61762     -0.2879072      55944.941     -20287.428      3430.1252     -16857.303      1.0197072    
   2335000   300.1367       750.5189       54917.738     -20328.5        3357.6233     -16970.877      1.0387802    
   2336000   300.99107      3.2166058      55562.235     -20295.128      3367.1811     -16927.947      1.0267308    
   2337000   298.77829      22.824434      56105.899     -20286.7        3342.4268     -16944.273      1.0167818    
   2338000   302.46285     -474.39075      54920.222     -20300.109      3383.6459     -16916.463      1.0387332    
   2339000   300.9053      -409.75947      55675.49      -20335.467      3366.2216     -16969.246      1.0246422    
   2340000   300.10541      811.94717      55545.366     -20392.188      3357.2733     -17034.915      1.0270426    
   2341000   296.17273     -67.30294       55759.66      -20359.21       3313.2784     -17045.931      1.0230955    
   2342000   304.82277      329.10924      55155.836     -20319.568      3410.0462     -16909.522      1.0342959    
   2343000   294.59151     -681.5165       55956.123     -20262.222      3295.5894     -16966.633      1.0195034    
   2344000   301.78847      1028.4655      55299.118     -20158.481      3376.1016     -16782.379      1.031616     
   2345000   305.09959      1115.389       55003.668     -20294.513      3413.143      -16881.37       1.0371573    
   2346000   308.10694      1302.4419      55255.217     -20216.282      3446.7863     -16769.496      1.0324357    
   2347000   299.54889      191.71779      55039.251     -20296.726      3351.0474     -16945.678      1.0364868    
   2348000   302.2937       381.8593       55852.706     -20229.022      3381.7536     -16847.268      1.0213911    
   2349000   296.79729     -266.1338       56223.863     -20330.249      3320.2654     -17009.984      1.0146485    
   2350000   302.05394     -348.55374      55745.411     -20310.601      3379.0715     -16931.529      1.023357     
   2351000   300.12459     -556.75098      55410.974     -20337.321      3357.4879     -16979.833      1.0295336    
   2352000   297.06993     -35.337571      55942.957     -20322.303      3323.3154     -16998.987      1.0197433    
   2353000   294.33007      271.62275      54817.222     -20255.603      3292.6646     -16962.939      1.040685     
   2354000   297.59339      89.312488      55068.726     -20360.003      3329.1713     -17030.832      1.035932     
   2355000   302.7238       774.2769       55288.106     -20418.202      3386.5652     -17031.637      1.0318215    
   2356000   302.44334     -629.91194      54986.376     -20281.464      3383.4276     -16898.036      1.0374835    
   2357000   298.80176     -541.109        55325.522     -20352.632      3342.6893     -17009.943      1.0311237    
   2358000   292.48747     -261.03607      55872.807     -20283.388      3272.0515     -17011.336      1.0210237    
   2359000   306.77702     -804.15393      56301.335     -20417.303      3431.9085     -16985.394      1.0132523    
   2360000   293.41738      250.5746       55381.894     -20411.241      3282.4544     -17128.786      1.0300742    
   2361000   301.31235      380.60197      56212.611     -20387.744      3370.7753     -17016.969      1.0148516    
   2362000   306.35776      155.55767      55362.311     -20321.621      3427.2182     -16894.403      1.0304385    
   2363000   298.43421     -799.07557      55519.084     -20253.599      3338.5775     -16915.022      1.0275288    
   2364000   299.75099      118.19899      55712.809     -20301.02       3353.3084     -16947.712      1.0239559    
   2365000   306.29454     -42.569949      55130.932     -20290.369      3426.5109     -16863.858      1.0347632    
   2366000   300.44671      413.8897       54847.733     -20328.107      3361.0913     -16967.016      1.040106     
   2367000   295.84861     -722.52701      55971.19      -20102.674      3309.6525     -16793.022      1.019229     
   2368000   303.56783     -79.645903      55443.884     -20446.18       3396.0073     -17050.173      1.0289225    
   2369000   305.02566      463.13985      55102.73      -20359.798      3412.316      -16947.482      1.0352928    
   2370000   296.3898      -725.82992      55938.235     -20352.025      3315.7068     -17036.318      1.0198294    
   2371000   299.63869     -502.39498      55273.678     -20356.274      3352.0521     -17004.222      1.0320908    
   2372000   302.95313      560.5631       55487.029     -20186.725      3389.1306     -16797.595      1.0281224    
   2373000   302.25843      384.96457      55712.733     -20274.749      3381.3591     -16893.39       1.0239573    
   2374000   299.80806     -504.2683       56029.788     -20243.305      3353.9468     -16889.359      1.018163     
   2375000   298.11428     -1106.538       55700.016     -20090.869      3334.9985     -16755.871      1.024191     
   2376000   304.85654     -405.69799      55579.044     -20174.865      3410.4241     -16764.44       1.0264203    
   2377000   290.07279     -778.38282      55261.624     -20360.261      3245.0386     -17115.222      1.032316     
   2378000   297.26133     -204.72369      55386.329     -20206.976      3325.4566     -16881.519      1.0299917    
   2379000   304.89211     -1094.593       55496.21      -20304.453      3410.822      -16893.631      1.0279523    
   2380000   301.57126     -133.99169      55775.302     -20166.624      3373.6717     -16792.952      1.0228086    
   2381000   304.32151      3.9910279      55592.903     -20106.038      3404.4387     -16701.599      1.0261644    
   2382000   299.10411      197.25716      55510.671     -20351.289      3346.0717     -17005.217      1.0276845    
   2383000   299.5276      -174.06515      55200.603     -20335.683      3350.8093     -16984.874      1.0334571    
   2384000   293.5414      -143.97017      55389.859     -20263.43       3283.8418     -16979.588      1.029926     
   2385000   299.98821     -169.4097       54850.931     -20291.301      3355.9622     -16935.339      1.0400454    
   2386000   312.26597      111.1804       54922.878     -20291.459      3493.3132     -16798.146      1.038683     
   2387000   299.98078     -184.85881      56137.116     -20254.14       3355.879      -16898.261      1.0162164    
   2388000   296.50435     -808.0571       55668.581     -20201.58       3316.9883     -16884.592      1.0247694    
   2389000   297.40007      366.22976      55737.019     -20203.689      3327.0087     -16876.68       1.0235111    
   2390000   296.40071      158.76888      55121.993     -20275.412      3315.8288     -16959.583      1.034931     
   2391000   298.89487     -933.05533      55719.699     -20442.918      3343.731      -17099.187      1.0238292    
   2392000   303.45317      563.00713      55858.076     -20221.534      3394.7246     -16826.81       1.0212929    
   2393000   299.98085      648.65231      55812.691     -20348.733      3355.8798     -16992.853      1.0221234    
   2394000   302.95966      598.74447      55494.957     -20334.789      3389.2037     -16945.585      1.0279755    
   2395000   299.71362     -245.26989      55797.93      -20395.957      3352.8903     -17043.067      1.0223938    
   2396000   303.96047      81.497001      55727.782     -20344.77       3400.3997     -16944.37       1.0236807    
   2397000   293.00592     -55.962465      55997.672     -20253.85       3277.8514     -16975.999      1.0187469    
   2398000   298.81681     -26.588966      55648.411     -20206.072      3342.8577     -16863.215      1.0251408    
   2399000   299.10092     -111.57326      55242.428     -20305.497      3346.036      -16959.461      1.0326747    
   2400000   298.54278     -84.000747      55706.056     -20292.906      3339.7921     -16953.114      1.02408      
   2401000   300.22438     -29.740678      55369.855     -20361.39       3358.6041     -17002.786      1.0302981    
   2402000   292.89971      339.38566      55409.774     -20289.009      3276.6632     -17012.346      1.0295559    
   2403000   293.34074     -183.02593      54742.12      -20318.475      3281.597      -17036.878      1.0421127    
   2404000   310.70976      536.63874      55365.035     -20275.727      3475.9039     -16799.823      1.0303878    
   2405000   299.78278      469.4726       55281.367     -20253.806      3353.664      -16900.142      1.0319473    
   2406000   304.49724     -258.71861      55487.468     -20325.563      3406.4046     -16919.159      1.0281143    
   2407000   302.98941     -547.10792      55315.704     -20353.088      3389.5365     -16963.551      1.0313067    
   2408000   301.4176      -71.972762      55972.724     -20175.282      3371.9527     -16803.329      1.019201     
   2409000   297.72033      117.76131      55119.544     -20341.709      3330.5914     -17011.117      1.0349769    
   2410000   296.02552      28.816392      55656.094     -20257.637      3311.6316     -16946.005      1.0249993    
   2411000   295.94856     -136.07678      55739.521     -20291.008      3310.7707     -16980.238      1.0234652    
   2412000   300.73529     -128.24716      55340.581     -20332.601      3364.3198     -16968.281      1.0308431    
   2413000   299.32518     -132.07217      56101.505     -20327.284      3348.5448     -16978.739      1.0168614    
   2414000   302.84783     -617.55081      55912.693     -20269.337      3387.9527     -16881.385      1.0202953    
   2415000   303.28792      796.15395      55412.271     -20368.799      3392.876      -16975.923      1.0295095    
   2416000   297.18179     -63.255815      55891.428     -20349.142      3324.5668     -17024.576      1.0206835    
   2417000   299.51148      110.15012      55080.148     -20268.577      3350.629      -16917.948      1.0357172    
   2418000   298.43113      516.03528      55607.564     -20352.175      3338.5432     -17013.631      1.0258938    
   2419000   304.33569     -668.90967      56057.25      -20374.156      3404.5973     -16969.558      1.0176642    
   2420000   294.87458     -135.30871      56210.053     -20382.166      3298.7561     -17083.41       1.0148978    
   2421000   296.83071     -350.93369      55733.046     -20357.327      3320.6393     -17036.688      1.0235841    
   2422000   300.81789     -94.085155      55739.897     -20381.619      3365.2438     -17016.376      1.0234582    
   2423000   294.96159      861.33672      55367.73      -20281.862      3299.7295     -16982.133      1.0303377    
   2424000   296.63316      1.6463696      55603.698     -20322.89       3318.4293     -17004.461      1.0259652    
   2425000   305.89035     -302.06914      55189.08      -20276.584      3421.9892     -16854.594      1.0336729    
   2426000   294.23624      29.013298      55386.719     -20243.873      3291.615      -16952.258      1.0299844    
   2427000   301.40929      252.20268      54791.978     -20275.53       3371.8598     -16903.67       1.0411644    
   2428000   302.23366     -20.494333      55270.226     -20319.727      3381.0819     -16938.645      1.0321553    
   2429000   307.69009      111.74379      55594.489     -20442.885      3442.1229     -17000.763      1.0261351    
   2430000   304.55161     -45.143483      55226.379     -20412.108      3407.0128     -17005.095      1.0329748    
   2431000   296.35287      351.61778      55676.227     -20313.58       3315.2937     -16998.286      1.0246287    
   2432000   295.65911      962.66809      55188.146     -20378.921      3307.5326     -17071.388      1.0336904    
   2433000   301.87943      37.859009      55180.716     -20364.577      3377.1192     -16987.458      1.0338296    
   2434000   296.31703      254.18408      55955.077     -20320.455      3314.8927     -17005.562      1.0195225    
   2435000   313.53204     -257.04085      55767.393     -20294.086      3507.4767     -16786.609      1.0229536    
   2436000   298.86994      233.2406       55543.989     -20268.98       3343.4521     -16925.528      1.0270681    
   2437000   297.22258      263.32865      55409.282     -20310.263      3325.0231     -16985.24       1.029565     
   2438000   294.82687     -517.03443      55093.301     -20288.612      3298.2223     -16990.39       1.0354699    
   2439000   298.97624      402.9322       54914.131     -20262.494      3344.6413     -16917.853      1.0388484    
   2440000   307.21213     -168.37847      55560.882     -20354.996      3436.776      -16918.22       1.0267558    
   2441000   302.3483      -266.24546      55390.526     -20328.584      3382.3644     -16946.22       1.0299136    
   2442000   306.16277      642.94666      56134.818     -20314.504      3425.0368     -16889.467      1.016258     
   2443000   302.42248     -44.010975      55710.649     -20344.622      3383.1942     -16961.427      1.0239956    
   2444000   298.97056     -340.85271      55647.402     -20306.957      3344.5777     -16962.379      1.0251594    
   2445000   299.27275      550.42367      55433.544     -20347.765      3347.9584     -16999.807      1.0291144    
   2446000   297.57884     -511.4019       55697.465     -20358.213      3329.0086     -17029.204      1.024238     
   2447000   303.32857     -17.223156      55513.468     -20344.587      3393.3307     -16951.256      1.0276327    
   2448000   301.97582      261.27158      55769.334     -20300.017      3378.1975     -16921.82       1.022918     
   2449000   299.91835     -97.168666      55814.419     -20204.196      3355.1806     -16849.015      1.0220918    
   2450000   298.93908      198.98293      55468.359     -20236.271      3344.2255     -16892.045      1.0284685    
   2451000   300.73862      206.50799      55237.259     -20289.257      3364.357      -16924.9        1.0327713    
   2452000   292.79997     -157.14935      55717.931     -20205.107      3275.5475     -16929.56       1.0238617    
   2453000   303.90555      238.99719      55457.826     -20280.207      3399.7854     -16880.422      1.0286638    
   2454000   294.66772      376.18668      55157.332     -20316.651      3296.442      -17020.209      1.0342679    
   2455000   298.37673     -742.80207      55735.417     -20371.054      3337.9346     -17033.12       1.0235405    
   2456000   301.57926      740.23385      55811.159     -20319.601      3373.7612     -16945.839      1.0221515    
   2457000   288.86556     -666.20535      55840.526     -20311.626      3231.5333     -17080.093      1.0216139    
   2458000   297.98438     -36.536435      55926.198     -20309.469      3333.5453     -16975.923      1.0200489    
   2459000   304.26029      170.92483      56234.232     -20267.876      3403.7538     -16864.122      1.0144614    
   2460000   296.86343      288.22636      55794.835     -20264.542      3321.0053     -16943.537      1.0224505    
   2461000   294.62441      250.23183      56336.759     -20374.101      3295.9575     -17078.143      1.0126152    
   2462000   297.87921     -900.4885       55435.479     -20427.086      3332.3688     -17094.717      1.0290785    
   2463000   305.495        49.446946      55924.435     -20361.473      3417.5665     -16943.907      1.0200811    
   2464000   302.12368     -476.90232      55914.363     -20338.743      3379.8516     -16958.892      1.0202648    
   2465000   295.33327     -48.107523      55921.659     -20308.429      3303.8875     -17004.542      1.0201317    
   2466000   299.02346      169.67195      55699.75      -20330.319      3345.1695     -16985.149      1.0241959    
   2467000   302.11204      856.68908      55924.973     -20366.143      3379.7214     -16986.422      1.0200713    
   2468000   296.9096       467.56212      55241.467     -20334.184      3321.5218     -17012.663      1.0326927    
   2469000   300.17911     -350.1484       55230.518     -20332.608      3358.0977     -16974.511      1.0328974    
   2470000   291.31488     -402.50403      55492.091     -20373.145      3258.9337     -17114.211      1.0280286    
   2471000   299.64842     -411.86259      55360.913     -20219.948      3352.1609     -16867.787      1.0304645    
   2472000   302.80713      1195.5379      54907.155     -20379.478      3387.4973     -16991.981      1.0389804    
   2473000   303.28165      1029.1975      55302.032     -20228.589      3392.8058     -16835.783      1.0315617    
   2474000   303.00475     -227.19752      55873.054     -20265.716      3389.7081     -16876.008      1.0210191    
   2475000   310.51        -316.61551      55707.732     -20333.846      3473.6692     -16860.177      1.0240492    
   2476000   304.10777     -229.21796      55630.417     -20395.147      3402.0476     -16993.1        1.0254724    
   2477000   295.49343     -269.24307      55625.907     -20429.51       3305.6792     -17123.831      1.0255556    
   2478000   300.1855      -165.59703      55229.87      -20417.314      3358.1692     -17059.145      1.0329095    
   2479000   294.10392      565.4746       56012.29      -20202.711      3290.1347     -16912.576      1.0184811    
   2480000   292.61675     -251.71701      56492.059     -20327.789      3273.4978     -17054.291      1.0098315    
   2481000   294.75168     -147.2851       55801.189     -20271.097      3297.3812     -16973.716      1.0223341    
   2482000   303.46026     -1116.1881      55651.285     -20300.164      3394.8039     -16905.36       1.0250879    
   2483000   299.56922     -580.91588      55474.533     -20296.539      3351.2749     -16945.264      1.028354     
   2484000   302.98357     -84.341229      55575.276     -20244.473      3389.4711     -16855.002      1.0264899    
   2485000   295.43976      157.13915      55707.041     -20203.896      3305.0787     -16898.817      1.0240619    
   2486000   300.6302      -645.19462      55513.799     -20273.807      3363.1441     -16910.663      1.0276266    
   2487000   298.80978     -421.68742      55864.902     -20236.764      3342.7791     -16893.985      1.0211681    
   2488000   296.02921      687.65036      55143.876     -20311.116      3311.6729     -16999.443      1.0345203    
   2489000   301.88765     -321.7836       55773.174     -20240.625      3377.2111     -16863.414      1.0228476    
   2490000   298.72504      180.57869      55641.984     -20325.756      3341.8311     -16983.925      1.0252592    
   2491000   301.05817     -29.605752      55129.407     -20374.986      3367.9318     -17007.055      1.0347918    
   2492000   297.70604     -163.45648      55703.561     -20408.608      3330.4316     -17078.176      1.0241259    
   2493000   298.66026     -604.77206      55796.627     -20364.784      3341.1064     -17023.677      1.0224177    
   2494000   296.66357      30.378833      55410.223     -20292.088      3318.7695     -16973.318      1.0295475    
   2495000   294.79176      473.42189      55361.714     -20409.011      3297.8295     -17111.182      1.0304496    
   2496000   299.32808      620.25106      55825.013     -20428.675      3348.5773     -17080.098      1.0218978    
   2497000   295.59642      317.1842       55083.489     -20264.164      3306.8313     -16957.333      1.0356544    
   2498000   294.90663     -211.73556      54665.699     -20437.9        3299.1146     -17138.785      1.0435695    
   2499000   299.15213     -239.69746      55560.246     -20292.348      3346.6089     -16945.739      1.0267676    
   2500000   302.12227     -425.04699      55818.076     -20248.254      3379.8358     -16868.418      1.0220248    
   2501000   300.57568     -212.11611      55595.136     -20218.863      3362.5341     -16856.329      1.0261232    
   2502000   310.39925     -397.90742      55499.66      -20324.31       3472.4303     -16851.88       1.0278884    
   2503000   296.59876      361.75857      55480.161     -20376.913      3318.0444     -17058.868      1.0282497    
   2504000   292.60521     -573.00539      55517.211     -20340.724      3273.3687     -17067.355      1.0275635    
   2505000   296.12889      1278.8999      55027.676     -20336.789      3312.788      -17024.001      1.0367048    
   2506000   292.8242       170.70748      55916.702     -20342.635      3275.8185     -17066.816      1.0202221    
   2507000   305.29358      274.22164      55640.971     -20380.964      3415.3132     -16965.651      1.0252779    
   2508000   301.2863      -83.321869      55543.452     -20385.627      3370.4838     -17015.143      1.027078     
   2509000   302.46132      588.63013      55364.91      -20287.077      3383.6288     -16903.448      1.0303901    
   2510000   294.61925     -25.589673      55463.848     -20412.253      3295.8997     -17116.353      1.0285521    
   2511000   296.35133     -1056.0398      54967.511     -20403.828      3315.2765     -17088.552      1.0378396    
   2512000   297.42749      553.83728      55465.183     -20331.635      3327.3154     -17004.319      1.0285274    
   2513000   301.29368     -226.06769      54976.333     -20521.797      3370.5664     -17151.231      1.037673     
   2514000   295.90802     -398.63523      54822.141     -20456.174      3310.3171     -17145.856      1.0405916    
   2515000   304.45683     -803.80522      55877.978     -20459.44       3405.9525     -17053.488      1.0209292    
   2516000   299.54069      310.39196      55505.266     -20287.981      3350.9557     -16937.025      1.0277846    
   2517000   303.89809      243.21989      55690.742     -20403.354      3399.7019     -17003.652      1.0243616    
   2518000   297.30804     -400.24733      56092.723     -20206.045      3325.9791     -16880.066      1.0170207    
   2519000   299.08004     -78.944713      55739.991     -20344.646      3345.8024     -16998.843      1.0234565    
   2520000   297.85044     -375.77654      56033.16      -20292.53       3332.0469     -16960.483      1.0181017    
   2521000   301.96375      270.45498      55177.264     -20324.013      3378.0624     -16945.951      1.0338943    
   2522000   299.47732      163.03913      55374.556     -20354.87       3350.2468     -17004.623      1.0302107    
   2523000   293.66778     -497.05055      55760.326     -20374.454      3285.2556     -17089.199      1.0230833    
   2524000   297.0819      -400.21031      55844.056     -20357.925      3323.4494     -17034.476      1.0215493    
   2525000   296.28682      340.48337      55373.369     -20261.769      3314.5547     -16947.214      1.0302327    
   2526000   299.63273     -681.51879      55366.503     -20333.435      3351.9854     -16981.45       1.0303605    
   2527000   301.88744      205.39837      55567.989     -20325.134      3377.2088     -16947.925      1.0266245    
   2528000   296.73599     -600.50379      55688.733     -20370.446      3319.5796     -17050.866      1.0243986    
   2529000   291.76871     -131.05103      55366.44      -20331.972      3264.0107     -17067.961      1.0303617    
   2530000   300.09042      935.93024      54994.126     -20360.458      3357.1056     -17003.353      1.0373373    
   2531000   296.317        155.70181      55817.868     -20283.714      3314.8923     -16968.821      1.0220286    
   2532000   304.70803      19.828258      55122.957     -20369.002      3408.7627     -16960.24       1.0349129    
   2533000   297.22622     -95.631488      55998.982     -20222.293      3325.0638     -16897.229      1.0187231    
   2534000   293.71293     -536.76824      55931.202     -20236.949      3285.7607     -16951.188      1.0199577    
   2535000   300.09567      647.31258      55627.201     -20226.146      3357.1643     -16868.982      1.0255317    
   2536000   299.24074     -926.10651      56107.017     -20300.762      3347.6002     -16953.162      1.0167616    
   2537000   295.28914      231.64424      55764.659     -20438.075      3303.3937     -17134.681      1.0230038    
   2538000   294.75519     -218.46908      56325.063     -20189.901      3297.4205     -16892.48       1.0128255    
   2539000   298.9825       457.46477      55728.495     -20380.456      3344.7113     -17035.745      1.0236676    
   2540000   300.53187     -289.69212      56032.893     -20377.932      3362.0441     -17015.888      1.0181066    
   2541000   296.24097     -223.60242      55982.802     -20327.92       3314.0419     -17013.878      1.0190175    
   2542000   302.63682     -365.68367      55380.799     -20300.861      3385.5921     -16915.269      1.0300945    
   2543000   300.90602     -534.95252      55625.17      -20251.843      3366.2297     -16885.614      1.0255691    
   2544000   299.69569      1135.4542      55146.474     -20319.713      3352.6897     -16967.024      1.0344715    
   2545000   302.57244      294.02926      55449.418     -20390.407      3384.8719     -17005.536      1.0288198    
   2546000   309.81979     -1141.6169      55330.75      -20395.233      3465.9478     -16929.286      1.0310263    
   2547000   298.76009     -31.804307      55164.299     -20382.872      3342.2232     -17040.649      1.0341373    
   2548000   299.9556      -155.38319      55276.888     -20346.837      3355.5974     -16991.24       1.0320309    
   2549000   296.42731     -440.34212      55780.298     -20357.912      3316.1265     -17041.785      1.022717     
   2550000   297.72808     -592.08733      55976.331     -20375.874      3330.6781     -17045.196      1.0191353    
   2551000   294.95102     -439.78359      55790.251     -20445.102      3299.6112     -17145.491      1.0225345    
   2552000   301.34062     -187.75349      55375.503     -20352.206      3371.0915     -16981.115      1.030193     
   2553000   295.55123     -63.158932      55478.727     -20349.939      3306.3257     -17043.613      1.0282763    
   2554000   298.538       -866.95526      56389.868     -20305.906      3339.7387     -16966.167      1.0116615    
   2555000   301.41054      274.83978      56159.259     -20389.131      3371.8738     -17017.257      1.0158157    
   2556000   304.24116      7.9066202      55708.614     -20348.284      3403.5398     -16944.744      1.024033     
   2557000   300.18275     -780.25901      55789.829     -20283.106      3358.1384     -16924.967      1.0225423    
   2558000   301.04696      243.59066      54721.664     -20359.813      3367.8063     -16992.007      1.0425022    
   2559000   297.72144     -266.5156       55223.451     -20329.741      3330.6039     -16999.137      1.0330296    
   2560000   306.50797      602.54656      55764.966     -20341.286      3428.8986     -16912.388      1.0229982    
   2561000   295.36269     -210.87819      55791.504     -20334.392      3304.2165     -17030.176      1.0225115    
   2562000   298.45113      256.23921      55845.946     -20408.349      3338.7668     -17069.582      1.0215148    
   2563000   293.03355     -830.05436      55406.125     -20292.727      3278.1605     -17014.566      1.0296237    
   2564000   296.73458     -545.7431       55630.522     -20462.344      3319.5639     -17142.78       1.0254705    
   2565000   299.99031     -37.710542      55820.647     -20298.73       3355.9856     -16942.744      1.0219777    
   2566000   296.50956      400.53303      55212.691     -20352.381      3317.0466     -17035.334      1.0332309    
   2567000   298.24787      1097.4208      55314.771     -20309.521      3336.493      -16973.028      1.0313241    
   2568000   301.08441     -12.835007      55623.357     -20291.32       3368.2253     -16923.095      1.0256026    
   2569000   300.72543     -152.93163      55835.771     -20257.425      3364.2094     -16893.215      1.0217009    
   2570000   294.7686      -5.8993855      55493.047     -20312.614      3297.5705     -17015.044      1.0280109    
   2571000   297.76367      415.79786      55896.241     -20354.484      3331.0763     -17023.408      1.0205956    
   2572000   301.12341      157.51274      55155.155     -20248.159      3368.6616     -16879.497      1.0343087    
   2573000   303.38498      929.97763      54962.081     -20325.47       3393.9617     -16931.508      1.0379421    
   2574000   302.20037      170.28696      55615.483     -20219.975      3380.7095     -16839.265      1.0257478    
   2575000   300.13108      96.318261      55572.009     -20441.132      3357.5605     -17083.571      1.0265502    
   2576000   300.87302     -608.04228      55189.559     -20290.842      3365.8605     -16924.982      1.0336639    
   2577000   301.78193     -50.290845      55876.966     -20170.733      3376.0285     -16794.705      1.0209477    
   2578000   300.63938      670.87045      55739.743     -20158.902      3363.2468     -16795.655      1.0234611    
   2579000   310.55764      170.7999       55581.61      -20280.15       3474.2022     -16805.948      1.0263729    
   2580000   302.58116     -73.875278      55764.962     -20276.075      3384.9695     -16891.106      1.0229982    
   2581000   292.9011      -257.01312      56031.518     -20280.168      3276.6788     -17003.489      1.0181316    
   2582000   299.63669     -390.24979      55972.389     -20300.654      3352.0296     -16948.624      1.0192071    
   2583000   294.7797       309.34918      55597.779     -20423.012      3297.6946     -17125.318      1.0260744    
   2584000   297.29613      73.38398       55475.264     -20251.813      3325.8459     -16925.967      1.0283404    
   2585000   303.18615      46.788995      55520.087     -20339.899      3391.7374     -16948.162      1.0275102    
   2586000   303.88845      320.75298      55717.493     -20385.781      3399.5941     -16986.187      1.0238698    
   2587000   300.98898     -529.5158       55922.115     -20363.551      3367.1578     -16996.393      1.0201234    
   2588000   298.10447      21.607         55572.443     -20425.502      3334.8887     -17090.614      1.0265422    
   2589000   297.29623      2.6125534      55121.297     -20441.992      3325.8471     -17116.145      1.034944     
   2590000   300.8419       148.5948       55723.606     -20259.7        3365.5123     -16894.188      1.0237575    
   2591000   305.27945     -603.60993      56145.113     -20334.392      3415.1551     -16919.237      1.0160717    
   2592000   298.19337      578.42246      55451.937     -20349.775      3335.8833     -17013.892      1.028773     
   2593000   298.2654       771.20425      55384.879     -20297.125      3336.6891     -16960.436      1.0300186    
   2594000   296.69578      412.0144       55147.999     -20337.198      3319.1298     -17018.068      1.0344429    
   2595000   298.89687      488.99465      55532.589     -20298.908      3343.7533     -16955.154      1.0272789    
   2596000   302.3991      -108.29173      56163.974     -20255.597      3382.9328     -16872.664      1.0157304    
   2597000   297.93058     -808.70183      55292.863     -20313.887      3332.9435     -16980.944      1.0317328    
   2598000   299.22575      808.33016      55666.684     -20335.876      3347.4326     -16988.444      1.0248043    
   2599000   297.01013      180.96466      55251.278     -20403.09       3322.6464     -17080.443      1.0325093    
   2600000   300.13284      216.792        55538.019     -20380.012      3357.5801     -17022.431      1.0271785    
   2600010   299.52801     -698.66946      55567.756     -20379.503      3350.8139     -17028.689      1.0266288    
Loop time of 57603.6 on 4 procs for 2000000 steps with 5541 atoms

Performance: 6.000 ns/day, 4.000 hours/ns, 34.720 timesteps/s, 192.384 katom-step/s
304.7% CPU use with 1 MPI tasks x 4 OpenMP threads

MPI task timing breakdown:
Section |  min time  |  avg time  |  max time  |%varavg| %total
---------------------------------------------------------------
Pair    | 1347.1     | 1347.1     | 1347.1     |   0.0 |  2.34
Bond    | 20.642     | 20.642     | 20.642     |   0.0 |  0.04
Kspace  | 25908      | 25908      | 25908      |   0.0 | 44.98
Neigh   | 70.621     | 70.621     | 70.621     |   0.0 |  0.12
Comm    | 593.94     | 593.94     | 593.94     |   0.0 |  1.03
Output  | 26.647     | 26.647     | 26.647     |   0.0 |  0.05
Modify  | 29418      | 29418      | 29418      |   0.0 | 51.07
Other   |            | 219.1      |            |       |  0.38

Nlocal:           5541 ave        5541 max        5541 min
Histogram: 1 0 0 0 0 0 0 0 0 0
Nghost:          35011 ave       35011 max       35011 min
Histogram: 1 0 0 0 0 0 0 0 0 0
Neighs:    4.65986e+06 ave 4.65986e+06 max 4.65986e+06 min
Histogram: 1 0 0 0 0 0 0 0 0 0

Total # of neighbors = 4659862
Ave neighs/atom = 840.97852
Ave special neighs/atom = 2.4872767
Neighbor list builds = 186597
Dangerous builds = 0

unfix mynpt
undump prod_traj
undump prod_dcd
undump prod_img
unfix thermo_avg
unfix thermo_detailed
unfix rdf_CO_avg
unfix rdf_CC_avg
unfix rdf_OO_avg
unfix msd_avg
uncompute rdf_CO
uncompute rdf_CC
uncompute rdf_OO
uncompute msd_water

#==============================================================================
# FINAL OUTPUT AND VERIFICATION
#==============================================================================
print ""

print "===== Saving Final Configuration ====="
===== Saving Final Configuration =====

write_data equilibrated_system.data
System init for write_data ...
PPPM initialization ...
  extracting TIP4P info from pair style
  using 12-bit tables for long-range coulomb
  G vector (1/distance) = 0.28790874
  grid = 50 50 50
  stencil order = 5
  estimated absolute RMS force accuracy = 0.00033725061
  estimated relative force accuracy = 1.0156202e-06
  using double precision FFTW3
  3d grid and FFT values/proc = 205379 125000
Generated 0 of 3 mixed pair_coeff terms from geometric mixing rule
WARNING: Not all mixed pair coeffs generated from mixing. Use write_data with 'pair ij' option to store all pair coeffs. (src/write_data.cpp:364)
write_restart equilibrated_system.restart
System init for write_restart ...
PPPM initialization ...
  extracting TIP4P info from pair style
  using 12-bit tables for long-range coulomb
  G vector (1/distance) = 0.28790874
  grid = 50 50 50
  stencil order = 5
  estimated absolute RMS force accuracy = 0.00033725061
  estimated relative force accuracy = 1.0156202e-06
  using double precision FFTW3
  3d grid and FFT values/proc = 205379 125000
Generated 0 of 3 mixed pair_coeff terms from geometric mixing rule

print ""

print "â•â•â•â•â•â•â•â•â•â•â•â•â•â•â•â•â•â•â•â•â•â•â•â•â•â•â•â•â•â•â•â•â•â•â•â•â•â•â•â•â•â•â•â•â•â•â•â•â•â•â•â•â•â•â•â•â•â•â•â•â•â•â•â•â•â•â•â•â•â•â•â•â•â•â•â•"
••••••••••••••••••••••••••••••••••••••••••••••••••••••••••••••••••••••••••••
print "                     EQUILIBRATION COMPLETE - SUCCESS!"
                     EQUILIBRATION COMPLETE - SUCCESS!
print "â•â•â•â•â•â•â•â•â•â•â•â•â•â•â•â•â•â•â•â•â•â•â•â•â•â•â•â•â•â•â•â•â•â•â•â•â•â•â•â•â•â•â•â•â•â•â•â•â•â•â•â•â•â•â•â•â•â•â•â•â•â•â•â•â•â•â•â•â•â•â•â•â•â•â•â•"
••••••••••••••••••••••••••••••••••••••••••••••••••••••••••••••••••••••••••••
print ""

print "Simulation Summary:"
Simulation Summary:
print "  Total simulation time: 5.22 ns"
  Total simulation time: 5.22 ns
print "    - NVT thermalization:     50 ps"
    - NVT thermalization:     50 ps
print "    - Pre-equilibration:      50 ps  (NEW - prevents PPPM artifacts)"
    - Pre-equilibration:      50 ps  (NEW - prevents PPPM artifacts)
print "    - Pressure ramp:         100 ps  (EXTENDED and with drag damping)"
    - Pressure ramp:         100 ps  (EXTENDED and with drag damping)
print "    - NPT equilibration:    1000 ps"
    - NPT equilibration:    1000 ps
print "    - Production run:       4000 ps (4 ns)"
    - Production run:       4000 ps (4 ns)
print ""


# Final measurements
variable final_temp equal temp
variable final_press equal press
variable final_dens equal density
variable final_vol equal vol
variable final_boxsize equal vol^(1.0/3.0)
variable final_pe equal pe
variable final_ke equal ke
variable final_etotal equal etotal

print "Final Thermodynamic State:"
Final Thermodynamic State:
print "  Temperature:    ${final_temp} K      (target: 300K)"
  Temperature:    299.528009378178 K      (target: 300K)
print "  Pressure:       ${final_press} atm   (target: 1 atm)"
  Pressure:       -698.669456235318 atm   (target: 1 atm)
print "  Density:        ${final_dens} g/cmÂ³  (target: 0.95-1.05)"
  Density:        1.02662878456823 g/cm³  (target: 0.95-1.05)
print "  Volume:         ${final_vol} Ã…Â³"
  Volume:         55567.7558175904 …³
print "  Box size:       ${final_boxsize} Ã…    (expected: 58-63)"
  Box size:       38.1599343767483 …    (expected: 58-63)
print ""

print "Final Energies:"
Final Energies:
print "  Potential:      ${final_pe} kcal/mol"
  Potential:      -20379.502674625 kcal/mol
print "  Kinetic:        ${final_ke} kcal/mol"
  Kinetic:        3350.81388559296 kcal/mol
print "  Total:          ${final_etotal} kcal/mol"
  Total:          -17028.688789032 kcal/mol
print ""


# Comprehensive validation
if "${final_dens} >= 0.85 && ${final_dens} <= 1.15" then     "print 'âœ… SUCCESS: System equilibrated to LIQUID PHASE!'"     "print ''"     "print 'Quality Indicators:'"     "if '${final_dens} >= 0.95 && ${final_dens} <= 1.05' then 'print \"  âœ“ Density: EXCELLENT (within 5% of water)\"' else 'print \"  âš  Density: ACCEPTABLE (but check TIP4P/2005 reference)\"'"     "if '${final_press} >= -50.0 && ${final_press} <= 50.0' then 'print \"  âœ“ Pressure: EXCELLENT (normal fluctuations)\"' else 'print \"  âš  Pressure: CHECK (may need longer equilibration)\"'"     "if '${final_temp} >= 295.0 && ${final_temp} <= 305.0' then 'print \"  âœ“ Temperature: EXCELLENT\"' else 'print \"  âš  Temperature: CHECK (thermostat may need tuning)\"'" else     "print 'âš ï¸  WARNING: Density ${final_dens} g/cmÂ³ outside normal range'"     "print 'Expected: 0.95-1.05 g/cmÂ³ for TIP4P/2005 water at 300K, 1 atm'"     "print ''"     "print 'Possible explanations:'"     "print '  - System still equilibrating (try longer NPT)'"     "print '  - Force field parameters incorrect'"     "print '  - Nanoparticle affecting bulk water density'"
ERROR: Input line quote not followed by white-space (src/input.cpp:556)
Last input line: if "${final_dens} >= 0.85 && ${final_dens} <= 1.15" then "print 'âœ… SUCCESS: System equilibrated to LIQUID PHASE!'" "print ''" "print 'Quality Indicators:'" "if '${final_dens} >= 0.95 && ${final_dens} <= 1.05' then 'print \" âœ“ Density: EXCELLENT (within 5% of water)\"' else 'print \" âš  Density: ACCEPTABLE (but check TIP4P/2005 reference)\"'" "if '${final_press} >= -50.0 && ${final_press} <= 50.0' then 'print \" âœ“ Pressure: EXCELLENT (normal fluctuations)\"' else 'print \" âš  Pressure: CHECK (may need longer equilibration)\"'" "if '${final_temp} >= 295.0 && ${final_temp} <= 305.0' then 'print \" âœ“ Temperature: EXCELLENT\"' else 'print \" âš  Temperature: CHECK (thermostat may need tuning)\"'" else "print 'âš ï¸ WARNING: Density ${final_dens} g/cmÂ³ outside normal range'" "print 'Expected: 0.95-1.05 g/cmÂ³ for TIP4P/2005 water at 300K, 1 atm'" "print ''" "print 'Possible explanations:'" "print ' - System still equilibrating (try longer NPT)'" "print ' - Force field parameters incorrect'" "print ' - Nanoparticle affecting bulk water density'"
