LAMMPS (10 Sep 2025)
  using 4 OpenMP thread(s) per MPI task
package gpu 1 neigh yes newton off binsize 2.8 split 1.0
# LAMMPS Input Script: FULLY CORRECTED NPT Equilibration
# Purpose: Equilibrate solvated nanoparticle system at 300K, 1 bar
# Water Model: TIP4P/2005 (implicit M-site)
# GPU acceleration: Enabled for MD stages
#
# COMPLETE FIXES APPLIED (2024-11-13):
# 1. âœ… CRITICAL FIX: PPPM grid locked to prevent recalculation artifacts
# 2. âœ… CRITICAL FIX: Pre-equilibration stage to reduce initial pressure
# 3. âœ… FIXED: Gentler pressure ramp (100 atm â†’ 1 atm) with drag damping
# 4. âœ… FIXED: SHAKE verification and proper constraint application
# 5. âœ… EXTENDED: Longer equilibration (1000 ps) and production (4000 ps)
# 6. âœ… ENHANCED: Multiple density checkpoints to catch failures early
# 7. âœ… OPTIMIZED: 2 fs timestep (SHAKE allows this, 2Ã— speedup)
#
# Total time: 5.22 ns (50ps NVT + 50ps pre-equil + 100ps ramp + 1000ps NPT + 4000ps prod)
#
# ROOT CAUSE OF PREVIOUS FAILURE:
# - PPPM grid recalculation at step 51,000 caused 169,712 atm pressure spike
# - Barostat overreacted â†’ box expanded 63Ã— â†’ gas phase (Ï=0.025 g/cmÂ³)
# - All epsilon values failed identically (proves it's numerical, not physical)
#
# SOLUTION: Lock PPPM grid + reduce initial pressure + add checkpoints

# ===== INITIALIZATION =====
units real
atom_style full
boundary p p p
atom_modify map array

# ===== COMMUNICATION =====
# Increased cutoff to handle potential box fluctuations safely
comm_modify cutoff 18.0

# ===== FORCE FIELD (FULLY GPU-accelerated) =====
# CORRECTED: O=type2, H=type3 (C60 carbon is type1)
pair_style lj/cut/tip4p/long/gpu 2 3 2 1 0.1546 12.0

# ğŸ”§ CRITICAL: Use pppm/gpu for FULL GPU acceleration of Coulomb forces
# pppm/tip4p is CPU-based bottleneck (~90% CPU, ~10% GPU)
# pppm/gpu runs Coulomb solver on GPU â†’ 5-10Ã— speedup for long-range forces
kspace_style pppm/gpu 1.0e-4

# ğŸ”§ CRITICAL FIX #1: Lock PPPM grid to prevent recalculation
# This prevents the 169,712 atm pressure spike that caused gas-phase failure
kspace_modify mesh 50 50 50    # Fixed grid (handles boxes up to ~125 Ã…, increased from 40)
kspace_modify order 5           # Higher interpolation order for accuracy
kspace_modify force/disp/real 0.8  # Balance real/k-space work

bond_style harmonic
angle_style harmonic

read_data large_C60_solvated.data
Reading data file ...
  orthogonal box = (-20 -20 -20) to (20 20 20)
  1 by 1 by 1 MPI processor grid
  reading atoms ...
  5541 atoms
  reading velocities ...
  5541 velocities
  scanning bonds ...
  3 = max bonds/atom
  scanning angles ...
  1 = max angles/atom
  orthogonal box = (-20 -20 -20) to (20 20 20)
  1 by 1 by 1 MPI processor grid
  reading bonds ...
  3844 bonds
  reading angles ...
  1787 angles
Finding 1-2 1-3 1-4 neighbors ...
  special bond factors lj:    0        0        0       
  special bond factors coul:  0        0        0       
     3 = max # of 1-2 neighbors
     6 = max # of 1-3 neighbors
    18 = max # of 1-4 neighbors
    17 = max # of special neighbors
  special bonds CPU = 0.002 seconds
  read_data CPU = 0.051 seconds

# ===== PAIR COEFFICIENTS (CORRECTED ATOM TYPE MAPPING) =====
# Type 1: C60 carbon (180 atoms from 3 C60 particles)
# Type 2: Water oxygen (~2000 molecules)
# Type 3: Water hydrogen (~4000 atoms)
# TIP4P/2005 parameters (verified against literature)
pair_coeff 2 2 0.1852 3.1589    # O-O (type 2, Îµ=0.1852 kcal/mol, Ïƒ=3.1589 Ã…)
pair_coeff 3 3 0.0 0.0          # H-H (type 3, no interaction)

# C60 fullerene parameters
pair_coeff 1 1 0.07 3.4         # C-C (type 1, Îµ=0.07 kcal/mol, Ïƒ=3.4 Ã…)

# C60-water cross interactions
# Tunable parameter (passed from bash script via -var)
variable epsilon_co equal ${EPSILON_CO}
variable epsilon_co equal 0.25
pair_coeff 1 2 ${epsilon_co} 3.2   # C-O (hydrophobicity parameter)
pair_coeff 1 2 0.25 3.2   
pair_coeff 1 3 0.0 0.0             # C-H (no interaction)
pair_coeff 2 3 0.0 0.0             # O-H (no LJ, only Coulombic)

# Bond and angle coefficients
bond_coeff 1 938.0 1.42         # C-C bonds in C60 (bond type 1)
bond_coeff 2 0.0 0.9572         # O-H bonds in water (bond type 2, SHAKE controlled)
angle_coeff 1 0.0 104.52        # H-O-H angle in water (angle type 1, SHAKE controlled)

# ===== SETTINGS =====
neighbor 2.0 bin                 # Increased skin for safety
neigh_modify delay 5 every 1 check yes

# Define groups (CORRECTED)
group carbon type 1        # C60 atoms (type 1)
180 atoms in group carbon
group water type 2 3       # All water atoms (O=type2, H=type3)
5361 atoms in group water
group oxygen type 2        # Water oxygen atoms (type 2)
1787 atoms in group oxygen
group hydrogen type 3      # Water hydrogen atoms (type 3)
3574 atoms in group hydrogen

# Define thermodynamic variables
variable temp equal c_thermo_temp
variable press equal c_thermo_press
variable pe equal pe
variable ke equal ke
variable etotal equal etotal
variable vol equal vol
variable dens equal density

thermo_style custom step temp press vol pe ke etotal density
thermo 1000

# ğŸ”§ CRITICAL FIX #2: Use 2 fs timestep (SHAKE allows this, 2Ã— speedup)
timestep 2.0

# Print system info
print "â•â•â•â•â•â•â•â•â•â•â•â•â•â•â•â•â•â•â•â•â•â•â•â•â•â•â•â•â•â•â•â•â•â•â•â•â•â•â•â•â•â•â•â•â•â•â•â•â•â•â•â•â•â•â•â•â•â•â•â•â•â•â•â•â•â•â•â•â•â•â•â•â•â•â•â•"
WARNING: Detected non-ASCII characters in input. Will try to continue by replacing with ASCII equivalents where known. (src/input.cpp:479)
••••••••••••••••••••••••••••••••••••••••••••••••••••••••••••••••••••••••••••
print "SYSTEM INFORMATION:"
SYSTEM INFORMATION:
print "  Epsilon (O-C): ${epsilon_co} kcal/mol"
  Epsilon (O-C): 0.25 kcal/mol
print "  Random seed:   ${RANDOM_SEED}"
  Random seed:   42
print "  Timestep:      2.0 fs (with SHAKE constraints)"
  Timestep:      2.0 fs (with SHAKE constraints)
print "  PPPM grid:     40Ã—40Ã—40 (LOCKED to prevent artifacts)"
  PPPM grid:     40—40—40 (LOCKED to prevent artifacts)
print "â•â•â•â•â•â•â•â•â•â•â•â•â•â•â•â•â•â•â•â•â•â•â•â•â•â•â•â•â•â•â•â•â•â•â•â•â•â•â•â•â•â•â•â•â•â•â•â•â•â•â•â•â•â•â•â•â•â•â•â•â•â•â•â•â•â•â•â•â•â•â•â•â•â•â•â•"
••••••••••••••••••••••••••••••••••••••••••••••••••••••••••••••••••••••••••••
print ""


#==============================================================================
# STAGE 0: Gentle Minimization (CPU pair style for stability)
#==============================================================================
print "===== STAGE 0: Gentle Minimization (removing any overlaps) ====="
===== STAGE 0: Gentle Minimization (removing any overlaps) =====
print "Using CPU pair style for numerical stability during minimization"
Using CPU pair style for numerical stability during minimization
print ""


# Switch to CPU pair style for minimization (GPU can be unstable)
pair_style lj/cut/tip4p/long 2 3 2 1 0.1546 12.0
kspace_style pppm/tip4p 1.0e-4
kspace_modify mesh 50 50 50
kspace_modify order 5

# Re-apply pair coefficients with current epsilon_co
pair_coeff 1 1 0.07 3.4            # C-C
pair_coeff 2 2 0.1852 3.1589       # O-O
pair_coeff 3 3 0.0 0.0             # H-H
pair_coeff 1 2 ${epsilon_co} 3.2   # C-O (variable)
pair_coeff 1 2 0.25 3.2   
pair_coeff 1 3 0.0 0.0             # C-H
pair_coeff 2 3 0.0 0.0             # O-H

# Very gentle minimization (just remove bad contacts, if any)
# Using very relaxed tolerances and limited steps for speed
thermo 100
minimize 0.0 10.0 10 100  # Ultra-gentle: etol=0, ftol=10, max 10 eval, max 100 iter

CITE-CITE-CITE-CITE-CITE-CITE-CITE-CITE-CITE-CITE-CITE-CITE-CITE

Your simulation uses code contributions which should be cited:

- GPU package (short-range, long-range and three-body potentials): doi:10.1016/j.cpc.2010.12.021, doi:10.1016/j.cpc.2011.10.012, doi:10.1016/j.cpc.2013.08.002, doi:10.1016/j.commatsci.2014.10.068, doi:10.1016/j.cpc.2016.10.020, doi:10.3233/APC200086

@Article{Brown11,
 author = {W. M. Brown and P. Wang and S. J. Plimpton and A. N. Tharrington},
 title = {Implementing Molecular Dynamics on Hybrid High Performance Computers---Short Range Forces},
 journal = {Comput.\ Phys.\ Commun.},
 year =    2011,
 volume =  182,
 pages =   {898--911},
 doi =     {10.1016/j.cpc.2010.12.021}
}

@Article{Brown12,
 author = {W. M. Brown and A. Kohlmeyer and S. J. Plimpton and A. N. Tharrington},
 title = {Implementing Molecular Dynamics on Hybrid High Performance Computers - Particle-Particle Particle-Mesh},
 journal = {Comput.\ Phys.\ Commun.},
 year =    2012,
 volume =  183,
 doi =     {10.1016/j.cpc.2011.10.012},
 pages =   {449--459}
}

@Article{Brown13,
 author = {W. M. Brown and Y. Masako},
 title = {Implementing Molecular Dynamics on Hybrid High Performance Computers---Three-Body Potentials},
 journal = {Comput.\ Phys.\ Commun.},
 year =    2013,
 volume =  184,
 pages =   {2785--2793},
 doi =     {10.1016/j.cpc.2013.08.002},
}

@Article{Trung15,
 author = {T. D. Nguyen and S. J. Plimpton},
 title = {Accelerating Dissipative Particle Dynamics Simulations for Soft Matter Systems},
 journal = {Comput.\ Mater.\ Sci.},
 year =    2015,
 doi =     {10.1016/j.commatsci.2014.10.068},
 volume =  100,
 pages =   {173--180}
}

@Article{Trung17,
 author = {T. D. Nguyen},
 title = {{GPU}-Accelerated {T}ersoff Potentials for Massively Parallel
    Molecular Dynamics Simulations},
 journal = {Comput.\ Phys.\ Commun.},
 year =    2017,
 doi =     {10.1016/j.cpc.2016.10.020},
 volume =  212,
 pages =   {113--122}
}

@inproceedings{Nikolskiy19,
 author = {V. Nikolskiy and V. Stegailov},
 title = {{GPU} Acceleration of Four-Site Water Models in {LAMMPS}},
 booktitle = {Proceedings of the International Conference on Parallel
    Computing (ParCo 2019), Prague, Czech Republic},
 doi =     {10.3233/APC200086},
 year =    2019
}

CITE-CITE-CITE-CITE-CITE-CITE-CITE-CITE-CITE-CITE-CITE-CITE-CITE

Switching to 'neigh_modify every 1 delay 0 check yes' setting during minimization
PPPM initialization ...
  extracting TIP4P info from pair style
  using 12-bit tables for long-range coulomb
  G vector (1/distance) = 0.28512662
  grid = 50 50 50
  stencil order = 5
  estimated absolute RMS force accuracy = 0.00038934319
  estimated relative force accuracy = 1.1724955e-06
  using double precision FFTW3
  3d grid and FFT values/proc = 185193 125000
Generated 0 of 3 mixed pair_coeff terms from geometric mixing rule
Per MPI rank memory allocation (min/avg/max) = 50.33 | 50.33 | 50.33 Mbytes
   Step          Temp          Press          Volume         PotEng         KinEng         TotEng        Density    
         0   36.495381      27239.395      64000         -23225.52       602.67332     -22622.846      0.89136653   
        10   36.495381     -19470.432      64000         -142267.08      602.67332     -141664.4       0.89136653   
Loop time of 0.136524 on 4 procs for 10 steps with 5541 atoms

398.8% CPU use with 1 MPI tasks x 4 OpenMP threads

Minimization stats:
  Stopping criterion = max iterations
  Energy initial, next-to-last, final = 
      -23225.519813762  -124493.063104627  -142267.077263323
  Force two-norm initial, final = 2152.6528 6846.665
  Force max component initial, final = 49.700767 358.91381
  Final line search alpha, max atom move = 0.00038761282 0.1391196
  Iterations, force evaluations = 10 10

MPI task timing breakdown:
Section |  min time  |  avg time  |  max time  |%varavg| %total
---------------------------------------------------------------
Pair    | 0.0037297  | 0.0037297  | 0.0037297  |   0.0 |  2.73
Bond    | 0.0016559  | 0.0016559  | 0.0016559  |   0.0 |  1.21
Kspace  | 0.12641    | 0.12641    | 0.12641    |   0.0 | 92.59
Neigh   | 0          | 0          | 0          |   0.0 |  0.00
Comm    | 0.0021651  | 0.0021651  | 0.0021651  |   0.0 |  1.59
Output  | 7.2367e-05 | 7.2367e-05 | 7.2367e-05 |   0.0 |  0.05
Modify  | 7.37e-07   | 7.37e-07   | 7.37e-07   |   0.0 |  0.00
Other   |            | 0.002493   |            |       |  1.83

Nlocal:           5541 ave        5541 max        5541 min
Histogram: 1 0 0 0 0 0 0 0 0 0
Nghost:          33839 ave       33839 max       33839 min
Histogram: 1 0 0 0 0 0 0 0 0 0
Neighs:              0 ave           0 max           0 min
Histogram: 1 0 0 0 0 0 0 0 0 0

Total # of neighbors = 0
Ave neighs/atom = 0
Ave special neighs/atom = 2.4872767
Neighbor list builds = 0
Dangerous builds = 0

variable pe_minimized equal pe
print "Minimization complete. PE = ${pe_minimized} kcal/mol (was -23,217)"
Minimization complete. PE = -142267.077263323 kcal/mol (was -23,217)

# Switch back to GPU pair style for MD
pair_style lj/cut/tip4p/long/gpu 2 3 2 1 0.1546 12.0
kspace_style pppm/tip4p 1.0e-4
kspace_modify mesh 50 50 50
kspace_modify order 5

# Re-apply pair coefficients again after style change
pair_coeff 1 1 0.07 3.4            # C-C
pair_coeff 2 2 0.1852 3.1589       # O-O
pair_coeff 3 3 0.0 0.0             # H-H
pair_coeff 1 2 ${epsilon_co} 3.2   # C-O (variable)
pair_coeff 1 2 0.25 3.2   
pair_coeff 1 3 0.0 0.0             # C-H
pair_coeff 2 3 0.0 0.0             # O-H

print ""


#==============================================================================
# STAGE 0.5: Apply SHAKE Constraints
#==============================================================================
thermo 1000

# ğŸ”§ CRITICAL FIX #3: Apply SHAKE with proper verification
print "Applying SHAKE constraints..."
Applying SHAKE constraints...
# CORRECTED: bond type 2 = O-H, angle type 1 = H-O-H
fix myshk water shake 0.0001 20 0 b 2 a 1
Finding SHAKE clusters ...
       0 = # of size 2 clusters
       0 = # of size 3 clusters
       0 = # of size 4 clusters
    1787 = # of frozen angles
  find clusters CPU = 0.001 seconds

# Verify SHAKE is working
print "SHAKE constraint verification:"
SHAKE constraint verification:
print "  Expected: ~2000 water molecules with constrained bonds and angles"
  Expected: ~2000 water molecules with constrained bonds and angles
print "  Check minimization output for cluster sizes"
  Check minimization output for cluster sizes
print ""

print "GPU Acceleration Status:"
GPU Acceleration Status:
print "  âœ“ Pair forces (LJ):      GPU (lj/cut/tip4p/long/gpu)"
  œ“ Pair forces (LJ):      GPU (lj/cut/tip4p/long/gpu)
print "  âœ“ Coulomb (PPPM):        CPU (pppm/tip4p) - GPU suffix not available"
  œ“ Coulomb (PPPM):        CPU (pppm/tip4p) - GPU suffix not available
print "  âœ“ Neighbor lists:        GPU (neigh yes)"
  œ“ Neighbor lists:        GPU (neigh yes)
print "  â†’ Expected speedup:      2-3Ã— vs CPU-only version (pair forces only)"
  †’ Expected speedup:      2-3— vs CPU-only version (pair forces only)

#==============================================================================
# STAGE 1: NVT Thermalization (50 ps)
#==============================================================================
print ""

print "===== STAGE 1: NVT Thermalization (50 ps, GPU) ====="
===== STAGE 1: NVT Thermalization (50 ps, GPU) =====
print "Objective: Reach 300K while maintaining initial density"
Objective: Reach 300K while maintaining initial density

velocity all create 300.0 ${RANDOM_SEED} dist gaussian loop geom
velocity all create 300.0 42 dist gaussian loop geom

fix mynvt all nvt temp 300.0 300.0 100.0

# Trajectory output (every 4 ps) - using wrapped coordinates for proper visualization
dump nvt_traj all custom 2000 nvt_thermalization.lammpstrj id type xu yu zu
dump_modify nvt_traj sort id

dump nvt_dcd all dcd 2000 nvt_thermalization.dcd
dump_modify nvt_dcd unwrap yes

run 25000  # 50 ps at 2 fs timestep
PPPM initialization ...
  extracting TIP4P info from pair style
  using 12-bit tables for long-range coulomb
  G vector (1/distance) = 0.28512662
  grid = 50 50 50
  stencil order = 5
  estimated absolute RMS force accuracy = 0.00038934319
  estimated relative force accuracy = 1.1724955e-06
  using double precision FFTW3
  3d grid and FFT values/proc = 185193 125000
Generated 0 of 3 mixed pair_coeff terms from geometric mixing rule
Per MPI rank memory allocation (min/avg/max) = 49.79 | 49.79 | 49.79 Mbytes
   Step          Temp          Press          Volume         PotEng         KinEng         TotEng        Density    
        10   300           -111505.04      64000         -142267.08      3356.094      -138910.98      0.89136653   
      1000   305.93854     -178.3861       64000         -19963.781      3422.5284     -16541.252      0.89136653   
      2000   309.91145     -542.79224      64000         -20075.003      3466.9732     -16608.03       0.89136653   
      3000   301.90869     -563.5605       64000         -20034.508      3377.4466     -16657.061      0.89136653   
      4000   296.78064     -635.46831      64000         -20244.854      3320.0791     -16924.775      0.89136653   
      5000   302.04914     -1544.2662      64000         -20210.438      3379.0178     -16831.42       0.89136653   
      6000   304.15621     -1363.7941      64000         -20107.095      3402.5895     -16704.505      0.89136653   
      7000   306.47652     -1532.2551      64000         -20122.051      3428.5467     -16693.505      0.89136653   
      8000   298.52734     -1340.4116      64000         -20075.691      3339.6194     -16736.071      0.89136653   
      9000   295.23411     -1109.2824      64000         -20165.878      3302.7781     -16863.1        0.89136653   
     10000   297.58097     -1434.2563      64000         -20112.276      3329.0324     -16783.243      0.89136653   
     11000   300.31461     -1866.4703      64000         -20137.191      3359.6136     -16777.578      0.89136653   
     12000   304.10923     -1848.1419      64000         -20129.938      3402.0639     -16727.874      0.89136653   
     13000   296.647       -1458.5542      64000         -20158.309      3318.5841     -16839.725      0.89136653   
     14000   300.91474     -1469.947       64000         -20344.215      3366.3272     -16977.888      0.89136653   
     15000   299.95054     -1033.5333      64000         -20192.168      3355.5408     -16836.627      0.89136653   
     16000   301.87773     -1221.3046      64000         -20185.107      3377.1002     -16808.006      0.89136653   
     17000   292.73476     -1518.1295      64000         -20071.754      3274.8179     -16796.936      0.89136653   
     18000   299.11005     -1225.0065      64000         -20259.288      3346.1382     -16913.15       0.89136653   
     19000   294.19714     -1300.1536      64000         -20161.027      3291.1776     -16869.849      0.89136653   
     20000   296.47482     -1015.3994      64000         -20200.114      3316.6579     -16883.456      0.89136653   
     21000   302.09064     -1227.339       64000         -20319.113      3379.482      -16939.631      0.89136653   
     22000   294.63883     -996.44728      64000         -20287.84       3296.1188     -16991.721      0.89136653   
     23000   296.30939     -1745.0634      64000         -20092.921      3314.8073     -16778.114      0.89136653   
     24000   296.65978     -1081.3134      64000         -20066.79       3318.727      -16748.063      0.89136653   
     25000   296.47335     -664.43883      64000         -20040.338      3316.6415     -16723.696      0.89136653   
     25010   302.52706     -288.05711      64000         -20092.429      3384.3642     -16708.065      0.89136653   
Loop time of 351.138 on 4 procs for 25000 steps with 5541 atoms

Performance: 12.303 ns/day, 1.951 hours/ns, 71.197 timesteps/s, 394.503 katom-step/s
398.6% CPU use with 1 MPI tasks x 4 OpenMP threads

MPI task timing breakdown:
Section |  min time  |  avg time  |  max time  |%varavg| %total
---------------------------------------------------------------
Pair    | 13.935     | 13.935     | 13.935     |   0.0 |  3.97
Bond    | 0.11957    | 0.11957    | 0.11957    |   0.0 |  0.03
Kspace  | 313.88     | 313.88     | 313.88     |   0.0 | 89.39
Neigh   | 0.041221   | 0.041221   | 0.041221   |   0.0 |  0.01
Comm    | 6.8029     | 6.8029     | 6.8029     |   0.0 |  1.94
Output  | 0.091967   | 0.091967   | 0.091967   |   0.0 |  0.03
Modify  | 14.261     | 14.261     | 14.261     |   0.0 |  4.06
Other   |            | 2.003      |            |       |  0.57

Nlocal:           5541 ave        5541 max        5541 min
Histogram: 1 0 0 0 0 0 0 0 0 0
Nghost:          33201 ave       33201 max       33201 min
Histogram: 1 0 0 0 0 0 0 0 0 0
Neighs:              0 ave           0 max           0 min
Histogram: 1 0 0 0 0 0 0 0 0 0

Total # of neighbors = 0
Ave neighs/atom = 0
Ave special neighs/atom = 2.4872767
Neighbor list builds = 2332
Dangerous builds = 1

unfix mynvt
undump nvt_traj
undump nvt_dcd

write_restart nvt_complete.restart
System init for write_restart ...
PPPM initialization ...
  extracting TIP4P info from pair style
  using 12-bit tables for long-range coulomb
  G vector (1/distance) = 0.28512662
  grid = 50 50 50
  stencil order = 5
  estimated absolute RMS force accuracy = 0.00038934319
  estimated relative force accuracy = 1.1724955e-06
  using double precision FFTW3
  3d grid and FFT values/proc = 185193 125000
Generated 0 of 3 mixed pair_coeff terms from geometric mixing rule

# Check temperature
variable current_temp equal temp
print "NVT complete. Temperature: ${current_temp} K (target: 300K)"
NVT complete. Temperature: 302.527061387086 K (target: 300K)

# ğŸ”§ CHECKPOINT #1: Verify we're still at reasonable density
variable current_dens equal density
if "${current_dens} < 0.7" then     "print 'ERROR: Density dropped during NVT! Current: ${current_dens} g/cmÂ³'"     "print 'This should not happen - check initial configuration'"     "quit 1"

print "âœ“ Checkpoint 1 PASSED: Density = ${current_dens} g/cmÂ³"
œ“ Checkpoint 1 PASSED: Density = 0.891366525253077 g/cm³

#==============================================================================
# STAGE 1.5: Pre-Equilibration at 100 atm (50 ps) - NEW STAGE
#==============================================================================
print ""

print "===== STAGE 1.5: Pre-Equilibration at 100 atm (50 ps, GPU) ====="
===== STAGE 1.5: Pre-Equilibration at 100 atm (50 ps, GPU) =====
print "ğŸ”§ CRITICAL FIX: Reducing initial pressure before main ramp"
Ÿ”§ CRITICAL FIX: Reducing initial pressure before main ramp
print "Objective: Equilibrate volume at moderate pressure to prevent PPPM artifacts"
Objective: Equilibrate volume at moderate pressure to prevent PPPM artifacts
print ""

print "Why this is needed:"
Why this is needed:
print "  - NVT creates high pressure (~800 atm) in fixed volume"
  - NVT creates high pressure (~800 atm) in fixed volume
print "  - Direct ramp from 800â†’1 atm caused 169k atm spike (PPPM grid change)"
  - Direct ramp from 800†’1 atm caused 169k atm spike (PPPM grid change)
print "  - Pre-equilibrating at 100 atm reduces initial pressure safely"
  - Pre-equilibrating at 100 atm reduces initial pressure safely
print "  - Main ramp (100â†’1 atm) will then cause only ~5% box expansion"
  - Main ramp (100†’1 atm) will then cause only ~5% box expansion

# Higher barostat damping for this stage (more conservative)
fix mynpt_pre all npt temp 300.0 300.0 100.0 iso 100.0 100.0 5000.0

dump pre_dcd all dcd 2000 pre_equilibration.dcd
dump_modify pre_dcd unwrap yes

run 25000  # 50 ps at 2 fs timestep
PPPM initialization ...
  extracting TIP4P info from pair style
  using 12-bit tables for long-range coulomb
  G vector (1/distance) = 0.28512662
  grid = 50 50 50
  stencil order = 5
  estimated absolute RMS force accuracy = 0.00038934319
  estimated relative force accuracy = 1.1724955e-06
  using double precision FFTW3
  3d grid and FFT values/proc = 185193 125000
Generated 0 of 3 mixed pair_coeff terms from geometric mixing rule
Per MPI rank memory allocation (min/avg/max) = 49.79 | 49.79 | 49.79 Mbytes
   Step          Temp          Press          Volume         PotEng         KinEng         TotEng        Density    
     25010   302.52706     -287.50705      64000         -20092.429      3384.3642     -16708.065      0.89136653   
     26000   301.8474      -230.72829      61396.661     -20289.435      3376.7609     -16912.674      0.92916221   
     27000   299.73329     -543.03648      59196.295     -20510.794      3353.1103     -17157.684      0.9636998    
     28000   296.66173     -941.5479       57824.269     -20517.575      3318.7489     -17198.826      0.986566     
     29000   299.71049      175.75786      56934.63      -20492.561      3352.8553     -17139.706      1.0019817    
     30000   300.25534      243.36072      55884.16      -20522.965      3358.9505     -17164.014      1.0208162    
     31000   295.27743      567.34435      55056.11      -20689.376      3303.2628     -17386.113      1.0361694    
     32000   310.50415      379.21508      54733.981     -20527.723      3473.6038     -17054.119      1.0422676    
     33000   298.68043     -46.69237       54944.87      -20596.376      3341.3321     -17255.044      1.0382672    
     34000   301.53649     -430.15718      54800.411     -20532.509      3373.2827     -17159.226      1.0410042    
     35000   296.92135      283.00704      54154.689     -20559.562      3321.6532     -17237.909      1.0534168    
     36000   300.93987      440.16705      54350.446     -20645.411      3366.6084     -17278.802      1.0496226    
     37000   296.6563       344.99527      54437.129     -20518.018      3318.6881     -17199.33       1.0479513    
     38000   302.86487      602.36307      54709.534     -20571.772      3388.1433     -17183.629      1.0427334    
     39000   304.98697      87.796723      54933.497     -20580.276      3411.8832     -17168.393      1.0384822    
     40000   297.21134      368.37225      54353.583     -20569.384      3324.8973     -17244.487      1.049562     
     41000   295.42518      403.7634       54753.422     -20554.953      3304.9156     -17250.038      1.0418976    
     42000   295.71412     -180.5419       55117.701     -20648.311      3308.148      -17340.163      1.0350116    
     43000   305.48861      677.27516      54965.132     -20604.248      3417.495      -17186.753      1.0378845    
     44000   294.52413      256.11682      54263.989     -20674.932      3294.8355     -17380.097      1.0512949    
     45000   305.77955     -492.99361      54601.231     -20602.248      3420.7497     -17181.499      1.0448017    
     46000   293.89572      286.04024      54933.106     -20586.41       3287.8056     -17298.604      1.0384896    
     47000   308.73967     -124.47356      54892.964     -20582.846      3453.8645     -17128.981      1.039249     
     48000   299.83508      421.2254       54768.171     -20524.942      3354.2491     -17170.693      1.041617     
     49000   301.30365      742.04127      54809.541     -20634.561      3370.678      -17263.883      1.0408308    
     50000   300.32657      298.56264      55011.081     -20658.153      3359.7474     -17298.405      1.0370176    
     50010   293.88369      230.83921      55007.477     -20568.25       3287.671      -17280.579      1.0370855    
Loop time of 697.699 on 4 procs for 25000 steps with 5541 atoms

Performance: 6.192 ns/day, 3.876 hours/ns, 35.832 timesteps/s, 198.545 katom-step/s
307.8% CPU use with 1 MPI tasks x 4 OpenMP threads

MPI task timing breakdown:
Section |  min time  |  avg time  |  max time  |%varavg| %total
---------------------------------------------------------------
Pair    | 16.181     | 16.181     | 16.181     |   0.0 |  2.32
Bond    | 0.23654    | 0.23654    | 0.23654    |   0.0 |  0.03
Kspace  | 316.61     | 316.61     | 316.61     |   0.0 | 45.38
Neigh   | 0.040945   | 0.040945   | 0.040945   |   0.0 |  0.01
Comm    | 7.474      | 7.474      | 7.474      |   0.0 |  1.07
Output  | 0.012985   | 0.012985   | 0.012985   |   0.0 |  0.00
Modify  | 354.46     | 354.46     | 354.46     |   0.0 | 50.80
Other   |            | 2.682      |            |       |  0.38

Nlocal:           5541 ave        5541 max        5541 min
Histogram: 1 0 0 0 0 0 0 0 0 0
Nghost:          35339 ave       35339 max       35339 min
Histogram: 1 0 0 0 0 0 0 0 0 0
Neighs:              0 ave           0 max           0 min
Histogram: 1 0 0 0 0 0 0 0 0 0

Total # of neighbors = 0
Ave neighs/atom = 0
Ave special neighs/atom = 2.4872767
Neighbor list builds = 2327
Dangerous builds = 0

unfix mynpt_pre
undump pre_dcd

write_restart pre_equilibration_complete.restart
System init for write_restart ...
PPPM initialization ...
  extracting TIP4P info from pair style
  using 12-bit tables for long-range coulomb
  G vector (1/distance) = 0.28808765
  grid = 50 50 50
  stencil order = 5
  estimated absolute RMS force accuracy = 0.00033401016
  estimated relative force accuracy = 1.0058617e-06
  using double precision FFTW3
  3d grid and FFT values/proc = 205379 125000
Generated 0 of 3 mixed pair_coeff terms from geometric mixing rule
write_data pre_equilibration_complete.data
System init for write_data ...
PPPM initialization ...
  extracting TIP4P info from pair style
  using 12-bit tables for long-range coulomb
  G vector (1/distance) = 0.28808765
  grid = 50 50 50
  stencil order = 5
  estimated absolute RMS force accuracy = 0.00033401016
  estimated relative force accuracy = 1.0058617e-06
  using double precision FFTW3
  3d grid and FFT values/proc = 205379 125000
Generated 0 of 3 mixed pair_coeff terms from geometric mixing rule
WARNING: Not all mixed pair coeffs generated from mixing. Use write_data with 'pair ij' option to store all pair coeffs. (src/write_data.cpp:364)

# ğŸ”§ CHECKPOINT #2: Verify still in liquid phase after pre-equilibration
variable current_dens equal density
variable current_press equal press
variable current_vol equal vol

print ""

print "Pre-equilibration complete:"
Pre-equilibration complete:
print "  Density:  ${current_dens} g/cmÂ³"
  Density:  1.0370855137496 g/cm³
print "  Pressure: ${current_press} atm"
  Pressure: 230.839209547912 atm
print "  Volume:   ${current_vol} Ã…Â³"
  Volume:   55007.4770690228 …³

if "${current_dens} < 0.85" then     "print 'ERROR: Density dropped to ${current_dens} during pre-equilibration!'"     "print 'Expected: Still ~0.95 g/cmÂ³ (may increase slightly due to compression)'"     "print 'System failed before main pressure ramp even started!'"     "quit 1"

print "âœ“ Checkpoint 2 PASSED: System stable at 100 atm"
œ“ Checkpoint 2 PASSED: System stable at 100 atm

#==============================================================================
# STAGE 2: GENTLE Pressure Ramp (100 â†’ 1 atm, 100 ps) - CORRECTED
#==============================================================================
print ""

print "===== STAGE 2: Gentle Pressure Ramp (100 ps, GPU) ====="
===== STAGE 2: Gentle Pressure Ramp (100 ps, GPU) =====
print "Ramping pressure from 100 atm â†’ 1 atm with drag damping"
Ramping pressure from 100 atm †’ 1 atm with drag damping
print ""

print "COMPARISON TO FAILED VERSION:"
COMPARISON TO FAILED VERSION:
print "  OLD: 50 atm â†’ 1 atm, no pre-equil â†’ 169,712 atm spike at step 51k"
  OLD: 50 atm †’ 1 atm, no pre-equil †’ 169,712 atm spike at step 51k
print "  NEW: 100 atm â†’ 1 atm, with pre-equil â†’ should be smooth (< 500 atm max)"
  NEW: 100 atm †’ 1 atm, with pre-equil †’ should be smooth (< 500 atm max)

# ğŸ”§ CRITICAL FIX #4: Add drag damping to prevent explosive expansion
fix mynpt_ramp all npt temp 300.0 300.0 100.0 iso 100.0 1.0 2000.0 drag 2.0

dump ramp_dcd all dcd 1000 pressure_ramp.dcd
dump_modify ramp_dcd unwrap yes

# Monitor closely during ramp (every 500 steps = 1 ps)
thermo 500

run 50000  # 100 ps at 2 fs timestep
PPPM initialization ...
  extracting TIP4P info from pair style
  using 12-bit tables for long-range coulomb
  G vector (1/distance) = 0.28808765
  grid = 50 50 50
  stencil order = 5
  estimated absolute RMS force accuracy = 0.00033401016
  estimated relative force accuracy = 1.0058617e-06
  using double precision FFTW3
  3d grid and FFT values/proc = 205379 125000
Generated 0 of 3 mixed pair_coeff terms from geometric mixing rule
Per MPI rank memory allocation (min/avg/max) = 50.63 | 50.63 | 50.63 Mbytes
   Step          Temp          Press          Volume         PotEng         KinEng         TotEng        Density    
     50010   293.88369      227.85518      55007.477     -20568.184      3287.671      -17280.513      1.0370855    
     50500   292.11551     -114.32119      54955.386     -20488.312      3267.8904     -17220.421      1.0380685    
     51000   299.3368       504.73004      54825.828     -20569.074      3348.6748     -17220.399      1.0405216    
     51500   297.41381      232.20783      54949.41      -20491.076      3327.1624     -17163.914      1.0381814    
     52000   304.89409     -455.2724       55209.454     -20561.086      3410.8442     -17150.241      1.0332915    
     52500   296.04231     -1435.8723      54941.643     -20527.93       3311.8194     -17216.111      1.0383282    
     53000   297.88061     -114.4175       54739.281     -20546.906      3332.3845     -17214.522      1.0421667    
     53500   302.43275     -140.07311      54592.887     -20575.781      3383.3092     -17192.472      1.0449614    
     54000   297.87392      1082.0067      54485.258     -20544.701      3332.3096     -17212.392      1.0470256    
     54500   297.052        211.04128      54762.306     -20521.146      3323.1148     -17198.031      1.0417286    
     55000   294.73667      39.58406       55012.996     -20470.305      3297.2132     -17173.092      1.0369815    
     55500   304.89878     -71.869298      54944.125     -20552.945      3410.8966     -17142.049      1.0382813    
     56000   299.38988      93.487255      54618.025     -20546.867      3349.2687     -17197.598      1.0444804    
     56500   304.17847      704.70176      54546.885     -20585.615      3402.8385     -17182.777      1.0458426    
     57000   303.25441      1249.8511      54375.796     -20582.819      3392.501      -17190.318      1.0491333    
     57500   299.07358     -497.78428      54808.971     -20567.788      3345.7302     -17222.058      1.0408416    
     58000   301.61954     -149.16148      54593.995     -20603.887      3374.2118     -17229.675      1.0449402    
     58500   302.94471     -949.59656      54761.716     -20641.815      3389.0365     -17252.779      1.0417398    
     59000   300.12056     -317.38282      54912.653     -20582.161      3357.4427     -17224.718      1.0388764    
     59500   294.77143      75.681465      55102.366     -20523.742      3297.6021     -17226.14       1.0352996    
     60000   303.34663      40.934785      54743.84      -20648.908      3393.5327     -17255.375      1.0420799    
     60500   304.77908      469.68772      54390.706     -20693.284      3409.5575     -17283.727      1.0488457    
     61000   303.4031      -312.09341      54873.192     -20665.532      3394.1645     -17271.368      1.0396234    
     61500   300.42837     -53.754489      54766.633     -20551.602      3360.8862     -17190.715      1.0416462    
     62000   305.74134     -513.21392      54948.192     -20599.906      3420.3223     -17179.583      1.0382045    
     62500   301.17907      335.6397       55071.878     -20557.902      3369.2843     -17188.618      1.0358727    
     63000   304.30945      588.1486       55128.044     -20637.583      3404.3038     -17233.279      1.0348174    
     63500   300.00016     -361.93653      55217.859     -20589.732      3356.0958     -17233.636      1.0331342    
     64000   307.91174     -729.56343      55028.262     -20644.936      3444.6025     -17200.334      1.0366938    
     64500   300.47904      176.88122      54908.745     -20533.464      3361.453      -17172.011      1.0389503    
     65000   298.15125     -406.5373       54822.956     -20570.813      3335.4121     -17235.401      1.0405761    
     65500   298.92556     -290.74054      54935.402     -20570.469      3344.0743     -17226.394      1.0384462    
     66000   293.3448      -886.84393      54841.147     -20477.105      3281.6425     -17195.463      1.0402309    
     66500   302.49936      96.158643      54548.403     -20613.824      3384.0543     -17229.769      1.0458135    
     67000   298.74792      62.413292      54694.439     -20609.584      3342.087      -17267.497      1.0430212    
     67500   302.47005      401.38592      54701.531     -20602.061      3383.7264     -17218.335      1.0428859    
     68000   299.48848      416.44779      54781.015     -20538.694      3350.3717     -17188.322      1.0413728    
     68500   300.23627     -224.90484      54779.703     -20593.166      3358.7371     -17234.428      1.0413977    
     69000   300.67338      163.36195      54829.323     -20671.646      3363.6271     -17308.019      1.0404553    
     69500   301.31731     -593.71756      54749.048     -20667.239      3370.8308     -17296.408      1.0419808    
     70000   298.44488      279.54075      54690.835     -20563.94       3338.697      -17225.243      1.0430899    
     70500   298.17643     -194.03858      54602.006     -20590.503      3335.6938     -17254.809      1.0447868    
     71000   305.24361      479.5841       55001.239     -20643.566      3414.7542     -17228.811      1.0372031    
     71500   296.20189      213.37534      54831.149     -20539.099      3313.6046     -17225.494      1.0404206    
     72000   299.12713      29.376519      54973.507     -20568.829      3346.3292     -17222.5        1.0377264    
     72500   300.32908     -17.507747      54786.186     -20637.76       3359.7754     -17277.985      1.0412745    
     73000   297.85298      414.36648      55053.922     -20584.172      3332.0754     -17252.096      1.0362106    
     73500   298.70803      1076.7346      54936.25      -20574.698      3341.6408     -17233.057      1.0384301    
     74000   300.87904      25.323871      55087.768     -20588.271      3365.9278     -17222.343      1.0355739    
     74500   298.15586     -80.747762      55191.014     -20531.491      3335.4637     -17196.027      1.0336367    
     75000   296.31904      675.46957      54799.703     -20572.477      3314.9153     -17257.562      1.0410176    
     75500   296.73534     -35.800392      54760.294     -20579.005      3319.5723     -17259.432      1.0417668    
     76000   302.63656      1.0960775      55044.251     -20607.366      3385.5892     -17221.776      1.0363927    
     76500   300.27841      67.390768      55144.55      -20624.294      3359.2086     -17265.085      1.0345076    
     77000   300.73013     -1151.6603      55001.928     -20581.562      3364.262      -17217.3        1.0371901    
     77500   302.85897      225.36769      54736.876     -20595.765      3388.0773     -17207.688      1.0422125    
     78000   296.98986     -356.18809      54874.56      -20562.719      3322.4197     -17240.3        1.0395975    
     78500   302.54681      1031.8643      54879.314     -20563.439      3384.5852     -17178.854      1.0395075    
     79000   299.02762      421.72975      54769.811     -20529.676      3345.2161     -17184.46       1.0415858    
     79500   302.86684      236.82498      54537.102     -20600.536      3388.1653     -17212.371      1.0460302    
     80000   296.37699     -73.508902      54698.577     -20468.357      3315.5635     -17152.793      1.0429423    
     80500   300.59919      120.3934       54592.718     -20546.145      3362.7972     -17183.348      1.0449646    
     81000   299.58279     -503.3751       54990.848     -20536.65       3351.4267     -17185.223      1.0373991    
     81500   302.93457      145.62719      54858.454     -20628.25       3388.923      -17239.327      1.0399028    
     82000   298.79166      274.97015      55059.364     -20591.557      3342.5763     -17248.981      1.0361082    
     82500   304.98011     -338.83906      55072.189     -20643.126      3411.8065     -17231.32       1.0358669    
     83000   299.56179     -488.44732      55453.302     -20626.519      3351.1918     -17275.327      1.0287477    
     83500   301.00149      946.11595      54910.898     -20640.479      3367.2977     -17273.181      1.0389096    
     84000   298.66396      792.28602      54829.889     -20595.176      3341.1478     -17254.028      1.0404445    
     84500   298.52853      398.97456      54458.279     -20542.113      3339.6327     -17202.48       1.0475443    
     85000   297.68228      79.967652      54691.687     -20531.758      3330.1657     -17201.592      1.0430736    
     85500   300.36737      229.89768      54509.645     -20627.459      3360.2038     -17267.255      1.0465571    
     86000   302.89069      524.53082      54499.266     -20600.267      3388.4321     -17211.835      1.0467564    
     86500   298.05866     -436.86873      54650.812     -20535.893      3334.3763     -17201.517      1.0438538    
     87000   294.11936      23.537074      54528.196     -20493.524      3290.3075     -17203.216      1.0462011    
     87500   301.1551       561.58701      54863.504     -20585.954      3369.0161     -17216.938      1.039807     
     88000   297.80318      417.22311      54911.921     -20576.782      3331.5182     -17245.264      1.0388902    
     88500   299.90712      1297.2202      54699.885     -20538.85       3355.0549     -17183.795      1.0429173    
     89000   297.20153     -4.1779675      55077.755     -20523.061      3324.7876     -17198.274      1.0357622    
     89500   298.69752      802.12354      55091.458     -20545.458      3341.5232     -17203.934      1.0355046    
     90000   297.23165     -330.27343      54830.882     -20534.904      3325.1246     -17209.78       1.0404257    
     90500   305.69739     -37.625236      54710.14      -20607.183      3419.8306     -17187.353      1.0427218    
     91000   296.59523     -617.91754      54804.96      -20585.968      3318.005      -17267.963      1.0409178    
     91500   300.50057      85.098451      54972.506     -20610.558      3361.6939     -17248.864      1.0377453    
     92000   299.06572     -527.1673       55109.396     -20541.785      3345.6422     -17196.143      1.0351675    
     92500   298.12997      31.041112      55170.101     -20535.631      3335.1741     -17200.457      1.0340285    
     93000   299.93007     -139.8825       55120.463     -20542.149      3355.3118     -17186.837      1.0349597    
     93500   301.083       -359.13295      54652.31      -20520.465      3368.2096     -17152.255      1.0438252    
     94000   300.29036     -326.22513      55233.742     -20581.762      3359.3423     -17222.42       1.0328371    
     94500   294.41269      0.94606525     54725.893     -20514.875      3293.5889     -17221.286      1.0424217    
     95000   294.32623      87.67046       54586.393     -20534.584      3292.6217     -17241.962      1.0450857    
     95500   298.57215     -548.52405      54525.703     -20542.996      3340.1207     -17202.875      1.0462489    
     96000   296.26873      274.40791      54816.766     -20536.326      3314.3523     -17221.973      1.0406936    
     96500   300.86666      9.6219209      54980.417     -20531.535      3365.7894     -17165.745      1.0375959    
     97000   301.17678     -372.70588      54755.353     -20571.51       3369.2587     -17202.251      1.0418608    
     97500   302.26757     -123.24083      55018.379     -20616.683      3381.4613     -17235.222      1.03688      
     98000   299.96646      146.35118      55079.852     -20555.292      3355.7188     -17199.573      1.0357228    
     98500   297.48805     -3.4205445      54639.926     -20577.706      3327.9929     -17249.713      1.0440618    
     99000   298.66542      343.51384      54913.267     -20602.282      3341.1641     -17261.117      1.0388647    
     99500   294.01109     -60.235588      54818.067     -20569.098      3289.0962     -17280.002      1.0406689    
    100000   301.90119      116.33854      54676.06      -20661.618      3377.3626     -17284.255      1.0433718    
    100010   298.56305      372.13334      54664.156     -20625.055      3340.0189     -17285.037      1.043599     
Loop time of 1414.1 on 4 procs for 50000 steps with 5541 atoms

Performance: 6.110 ns/day, 3.928 hours/ns, 35.358 timesteps/s, 195.920 katom-step/s
309.1% CPU use with 1 MPI tasks x 4 OpenMP threads

MPI task timing breakdown:
Section |  min time  |  avg time  |  max time  |%varavg| %total
---------------------------------------------------------------
Pair    | 32.125     | 32.125     | 32.125     |   0.0 |  2.27
Bond    | 0.47193    | 0.47193    | 0.47193    |   0.0 |  0.03
Kspace  | 651.79     | 651.79     | 651.79     |   0.0 | 46.09
Neigh   | 0.082412   | 0.082412   | 0.082412   |   0.0 |  0.01
Comm    | 14.999     | 14.999     | 14.999     |   0.0 |  1.06
Output  | 0.049023   | 0.049023   | 0.049023   |   0.0 |  0.00
Modify  | 709.08     | 709.08     | 709.08     |   0.0 | 50.14
Other   |            | 5.503      |            |       |  0.39

Nlocal:           5541 ave        5541 max        5541 min
Histogram: 1 0 0 0 0 0 0 0 0 0
Nghost:          35431 ave       35431 max       35431 min
Histogram: 1 0 0 0 0 0 0 0 0 0
Neighs:              0 ave           0 max           0 min
Histogram: 1 0 0 0 0 0 0 0 0 0

Total # of neighbors = 0
Ave neighs/atom = 0
Ave special neighs/atom = 2.4872767
Neighbor list builds = 4627
Dangerous builds = 0

thermo 1000  # Return to normal frequency

unfix mynpt_ramp
undump ramp_dcd

write_restart pressure_ramp_complete.restart
System init for write_restart ...
PPPM initialization ...
  extracting TIP4P info from pair style
  using 12-bit tables for long-range coulomb
  G vector (1/distance) = 0.28819811
  grid = 50 50 50
  stencil order = 5
  estimated absolute RMS force accuracy = 0.00033202475
  estimated relative force accuracy = 9.9988268e-07
  using double precision FFTW3
  3d grid and FFT values/proc = 205379 125000
Generated 0 of 3 mixed pair_coeff terms from geometric mixing rule
write_data pressure_ramp_complete.data
System init for write_data ...
PPPM initialization ...
  extracting TIP4P info from pair style
  using 12-bit tables for long-range coulomb
  G vector (1/distance) = 0.28819811
  grid = 50 50 50
  stencil order = 5
  estimated absolute RMS force accuracy = 0.00033202475
  estimated relative force accuracy = 9.9988268e-07
  using double precision FFTW3
  3d grid and FFT values/proc = 205379 125000
Generated 0 of 3 mixed pair_coeff terms from geometric mixing rule
WARNING: Not all mixed pair coeffs generated from mixing. Use write_data with 'pair ij' option to store all pair coeffs. (src/write_data.cpp:364)

# ğŸ”§ CHECKPOINT #3: Critical check after ramp (most likely failure point)
variable current_dens equal density
variable current_press equal press
variable current_vol equal vol
variable current_boxsize equal vol^(1.0/3.0)

print ""

print "Pressure ramp complete:"
Pressure ramp complete:
print "  Density:  ${current_dens} g/cmÂ³"
  Density:  1.04359899073396 g/cm³
print "  Pressure: ${current_press} atm"
  Pressure: 372.13334054738 atm
print "  Volume:   ${current_vol} Ã…Â³"
  Volume:   54664.1556025993 …³
print "  Box size: ${current_boxsize} Ã…"
  Box size: 37.9519604395978 …

if "${current_dens} < 0.75" then     "print ''"     "print 'ğŸ”´ CRITICAL ERROR: Density collapsed to ${current_dens} g/cmÂ³!'"     "print ''"     "print 'This means the PPPM artifact occurred despite fixes.'"     "print 'Check equilibration.log for pressure spike around step 75,000-85,000'"     "print ''"     "print 'If pressure exceeded 10,000 atm during ramp:'"     "print '  â†’ PPPM grid still recalculating (increase mesh size)'"     "print '  â†’ Try mesh 50 50 50 or mesh 60 60 60'"     "print ''"     "print 'If pressure stayed < 1,000 atm but density still dropped:'"     "print '  â†’ Initial configuration may be problematic'"     "print '  â†’ Check initial_system.data for pre-existing issues'"     "print ''"     "quit 1"

print "âœ“ Checkpoint 3 PASSED: Pressure ramp successful, liquid phase maintained"
œ“ Checkpoint 3 PASSED: Pressure ramp successful, liquid phase maintained

#==============================================================================
# STAGE 3: NPT Equilibration (Complete 1000 ps with 2-phase strategy)
#==============================================================================
print ""

print "===== STAGE 3: NPT Equilibration (1000 ps, GPU) ====="
===== STAGE 3: NPT Equilibration (1000 ps, GPU) =====
print "Equilibrating at 300K, 1 atm with improved pressure control"
Equilibrating at 300K, 1 atm with improved pressure control
print ""

print "Strategy:"
Strategy:
print "  Phase 1 (400 ps): Higher damping for gentle pressure equilibration"
  Phase 1 (400 ps): Higher damping for gentle pressure equilibration
print "  Phase 2 (600 ps): Standard damping for final equilibration"
  Phase 2 (600 ps): Standard damping for final equilibration
print ""


# Phase 1: Gentle NPT with stronger pressure damping (400 ps)
print "Phase 1: Gentle pressure equilibration (400 ps, pdamp=5000)..."
Phase 1: Gentle pressure equilibration (400 ps, pdamp=5000)...
# ğŸ”§ CRITICAL: Using npt/gpu instead of npt for FULL GPU acceleration
fix mynpt_gentle all npt/gpu temp 300.0 300.0 100.0 iso 1.0 1.0 5000.0

dump npt_traj all custom 2000 npt_equilibration.lammpstrj id type xu yu zu
dump_modify npt_traj sort id

dump npt_dcd all dcd 2000 npt_equilibration.dcd
dump_modify npt_dcd unwrap yes

# Thermodynamic averaging during NPT
fix thermo_avg_npt all ave/time 100 10 1000 v_epsilon_co v_temp v_press v_pe v_ke v_etotal v_vol v_dens     file npt_equilibration_thermo.dat

run 200000  # 400 ps at 2 fs timestep
PPPM initialization ...
  extracting TIP4P info from pair style
  using 12-bit tables for long-range coulomb
  G vector (1/distance) = 0.28819811
  grid = 50 50 50
  stencil order = 5
  estimated absolute RMS force accuracy = 0.00033202475
  estimated relative force accuracy = 9.9988268e-07
  using double precision FFTW3
  3d grid and FFT values/proc = 205379 125000
Generated 0 of 3 mixed pair_coeff terms from geometric mixing rule
Per MPI rank memory allocation (min/avg/max) = 50.64 | 50.64 | 50.64 Mbytes
   Step          Temp          Press          Volume         PotEng         KinEng         TotEng        Density    
    100010   298.56305      361.13244      54664.156     -20625.066      3340.0189     -17285.048      1.043599     
    101000   299.52714      328.76745      54962.051     -20613.058      3350.8042     -17262.254      1.0379427    
    102000   302.28185     -174.78925      55008.047     -20537.161      3381.621      -17155.54       1.0370748    
    103000   298.48479     -276.02902      54875.911     -20570.046      3339.1434     -17230.902      1.0395719    
    104000   295.92717      102.40926      54673.444     -20709.803      3310.5314     -17399.271      1.0434217    
    105000   295.11477     -130.74946      55277.435     -20647.532      3301.4431     -17346.089      1.0320207    
    106000   296.83583     -237.37759      55491.437     -20670.993      3320.6965     -17350.296      1.0280407    
    107000   298.05442     -104.43782      54591.945     -20633.29       3334.3289     -17298.961      1.0449794    
    108000   302.07228      293.15839      54970.646     -20600.663      3379.2765     -17221.387      1.0377804    
    109000   292.41662     -246.71348      55196.916     -20622.302      3271.2589     -17351.043      1.0335262    
    110000   300.40734     -122.89974      55506.958     -20538.364      3360.6509     -17177.713      1.0277533    
    111000   293.50698     -654.65145      54743.253     -20602.664      3283.4568     -17319.208      1.0420911    
    112000   300.96136      205.72575      54779.79      -20509.951      3366.8487     -17143.103      1.0413961    
    113000   303.21245      441.05018      54736.613     -20630.389      3392.0317     -17238.357      1.0422175    
    114000   295.75531     -211.56654      55120.346     -20517.268      3308.6088     -17208.659      1.0349619    
    115000   296.03159     -323.91191      55396.289     -20650.522      3311.6995     -17338.822      1.0298065    
    116000   296.0809      -536.23597      54955.464     -20463.8        3312.2512     -17151.549      1.0380671    
    117000   295.08942     -719.78556      54857.223     -20661.546      3301.1594     -17360.386      1.0399261    
    118000   292.64113      177.66757      55333.133     -20556.555      3273.7706     -17282.785      1.0309819    
    119000   298.83455     -1065.8994      55459.21      -20556.531      3343.0561     -17213.475      1.0286381    
    120000   294.95162     -911.06246      54814.505     -20463.632      3299.618      -17164.014      1.0407365    
    121000   300.1799       76.257549      54571.308     -20435.851      3358.1066     -17077.744      1.0453746    
    122000   297.5667       86.674369      55043.866     -20507.197      3328.8728     -17178.325      1.0363999    
    123000   305.50325     -155.46667      55284.198     -20632.358      3417.6587     -17214.699      1.0318945    
    124000   304.58686      110.35425      54759.646     -20602.793      3407.4072     -17195.385      1.0417791    
    125000   306.64118      532.35143      54614.068     -20616.19       3430.3888     -17185.801      1.0445561    
    126000   296.99143     -178.30459      55302.721     -20667.673      3322.4372     -17345.236      1.0315488    
    127000   307.15188     -238.42623      55338.993     -20611.359      3436.1019     -17175.257      1.0308727    
    128000   299.40881      451.48722      54762.888     -20639.998      3349.4804     -17290.518      1.0417175    
    129000   294.27244     -301.18718      55075.403     -20501.282      3292.02       -17209.262      1.0358064    
    130000   299.99736      820.48422      54771.031     -20556.236      3356.0645     -17200.171      1.0415626    
    131000   302.67826     -114.27135      54768.371     -20466.295      3386.0557     -17080.24       1.0416132    
    132000   300.44803      599.4681       54648.682     -20474.056      3361.1062     -17112.95       1.0438945    
    133000   302.05634      405.68275      54592.986     -20558.174      3379.0983     -17179.076      1.0449595    
    134000   301.38902      925.05649      55173.864     -20588.719      3371.633      -17217.086      1.033958     
    135000   305.19163     -5.0174289      54872.051     -20525.008      3414.1727     -17110.835      1.0396451    
    136000   292.75025      288.91623      54654.393     -20584.687      3274.9912     -17309.696      1.0437854    
    137000   297.33773     -393.76364      55276.449     -20623.921      3326.3113     -17297.609      1.0320391    
    138000   298.6774      -749.99795      55175.723     -20659.986      3341.2981     -17318.688      1.0339232    
    139000   300.92433      466.70102      54900.27      -20539.468      3366.4344     -17173.034      1.0391107    
    140000   302.50549      500.32114      55186.485     -20559.636      3384.1229     -17175.513      1.0337215    
    141000   287.23332      429.32116      55499.86      -20495.321      3213.2734     -17282.047      1.0278847    
    142000   302.67905     -109.75487      55144.849     -20602.003      3386.0645     -17215.939      1.034502     
    143000   305.25241      897.22538      54927.965     -20650.694      3414.8526     -17235.842      1.0385868    
    144000   297.75103      192.81958      55366.344     -20611.738      3330.9348     -17280.803      1.0303635    
    145000   300.5471       481.9998       55155.558     -20518.982      3362.2144     -17156.768      1.0343012    
    146000   297.85906      289.96221      54910.546     -20499.319      3332.1433     -17167.175      1.0389162    
    147000   300.43421      866.22054      54857.875     -20734.333      3360.9516     -17373.381      1.0399137    
    148000   298.36025     -314.51423      55126.65      -20612.016      3337.7502     -17274.266      1.0348435    
    149000   296.01431     -618.88709      55271.758     -20515.153      3311.5062     -17203.647      1.0321267    
    150000   302.80621      836.44697      54692.835     -20513.611      3387.487      -17126.124      1.0430518    
    151000   310.39182      602.78234      54231.39      -20685.986      3472.3472     -17213.639      1.0519269    
    152000   306.75145     -463.26571      54999.93      -20447.549      3431.6224     -17015.926      1.0372278    
    153000   303.5606      -347.39443      55613.172     -20624.61       3395.9264     -17228.683      1.0257904    
    154000   305.03327     -1.8709621      55015.608     -20612.18       3412.4011     -17199.779      1.0369322    
    155000   301.72062     -139.4235       54864.839     -20649.645      3375.3426     -17274.303      1.0397817    
    156000   291.47618      564.41905      55442.827     -20465.175      3260.7383     -17204.437      1.0289421    
    157000   309.87238      526.22709      55082.784     -20617.584      3466.5362     -17151.048      1.0356677    
    158000   300.85012     -108.35891      55082.127     -20562.328      3365.6043     -17196.724      1.03568      
    159000   308.59513     -546.81969      55217.794     -20580.276      3452.2476     -17128.029      1.0331354    
    160000   292.75999      56.689479      54895.047     -20600.372      3275.1002     -17325.272      1.0392096    
    161000   297.19121     -174.46133      55025.088     -20562.94       3324.6722     -17238.268      1.0367536    
    162000   296.9727       623.44684      54863.979     -20593.402      3322.2277     -17271.174      1.039798     
    163000   298.67285     -31.267922      54991.207     -20670.021      3341.2473     -17328.773      1.0373924    
    164000   299.70286     -804.51091      54890.93      -20661.27       3352.7699     -17308.5        1.0392875    
    165000   301.18663     -648.59738      54608.742     -20599.084      3369.3689     -17229.715      1.044658     
    166000   292.77654     -212.32167      55153.118     -20532.445      3275.2854     -17257.16       1.0343469    
    167000   292.98291      317.91552      55286.717     -20466.887      3277.594      -17189.293      1.0318474    
    168000   296.60773      573.14228      54619.935     -20590.224      3318.1447     -17272.08       1.0444439    
    169000   300.33597      158.65921      54594.202     -20601.059      3359.8525     -17241.207      1.0449362    
    170000   304.99613      72.770686      55043.665     -20496.919      3411.9857     -17084.933      1.0364037    
    171000   302.76226     -581.12547      55113.117     -20636.823      3386.9954     -17249.827      1.0350976    
    172000   301.06838      52.235956      54819.519     -20559.699      3368.046      -17191.653      1.0406413    
    173000   299.77384     -412.95448      55560.32      -20575.8        3353.564      -17222.236      1.0267662    
    174000   298.81816     -978.855        55224.731     -20515.386      3342.8728     -17172.513      1.0330056    
    175000   303.79351      522.61699      54718.06      -20335.807      3398.532      -16937.275      1.0425709    
    176000   302.57266      213.77774      54971.537     -20704.19       3384.8744     -17319.315      1.0377635    
    177000   293.21077      576.90967      54869.993     -20558.373      3280.1431     -17278.23       1.0396841    
    178000   300.2515       629.28907      54953.246     -20566.859      3358.9075     -17207.951      1.038109     
    179000   299.21687     -26.27442       55298.067     -20559.6        3347.3332     -17212.267      1.0316357    
    180000   296.38945     -152.25319      55541.098     -20657.672      3315.7028     -17341.969      1.0271215    
    181000   295.42068     -153.6522       54806.725     -20610.264      3304.8653     -17305.399      1.0408843    
    182000   301.75363     -630.27677      54501.19      -20625.38       3375.7118     -17249.668      1.0467195    
    183000   302.18522     -406.70089      54807.939     -20499.461      3380.5401     -17118.921      1.0408612    
    184000   302.85967      575.86425      55186.145     -20505.47       3388.0851     -17117.385      1.0337279    
    185000   299.40126      84.79047       55212.541     -20490.224      3349.3959     -17140.828      1.0332337    
    186000   305.81323     -184.28951      54810.189     -20579.559      3421.1265     -17158.432      1.0408185    
    187000   301.73007      1036.8472      54978.071     -20541.391      3375.4483     -17165.943      1.0376402    
    188000   301.67367     -1079.9325      55366.548     -20514.16       3374.8173     -17139.342      1.0303597    
    189000   301.18606     -177.20645      54871.743     -20552.79       3369.3624     -17183.427      1.0396509    
    190000   295.91787     -568.05649      54736.693     -20548.833      3310.4273     -17238.405      1.042216     
    191000   297.97627     -172.12964      54991.906     -20419.376      3333.4546     -17085.921      1.0373792    
    192000   304.27813     -270.68411      55139.357     -20560.731      3403.9534     -17156.777      1.0346051    
    193000   303.36905     -524.91629      54993.991     -20602.365      3393.7835     -17208.581      1.0373398    
    194000   298.32539     -849.57304      54876.103     -20480.914      3337.3602     -17143.554      1.0395683    
    195000   299.17044      257.44325      54899.782     -20566.286      3346.8138     -17219.472      1.0391199    
    196000   300.97477     -909.86005      55452.368     -20654.958      3366.9987     -17287.959      1.028765     
    197000   301.87086     -314.0173       54665.422     -20566.865      3377.0234     -17189.841      1.0435748    
    198000   296.28455      93.241937      54826.727     -20620.78       3314.5293     -17306.25       1.0405045    
    199000   296.61688      276.51044      55345.849     -20534.807      3318.2471     -17216.56       1.030745     
    200000   292.54601      331.42002      54773.727     -20538.007      3272.7064     -17265.3        1.0415113    
    201000   297.91437     -475.40775      54728.521     -20658.318      3332.7621     -17325.556      1.0423716    
    202000   304.43517     -41.972027      54878.884     -20508.007      3405.7102     -17102.297      1.0395156    
    203000   296.43756      363.58681      55196.977     -20564.596      3316.241      -17248.355      1.033525     
    204000   296.01357     -465.7085       55302.212     -20583.101      3311.4979     -17271.603      1.0315583    
    205000   299.94632     -957.75687      55060.178     -20568.647      3355.4935     -17213.154      1.0360929    
    206000   295.22859      257.98242      54737.619     -20751.366      3302.7164     -17448.65       1.0421984    
    207000   304.80917     -850.52294      55454.59      -20572.637      3409.8941     -17162.743      1.0287238    
    208000   296.93044      296.80255      55327.129     -20596.224      3321.7549     -17274.469      1.0310938    
    209000   299.5843      -151.57392      54942.916     -20615.501      3351.4436     -17264.057      1.0383042    
    210000   303.91598      3.6508902      54850.427     -20558.165      3399.9021     -17158.263      1.0400549    
    211000   305.60456      152.80155      54620.346     -20586.263      3418.7921     -17167.471      1.044436     
    212000   302.1434      -477.22775      55186.949     -20591.67       3380.0722     -17211.597      1.0337128    
    213000   298.66977      309.87268      55142.647     -20590.853      3341.2127     -17249.641      1.0345433    
    214000   300.47036      579.79348      54530.641     -20482.643      3361.3559     -17121.287      1.0461542    
    215000   304.92673      126.32681      55113.827     -20462.061      3411.2093     -17050.852      1.0350843    
    216000   295.77244     -192.14086      55290.424     -20591.567      3308.8004     -17282.767      1.0317783    
    217000   300.39208     -496.54927      55734.802     -20462.922      3360.4802     -17102.442      1.0235518    
    218000   300.59686     -433.48379      55545.568     -20509.058      3362.7711     -17146.287      1.0270389    
    219000   298.5437       174.93958      54488.085     -20563.02       3339.8024     -17223.217      1.0469712    
    220000   307.04018      530.73505      54887.818     -20574.886      3434.8524     -17140.033      1.0393464    
    221000   300.08661      513.29071      55289.984     -20595.405      3357.0629     -17238.342      1.0317865    
    222000   299.38045      251.38627      55415.212     -20640.419      3349.1631     -17291.255      1.0294548    
    223000   298.21024      294.46161      55058.17      -20634.946      3336.0721     -17298.874      1.0361307    
    224000   295.30714      300.40665      55099.606     -20580.994      3303.5951     -17277.399      1.0353515    
    225000   297.26986      174.9186       55198.473     -20462.987      3325.552      -17137.435      1.033497     
    226000   293.07175      579.0942       55133.71      -20581.851      3278.5879     -17303.263      1.034711     
    227000   295.12437      118.05687      55057.817     -20587.653      3301.5504     -17286.103      1.0361373    
    228000   297.8221      -66.746198      54542.108     -20466.264      3331.7299     -17134.534      1.0459342    
    229000   303.27275      15.62614       54980.308     -20656.536      3392.7063     -17263.83       1.037598     
    230000   300.14316     -176.95285      55035.272     -20562.867      3357.6956     -17205.171      1.0365617    
    231000   304.60198     -658.12083      54928.219     -20687.06       3407.5763     -17279.484      1.038582     
    232000   299.48028      128.46931      55014.09      -20557.239      3350.28       -17206.959      1.0369609    
    233000   305.01439      81.959231      55003.454     -20545.41       3412.1899     -17133.22       1.0371614    
    234000   311.39811     -392.66342      55185.644     -20601.158      3483.6045     -17117.553      1.0337373    
    235000   299.90695      236.3678       54791.641     -20586.914      3355.053      -17231.861      1.0411708    
    236000   300.4202       90.270816      54936.771     -20570.08       3360.7948     -17209.285      1.0384203    
    237000   297.63157     -766.36665      55427.303     -20531.351      3329.5984     -17201.752      1.0292303    
    238000   301.42577      316.99361      54975.474     -20600.258      3372.0441     -17228.214      1.0376892    
    239000   303.67508      553.09868      54793.093     -20564.027      3397.207      -17166.82       1.0411432    
    240000   305.46271     -205.31006      54906.99      -20573.391      3417.2053     -17156.186      1.0389835    
    241000   295.26705     -784.34789      55795.568     -20599.562      3303.1466     -17296.416      1.0224371    
    242000   298.27137      151.34934      54962.907     -20578.118      3336.7559     -17241.362      1.0379265    
    243000   295.06279     -217.71667      54653.99      -20506.647      3300.8615     -17205.786      1.0437931    
    244000   296.53569      305.53833      55249.16      -20451.695      3317.3389     -17134.356      1.0325489    
    245000   296.5133      -434.04518      54959.083     -20556.703      3317.0884     -17239.615      1.0379987    
    246000   296.79795      228.92853      54802.409     -20540.508      3320.2728     -17220.235      1.0409662    
    247000   296.20323     -375.68193      54952.147     -20515.206      3313.6196     -17201.587      1.0381297    
    248000   301.2641      -607.26141      55156.334     -20602.439      3370.2355     -17232.204      1.0342866    
    249000   303.16834      83.545084      55245.296     -20449.511      3391.5382     -17057.973      1.0326211    
    250000   304.12935      392.03912      54603.129     -20604.141      3402.289      -17201.852      1.0447654    
    251000   305.0583      -463.64766      54877.533     -20611.913      3412.6812     -17199.232      1.0395412    
    252000   300.41002     -576.6259       55369.076     -20509.864      3360.6809     -17149.183      1.0303126    
    253000   301.73552     -395.14933      54751.343     -20459.537      3375.5093     -17084.028      1.0419371    
    254000   297.93179      371.48264      54276.703     -20499.396      3332.957      -17166.439      1.0510487    
    255000   300.65388      13.86121       55444.167     -20376.815      3363.4089     -17013.406      1.0289172    
    256000   303.70569      731.23377      55193.85      -20599.081      3397.5495     -17201.532      1.0335836    
    257000   293.26684      306.69859      54412.876     -20576.129      3280.7703     -17295.359      1.0484184    
    258000   293.41001     -294.66468      54656.482     -20613.932      3282.3719     -17331.56       1.0437455    
    259000   296.54646      13.620934      54555.533     -20643.534      3317.4593     -17326.075      1.0456768    
    260000   296.90133      439.23166      54696.751     -20678.946      3321.4293     -17357.517      1.0429771    
    261000   297.75518     -107.15354      55286.411     -20624.945      3330.9813     -17293.964      1.0318532    
    262000   299.35678      969.52186      55118.945     -20652.411      3348.8984     -17303.513      1.0349882    
    263000   299.21744      721.10318      54966.142     -20642.536      3347.3396     -17295.196      1.0378654    
    264000   303.4376      -578.06767      55497.154     -20578.013      3394.5504     -17183.462      1.0279348    
    265000   302.00018      7.5828859      54996.822     -20519.875      3378.47       -17141.405      1.0372864    
    266000   299.64698     -5.8483786      54781.329     -20637.971      3352.1448     -17285.827      1.0413668    
    267000   297.30239     -629.28795      55313.176     -20493.387      3325.9159     -17167.471      1.0313539    
    268000   302.63736     -173.5141       54816.504     -20460.447      3385.5981     -17074.849      1.0406986    
    269000   301.15387      463.79255      54888.376     -20583.289      3369.0023     -17214.286      1.0393359    
    270000   295.19092     -171.68061      55524.528     -20622.826      3302.295      -17320.531      1.0274281    
    271000   296.78312     -392.96294      55138.91      -20534.709      3320.1069     -17214.602      1.0346134    
    272000   308.25651     -480.11896      54729.947     -20552.651      3448.4594     -17104.192      1.0423445    
    273000   297.07152     -140.89653      54535.251     -20568.338      3323.3332     -17245.004      1.0460657    
    274000   295.40406     -579.7911       54884.577     -20595.335      3304.6793     -17290.656      1.0394078    
    275000   307.57397      336.15561      54138.867     -20703.892      3440.8239     -17263.068      1.0537246    
    276000   301.33678     -1.1844271      54861.41      -20503.53       3371.0485     -17132.481      1.0398467    
    277000   301.27585     -131.57776      55495.971     -20607.233      3370.3669     -17236.867      1.0279567    
    278000   300.04215     -339.05477      55071.584     -20542.328      3356.5655     -17185.763      1.0358783    
    279000   306.79601      153.86673      54905.531     -20645.723      3432.1208     -17213.602      1.0390111    
    280000   298.40133     -727.59187      54554.256     -20571.876      3338.2097     -17233.667      1.0457013    
    281000   300.29575      49.186391      54595.7       -20514.299      3359.4026     -17154.897      1.0449075    
    282000   297.55189      209.04611      54345.524     -20614.397      3328.707      -17285.69       1.0497177    
    283000   295.19022      210.5615       54581.232     -20714.688      3302.2872     -17412.401      1.0451845    
    284000   303.13052     -76.359373      55029.043     -20587.171      3391.1151     -17196.056      1.0366791    
    285000   304.94535     -114.72773      55596.706     -20714.161      3411.4176     -17302.743      1.0260942    
    286000   298.3894       477.67487      55353.611     -20560.488      3338.0763     -17222.412      1.0306005    
    287000   290.14615     -121.14897      55418.943     -20586.176      3245.8592     -17340.317      1.0293855    
    288000   298.82056     -678.11319      55087.524     -20614.534      3342.8996     -17271.635      1.0355785    
    289000   298.89196      75.012536      54699.928     -20701.217      3343.6984     -17357.519      1.0429165    
    290000   306.26698     -363.05809      55210.247     -20545.656      3426.2026     -17119.454      1.0332766    
    291000   298.10263      123.96705      54981.303     -20671.998      3334.8682     -17337.13       1.0375792    
    292000   304.38761      144.37633      54888.896     -20574.814      3405.1781     -17169.636      1.039326     
    293000   300.93356     -479.37629      55323.801     -20524.644      3366.5378     -17158.106      1.0311558    
    294000   306.44876      361.50347      54603.443     -20568.542      3428.2362     -17140.306      1.0447593    
    295000   300.93702      165.25767      54410.886     -20616.996      3366.5764     -17250.42       1.0484567    
    296000   295.99387     -556.3575       55253.074     -20353.325      3311.2776     -17042.047      1.0324757    
    297000   299.92593     -382.5122       55245.658     -20606.909      3355.2654     -17251.644      1.0326143    
    298000   305.44749     -344.36899      55022.099     -20559.79       3417.035      -17142.755      1.0368099    
    299000   299.88892     -385.09975      55304.137     -20496.337      3354.8514     -17141.485      1.0315224    
    300000   293.20783      554.17032      54995.209     -20552.643      3280.1101     -17272.533      1.0373169    
    300010   296.94909     -28.297045      54987.331     -20595.777      3321.9636     -17273.813      1.0374655    
Loop time of 5652.93 on 4 procs for 200000 steps with 5541 atoms

Performance: 6.114 ns/day, 3.926 hours/ns, 35.380 timesteps/s, 196.040 katom-step/s
309.1% CPU use with 1 MPI tasks x 4 OpenMP threads

MPI task timing breakdown:
Section |  min time  |  avg time  |  max time  |%varavg| %total
---------------------------------------------------------------
Pair    | 129.7      | 129.7      | 129.7      |   0.0 |  2.29
Bond    | 1.9521     | 1.9521     | 1.9521     |   0.0 |  0.03
Kspace  | 2603.3     | 2603.3     | 2603.3     |   0.0 | 46.05
Neigh   | 0.32928    | 0.32928    | 0.32928    |   0.0 |  0.01
Comm    | 59.998     | 59.998     | 59.998     |   0.0 |  1.06
Output  | 0.72895    | 0.72895    | 0.72895    |   0.0 |  0.01
Modify  | 2835       | 2835       | 2835       |   0.0 | 50.15
Other   |            | 21.85      |            |       |  0.39

Nlocal:           5541 ave        5541 max        5541 min
Histogram: 1 0 0 0 0 0 0 0 0 0
Nghost:          35497 ave       35497 max       35497 min
Histogram: 1 0 0 0 0 0 0 0 0 0
Neighs:              0 ave           0 max           0 min
Histogram: 1 0 0 0 0 0 0 0 0 0

Total # of neighbors = 0
Ave neighs/atom = 0
Ave special neighs/atom = 2.4872767
Neighbor list builds = 18567
Dangerous builds = 0

unfix mynpt_gentle

variable phase1_dens equal density
variable phase1_press equal press
print ""

print "Phase 1 complete:"
Phase 1 complete:
print "  Density:  ${phase1_dens} g/cmÂ³"
  Density:  1.03746548351353 g/cm³
print "  Pressure: ${phase1_press} atm"
  Pressure: -28.2970453505929 atm
print ""


# Phase 2: Standard NPT damping (600 ps)
print "Phase 2: Final equilibration (600 ps, pdamp=2000)..."
Phase 2: Final equilibration (600 ps, pdamp=2000)...
# ğŸ”§ CRITICAL: Using npt/gpu instead of npt for FULL GPU acceleration
fix mynpt_standard all npt/gpu temp 300.0 300.0 100.0 iso 1.0 1.0 2000.0

run 300000  # 600 ps at 2 fs timestep
PPPM initialization ...
  extracting TIP4P info from pair style
  using 12-bit tables for long-range coulomb
  G vector (1/distance) = 0.28809412
  grid = 50 50 50
  stencil order = 5
  estimated absolute RMS force accuracy = 0.00033389365
  estimated relative force accuracy = 1.0055108e-06
  using double precision FFTW3
  3d grid and FFT values/proc = 205379 125000
Generated 0 of 3 mixed pair_coeff terms from geometric mixing rule
Per MPI rank memory allocation (min/avg/max) = 53.19 | 53.19 | 53.19 Mbytes
   Step          Temp          Press          Volume         PotEng         KinEng         TotEng        Density    
    300010   296.94909     -35.599097      54987.331     -20595.768      3321.9636     -17273.804      1.0374655    
    301000   294.59026     -528.26838      55423.724     -20667.218      3295.5754     -17371.642      1.0292967    
    302000   301.73498      117.19788      55067.091     -20477.021      3375.5032     -17101.518      1.0359628    
    303000   301.81513      162.11371      54849.675     -20740.831      3376.3998     -17364.431      1.0400692    
    304000   301.25827      324.87324      55005.135     -20606.11       3370.1703     -17235.94       1.0371297    
    305000   301.23636     -815.05788      55028.594     -20589.49       3369.9252     -17219.565      1.0366875    
    306000   288.12792     -193.13827      54647.776     -20629.155      3223.2813     -17405.874      1.0439118    
    307000   301.49442      136.06588      54974.586     -20568.579      3372.8121     -17195.767      1.037706     
    308000   303.29661     -870.46832      55301.965     -20613.392      3392.9732     -17220.419      1.0315629    
    309000   296.72527     -329.18533      54618.823     -20712.945      3319.4597     -17393.485      1.0444652    
    310000   300.54634     -135.54026      54492.816     -20600.591      3362.2059     -17238.385      1.0468803    
    311000   304.51927      453.26721      54563.254     -20556.955      3406.651      -17150.304      1.0455289    
    312000   300.14856     -538.51949      55210.577     -20489.304      3357.7559     -17131.548      1.0332705    
    313000   307.45803      176.14617      54889.082     -20570.504      3439.5269     -17130.977      1.0393225    
    314000   305.32335     -752.02856      55128.964     -20541.243      3415.6462     -17125.596      1.0348001    
    315000   298.00276      443.66478      54780.658     -20417.744      3333.7509     -17083.993      1.0413796    
    316000   298.23011      152.35675      54772.532     -20571.738      3336.2943     -17235.444      1.0415341    
    317000   302.1891       505.67558      55360.871     -20703.334      3380.5835     -17322.751      1.0304653    
    318000   294.27055     -95.436594      55326.372     -20564.109      3291.9988     -17272.11       1.0311079    
    319000   301.2088       110.03547      55264.73      -20632.592      3369.6169     -17262.975      1.032258     
    320000   299.75512     -192.89105      55663.346     -20596.675      3353.3546     -17243.321      1.0248658    
    321000   299.33306      181.54995      55026.57      -20545.762      3348.633      -17197.128      1.0367257    
    322000   303.66348     -87.41091       54917.372     -20526.43       3397.0773     -17129.353      1.0387871    
    323000   296.56992     -503.55729      54540.168     -20702.339      3317.7217     -17384.617      1.0459714    
    324000   291.87351     -229.99019      54392.617     -20613.81       3265.1832     -17348.626      1.0488088    
    325000   299.52085     -310.89052      54428.353     -20607.473      3350.7338     -17256.739      1.0481202    
    326000   300.21709     -343.21522      55519.721     -20474.92       3358.5226     -17116.398      1.027517     
    327000   303.83662     -393.8152       55140.813     -20618.827      3399.0142     -17219.812      1.0345777    
    328000   298.92922     -147.73321      54894.971     -20603.569      3344.1153     -17259.454      1.039211     
    329000   294.10146     -501.92514      55270.511     -20485.548      3290.1072     -17195.441      1.03215      
    330000   305.99034     -84.939905      54836.512     -20495.598      3423.1078     -17072.49       1.0403189    
    331000   301.71856      208.28257      54446.103     -20508.871      3375.3195     -17133.552      1.0477785    
    332000   301.04775      185.73         54624.894     -20639.682      3367.8152     -17271.867      1.0443491    
    333000   301.28245     -477.68642      54999.352     -20544.759      3370.4408     -17174.318      1.0372387    
    334000   301.4337      -500.6491       55558.892     -20622.369      3372.1328     -17250.236      1.0267926    
    335000   302.5621       147.34935      55141.238     -20586.241      3384.7561     -17201.485      1.0345698    
    336000   306.78829      194.13648      54686.328     -20593.07       3432.0345     -17161.036      1.0431759    
    337000   302.03471      429.3561       54635.272     -20583.53       3378.8563     -17204.674      1.0441507    
    338000   302.97399      444.70172      54785.202     -20717.394      3389.364      -17328.03       1.0412932    
    339000   298.54224      165.41147      55145.551     -20591.406      3339.7861     -17251.62       1.0344888    
    340000   303.24344      28.737597      54972.815     -20592.688      3392.3783     -17200.31       1.0377394    
    341000   300.92158     -107.0235       54646.125     -20645.208      3366.4037     -17278.804      1.0439433    
    342000   303.59532     -115.46613      54933.064     -20590.097      3396.3148     -17193.782      1.0384904    
    343000   300.28238      433.42985      54820.563     -20429.635      3359.253      -17070.382      1.0406215    
    344000   296.69816      183.32019      54758.111     -20541.307      3319.1564     -17222.151      1.0418084    
    345000   300.14863      348.22719      55041.109     -20612.06       3357.7568     -17254.304      1.0364518    
    346000   302.67948      422.92065      55136.85      -20620.408      3386.0693     -17234.339      1.0346521    
    347000   298.53355      49.644565      54881.418     -20640.469      3339.6889     -17300.78       1.0394676    
    348000   299.91756      167.09596      55369.61      -20540.872      3355.1718     -17185.7        1.0303027    
    349000   299.65139      612.25314      54499.115     -20580.208      3352.1942     -17228.014      1.0467593    
    350000   298.1275      -208.09844      54806.843     -20517.071      3335.1464     -17181.924      1.040882     
    351000   299.96979      97.498757      54532.7       -20468.163      3355.756      -17112.407      1.0461147    
    352000   301.34673     -16.279401      55134.025     -20566.972      3371.1599     -17195.812      1.0347051    
    353000   291.7908      -80.501871      55575.302     -20628.313      3264.2579     -17364.055      1.0264894    
    354000   305.1715      -191.0911       55197.258     -20673.001      3413.9475     -17259.053      1.0335198    
    355000   295.7334      -21.773303      54800.349     -20589.896      3308.3637     -17281.532      1.0410054    
    356000   301.84777     -42.051817      54554.523     -20701.556      3376.765      -17324.791      1.0456962    
    357000   297.44922     -486.95191      55223.72      -20495.578      3327.5585     -17168.02       1.0330245    
    358000   290.54372      119.17332      54873.96      -20646.979      3250.3068     -17396.672      1.0396089    
    359000   296.56397      725.71933      54637.81      -20597.422      3317.6552     -17279.766      1.0441022    
    360000   301.73245     -318.36761      55273.293     -20592.908      3375.4749     -17217.433      1.032098     
    361000   299.73948     -341.05628      54589.174     -20694.737      3353.1796     -17341.557      1.0450324    
    362000   300.95355     -628.97323      55069.212     -20557.936      3366.7614     -17191.174      1.0359229    
    363000   299.31995      129.85462      55083.841     -20629.449      3348.4863     -17280.963      1.0356478    
    364000   294.47901     -376.88524      54557.621     -20379.568      3294.3308     -17085.238      1.0456368    
    365000   300.76171      27.060294      55273.684     -20559.043      3364.6153     -17194.427      1.0320907    
    366000   296.30277      202.82595      55236.324     -20572.001      3314.7332     -17257.268      1.0327888    
    367000   304.61603     -22.295472      54907.276     -20628.542      3407.7334     -17220.809      1.0389781    
    368000   298.7718      -274.7938       55380.402     -20562.198      3342.3542     -17219.844      1.0301019    
    369000   304.16256     -652.99431      55496.422     -20606.764      3402.6606     -17204.104      1.0279484    
    370000   296.66445     -354.57234      54918.807     -20733.054      3318.7793     -17414.275      1.03876      
    371000   298.32977      272.82204      55166.818     -20607.346      3337.4092     -17269.937      1.0340901    
    372000   306.20835     -221.20197      55131.227     -20481.401      3425.5467     -17055.854      1.0347576    
    373000   301.04821      141.23417      54811.365     -20547.107      3367.8203     -17179.286      1.0407961    
    374000   298.35401     -61.2691        55343.558     -20562.597      3337.6804     -17224.917      1.0307877    
    375000   308.26338     -523.91471      54782.68      -20588.769      3448.5363     -17140.233      1.0413411    
    376000   298.71286     -638.83663      55477.913     -20543.221      3341.6948     -17201.527      1.0282913    
    377000   303.02807      105.24788      54851.67      -20475.433      3389.969      -17085.464      1.0400314    
    378000   304.549        531.67599      54342.763     -20658.607      3406.9836     -17251.623      1.049771     
    379000   301.1368       60.568808      54952.369     -20522.624      3368.8114     -17153.813      1.0381255    
    380000   297.21844      305.75675      54596.932     -20576.112      3324.9768     -17251.135      1.0448839    
    381000   297.48403      839.18697      54700.098     -20630.998      3327.948      -17303.05       1.0429133    
    382000   304.12941     -316.38202      55270.23      -20471.267      3402.2896     -17068.977      1.0321552    
    383000   297.34392     -451.2256       55181.695     -20652.297      3326.3805     -17325.916      1.0338113    
    384000   299.44292      133.17194      55299.599     -20614.565      3349.862      -17264.703      1.0316071    
    385000   297.9207       15.86625       54642.691     -20451.856      3332.8329     -17119.023      1.0440089    
    386000   298.79769     -14.894445      54890.617     -20576.383      3342.6438     -17233.739      1.0392934    
    387000   301.70818      76.542062      54588.029     -20675.118      3375.2034     -17299.915      1.0450543    
    388000   299.40304     -519.90876      55068.461     -20710.105      3349.4158     -17360.689      1.035937     
    389000   294.02065      784.25476      54869.092     -20560.08       3289.2032     -17270.876      1.0397011    
    390000   300.82169     -343.57931      55599.75      -20364.99       3365.2863     -16999.703      1.026038     
    391000   304.28973      147.58887      54543.809     -20617.314      3404.0832     -17213.23       1.0459016    
    392000   300.4332       235.42403      55317.685     -20559.277      3360.9403     -17198.336      1.0312698    
    393000   309.17406      832.07375      54998.768     -20549.769      3458.7241     -17091.045      1.0372497    
    394000   301.08867     -556.53851      54910.592     -20640.31       3368.273      -17272.037      1.0389154    
    395000   300.17978      263.51471      54750.833     -20565.14       3358.1053     -17207.034      1.0419468    
    396000   306.30675      859.39209      54573.996     -20596.536      3426.6476     -17169.888      1.0453231    
    397000   302.68276      35.577484      54595.881     -20521.271      3386.106      -17135.165      1.0449041    
    398000   303.63269     -289.41649      55425.484     -20510.429      3396.7328     -17113.696      1.029264     
    399000   294.51283      697.08959      54792.041     -20496.705      3294.7091     -17201.995      1.0411632    
    400000   297.6737       38.721192      54432.225     -20663.004      3330.0698     -17332.934      1.0480457    
    401000   304.93849      622.86153      55016.281     -20499.585      3411.3408     -17088.244      1.0369196    
    402000   300.67351     -252.29785      55123.197     -20627.639      3363.6286     -17264.011      1.0349084    
    403000   303.46345     -368.95994      54800.95      -20560.516      3394.8396     -17165.677      1.040994     
    404000   299.06753     -275.48564      55107.866     -20572.11       3345.6625     -17226.447      1.0351963    
    405000   302.37674      189.8073       55498.342     -20584.888      3382.6826     -17202.206      1.0279128    
    406000   303.45164      324.76709      54446.251     -20539.546      3394.7074     -17144.838      1.0477757    
    407000   296.52894      584.68417      54349.969     -20679.983      3317.2634     -17362.72       1.0496318    
    408000   298.60095      720.64852      54779.523     -20649.101      3340.4429     -17308.658      1.0414011    
    409000   303.43228      1005.6795      55268.097     -20542.646      3394.4909     -17148.155      1.0321951    
    410000   293.0811       245.10204      54856.677     -20553.775      3278.6924     -17275.083      1.0399364    
    411000   300.67105     -334.21724      55059.088     -20595.808      3363.6011     -17232.207      1.0361134    
    412000   308.69659     -494.94927      55316.042     -20573.312      3453.3826     -17119.929      1.0313004    
    413000   297.45008      352.55444      54731.162     -20530.964      3327.5681     -17203.395      1.0423213    
    414000   308.63976      606.68293      55020.966     -20613.035      3452.7468     -17160.288      1.0368313    
    415000   297.29677      206.15313      55311.721     -20582.704      3325.853      -17256.851      1.031381     
    416000   293.41909     -61.716863      55508.401     -20555.967      3282.4735     -17273.494      1.0277265    
    417000   298.20037     -115.29491      55017.673     -20438.56       3335.9616     -17102.599      1.0368933    
    418000   299.45079     -169.24927      55548.58      -20611.098      3349.9501     -17261.148      1.0269832    
    419000   297.27903     -367.60711      55463.349     -20597.283      3325.6546     -17271.628      1.0285614    
    420000   300.8809       230.72668      54569.787     -20574.405      3365.9487     -17208.456      1.0454037    
    421000   295.85961     -1125.1849      55432.41      -20627.85       3309.7755     -17318.074      1.0291354    
    422000   304.61334     -113.21195      55366.117     -20658.956      3407.7033     -17251.253      1.0303677    
    423000   305.49159      159.1938       55247.333     -20546.11       3417.5283     -17128.582      1.032583     
    424000   295.76318     -228.61476      55349.896     -20621.226      3308.6968     -17312.529      1.0306696    
    425000   299.80888     -371.78785      54783.106     -20636.636      3353.956      -17282.68       1.041333     
    426000   306.28743      838.9465       54545.905     -20583.18       3426.4314     -17156.749      1.0458614    
    427000   298.06056     -400.88812      54993.631     -20639.688      3334.3976     -17305.29       1.0373466    
    428000   305.11768     -49.53633       55038.404     -20606.873      3413.3454     -17193.528      1.0365028    
    429000   305.64323      453.53788      54908.579     -20490.004      3419.2247     -17070.779      1.0389534    
    430000   297.00744      213.57401      54889.437     -20557.104      3322.6163     -17234.488      1.0393158    
    431000   295.84155     -716.92109      55273.261     -20582.907      3309.5736     -17273.334      1.0320986    
    432000   296.22384     -77.843628      55966.644     -20654.282      3313.8502     -17340.431      1.0193118    
    433000   289.85321     -449.71919      55099.628     -20533.769      3242.5821     -17291.187      1.035351     
    434000   299.49746     -219.00664      55047.494     -20481.475      3350.4722     -17131.002      1.0363316    
    435000   298.42907     -130.86079      54903.795     -20549.463      3338.5201     -17210.942      1.039044     
    436000   306.63471      537.79976      54940.498     -20583.873      3430.3164     -17153.556      1.0383499    
    437000   294.73478     -221.63715      55100.408     -20717.755      3297.1921     -17420.563      1.0353364    
    438000   302.03633      1047.1478      54464.498     -20450.27       3378.8745     -17071.396      1.0474247    
    439000   300.0131       272.46686      54810.138     -20491.712      3356.2406     -17135.471      1.0408195    
    440000   300.08498      490.88732      55334.16      -20474.341      3357.0447     -17117.296      1.0309627    
    441000   298.2657       95.62058       54755.639     -20569.24       3336.6925     -17232.547      1.0418554    
    442000   298.69931     -743.75227      54581.643     -20576.296      3341.5432     -17234.753      1.0451766    
    443000   309.8221      -281.59403      54616.438     -20635.55       3465.9737     -17169.576      1.0445108    
    444000   304.88447     -455.32817      55577.17      -20707.613      3410.7365     -17296.876      1.0264549    
    445000   303.67538     -621.30225      54891.032     -20585.704      3397.2104     -17188.493      1.0392856    
    446000   296.08313     -700.28404      54741.908     -20571.038      3312.2761     -17258.762      1.0421167    
    447000   296.89474     -85.054001      55219.284     -20492.349      3321.3556     -17170.993      1.0331075    
    448000   295.51587      1064.5988      54862.601     -20544.69       3305.9302     -17238.76       1.0398242    
    449000   306.91467     -326.56347      55144.377     -20568.754      3433.4483     -17135.306      1.0345109    
    450000   303.34319     -612.02142      55254.256     -20525.35       3393.4942     -17131.856      1.0324536    
    451000   300.16172      562.03966      54562.513     -20481.653      3357.9032     -17123.75       1.0455431    
    452000   301.81035      497.8056       54767.803     -20609.424      3376.3464     -17233.078      1.041624     
    453000   296.58855      178.8261       54815.745     -20686.746      3317.9302     -17368.816      1.040713     
    454000   302.05909     -47.266664      55120.126     -20564.044      3379.129      -17184.915      1.034966     
    455000   289.7674      -26.357903      55242.625     -20535.767      3241.6221     -17294.145      1.032671     
    456000   300.00107     -355.5292       55553.511     -20411.04       3356.106      -17054.934      1.026892     
    457000   305.7491      -67.761667      54803.963     -20520.365      3420.4091     -17099.956      1.0409367    
    458000   297.08985     -215.07176      54730.863     -20573.879      3323.5383     -17250.341      1.042327     
    459000   293.81747      77.403684      54994.472     -20561.383      3286.9301     -17274.453      1.0373308    
    460000   302.56717      268.70706      55424.684     -20528.004      3384.8129     -17143.191      1.0292789    
    461000   292.7436      -428.80571      55162.01      -20476.844      3274.9168     -17201.928      1.0341802    
    462000   305.0051       1215.529       55034.373     -20514.477      3412.086      -17102.391      1.0365787    
    463000   294.67423     -533.60919      54840.017     -20617.377      3296.5148     -17320.862      1.0402524    
    464000   296.94902     -149.55387      55719.64      -20465.442      3321.9628     -17143.479      1.0238303    
    465000   302.25996      166.98126      55093.005     -20462.372      3381.3761     -17080.996      1.0354755    
    466000   303.93173      107.42691      54975.912     -20670.872      3400.0782     -17270.794      1.037681     
    467000   309.56746      5.1277583      54883.205     -20488.378      3463.125      -17025.253      1.0394338    
    468000   301.33425     -53.535167      55616.791     -20561.175      3371.0202     -17190.155      1.0257237    
    469000   301.64353     -77.558372      55405.597     -20560.649      3374.4802     -17186.168      1.0296335    
    470000   310.08482      59.796131      55033.797     -20552.631      3468.9127     -17083.718      1.0365895    
    471000   304.11749      230.21247      55112.882     -20603.602      3402.1563     -17201.446      1.0351021    
    472000   301.06523      329.37812      54946.417     -20564.572      3368.0108     -17196.562      1.038238     
    473000   300.70523     -98.049551      55280.004     -20650.009      3363.9834     -17286.025      1.0319728    
    474000   299.40163      13.470873      54975.426     -20575.163      3349.4001     -17225.763      1.0376901    
    475000   292.37197     -229.69236      55176.601     -20561.71       3270.7594     -17290.95       1.0339067    
    476000   300.65779      366.11223      54778.123     -20597.042      3363.4528     -17233.589      1.0414278    
    477000   293.97953     -242.048        55032.512     -20616.358      3288.7431     -17327.615      1.0366137    
    478000   300.18476     -500.97736      54937.006     -20656.136      3358.161      -17297.975      1.0384159    
    479000   301.03694      276.62148      54584.903     -20528.303      3367.6943     -17160.609      1.0451142    
    480000   298.24491      20.596781      55049.318     -20700.58       3336.4599     -17364.12       1.0362973    
    481000   304.6927       235.38751      54948.148     -20510.62       3408.5911     -17102.029      1.0382053    
    482000   298.93416     -451.03908      55046.092     -20583.851      3344.1705     -17239.681      1.036358     
    483000   297.72583     -221.94487      55120.611     -20548.857      3330.653      -17218.204      1.0349569    
    484000   301.01814     -310.7042       55247.433     -20663.975      3367.484      -17296.491      1.0325811    
    485000   298.05002      214.03253      54471.326     -20690.409      3334.2796     -17356.13       1.0472934    
    486000   308.19741      11.523052      54719.976     -20564.667      3447.7982     -17116.868      1.0425344    
    487000   302.61624      449.32327      55320.929     -20570.373      3385.3618     -17185.011      1.0312093    
    488000   295.40183      530.41749      54941.061     -20551.377      3304.6544     -17246.723      1.0383392    
    489000   301.25732     -837.38788      55294.885     -20497.94       3370.1596     -17127.78       1.031695     
    490000   301.03258     -123.00915      54916.837     -20515.077      3367.6454     -17147.431      1.0387972    
    491000   301.80616      227.9087       55116.665     -20641.802      3376.2996     -17265.502      1.035031     
    492000   304.11443      548.0949       55375.688     -20623.833      3402.1221     -17221.711      1.0301896    
    493000   301.06431      338.31561      54406.695     -20588.969      3368.0004     -17220.969      1.0485375    
    494000   302.10691      550.36633      55206.378     -20580.38       3379.664      -17200.716      1.033349     
    495000   303.79039     -316.16128      55338.603     -20460.068      3398.497      -17061.571      1.03088      
    496000   300.73521      218.4321       55399.974     -20661.222      3364.3189     -17296.903      1.029738     
    497000   299.03328      621.30124      54533.11      -20554.333      3345.2794     -17209.054      1.0461068    
    498000   308.15275      118.54265      54922.423     -20563.303      3447.2987     -17116.005      1.0386916    
    499000   291.3411       951.64565      54602.372     -20626.375      3259.2271     -17367.148      1.0447798    
    500000   298.32243      585.43148      54897.106     -20597.96       3337.3271     -17260.633      1.0391706    
    501000   303.2162       67.707754      55130.435     -20592.559      3392.0736     -17200.486      1.0347725    
    502000   297.15063     -253.8092       55025.838     -20664.488      3324.2182     -17340.27       1.0367395    
    503000   305.42907      735.26311      55002.564     -20577.877      3416.8289     -17161.048      1.0371782    
    504000   300.70434      142.98459      55301.312     -20400.829      3363.9735     -17036.856      1.0315751    
    505000   295.40759      125.75899      55096.516     -20449.164      3304.7189     -17144.445      1.0354095    
    506000   299.45282      495.49292      54791.816     -20578.388      3349.9727     -17228.415      1.0411675    
    507000   300.03908     -414.78525      55040.08      -20587.747      3356.5312     -17231.216      1.0364712    
    508000   298.19023      103.73335      55199.704     -20546.011      3335.8481     -17210.163      1.033474     
    509000   294.90551      14.408848      55442.069     -20607.776      3299.1021     -17308.674      1.0289562    
    510000   297.50153      128.68133      55256.729     -20578.764      3328.1437     -17250.621      1.0324074    
    511000   295.01387     -65.573976      54995.627     -20621.178      3300.3143     -17320.863      1.037309     
    512000   295.1222      -378.91086      55035.092     -20566.114      3301.5261     -17264.588      1.0365651    
    513000   299.42417      493.89637      54841.34      -20633.319      3349.6522     -17283.666      1.0402273    
    514000   298.14568     -901.11945      54682.322     -20592.528      3335.3498     -17257.178      1.0432523    
    515000   300.12851     -92.709971      54847.038     -20612.854      3357.5317     -17255.323      1.0401192    
    516000   301.87215      56.590763      54951.41      -20736.168      3377.0377     -17359.13       1.0381436    
    517000   304.02877     -121.32395      54915.66      -20605.291      3401.1638     -17204.127      1.0388195    
    518000   299.89599     -317.11117      54678.379     -20628.995      3354.9305     -17274.065      1.0433275    
    519000   298.86898      471.23458      54659.905     -20705.487      3343.4414     -17362.046      1.0436801    
    520000   298.94677      417.39327      54751.37      -20694.021      3344.3116     -17349.71       1.0419366    
    521000   298.84309      80.874773      54896.208     -20492.976      3343.1518     -17149.825      1.0391876    
    522000   303.18042      260.3999       54859.193     -20574.928      3391.6733     -17183.254      1.0398887    
    523000   303.06661     -477.25319      54801.776     -20593.463      3390.4001     -17203.063      1.0409783    
    524000   296.29005     -208.74124      55201.937     -20519.755      3314.5909     -17205.164      1.0334322    
    525000   296.5592       43.478723      54718.124     -20532.415      3317.6018     -17214.814      1.0425697    
    526000   297.36537      296.36269      54588.866     -20562.826      3326.6204     -17236.206      1.0450383    
    527000   298.73245      247.50264      55098.628     -20565.532      3341.9139     -17223.618      1.0353698    
    528000   302.1516      -66.300839      54932.285     -20616.874      3380.1639     -17236.71       1.0385051    
    529000   302.14476      338.8882       54645.315     -20536.638      3380.0875     -17156.55       1.0439588    
    530000   306.4363      -179.15674      55217.871     -20487.276      3428.0968     -17059.179      1.033134     
    531000   302.33853      125.101        55099.927     -20574.879      3382.2552     -17192.624      1.0353454    
    532000   302.07182     -230.57135      55322.959     -20558.148      3379.2714     -17178.876      1.0311715    
    533000   303.21236     -180.11645      55327.153     -20553.539      3392.0307     -17161.509      1.0310933    
    534000   302.87907      140.04054      54874.291     -20525.56       3388.3021     -17137.258      1.0396026    
    535000   295.38036     -159.9352       54563         -20534.58       3304.4142     -17230.166      1.0455337    
    536000   299.06918     -351.7323       54835.328     -20600.999      3345.6809     -17255.318      1.0403413    
    537000   302.31162      340.7137       54908.774     -20550.508      3381.9541     -17168.553      1.0389498    
    538000   300.9634       646.40984      55008.331     -20566.019      3366.8716     -17199.148      1.0370694    
    539000   302.73216     -136.26233      54452.763     -20560.12       3386.6587     -17173.462      1.0476504    
    540000   296.70941      267.12539      54649.441     -20524.824      3319.2822     -17205.542      1.04388      
    541000   297.63244      411.49734      54597.046     -20683.399      3329.6081     -17353.791      1.0448818    
    542000   299.55777     -163.34957      54951.177     -20523.331      3351.1468     -17172.185      1.0381481    
    543000   301.44934      307.39025      54876.631     -20530.362      3372.3077     -17158.054      1.0395583    
    544000   297.55918     -37.024808      55668.043     -20569.075      3328.7887     -17240.286      1.0247793    
    545000   298.70446      716.62833      55021.73      -20612.633      3341.6008     -17271.032      1.0368169    
    546000   294.62705      224.6237       55025.746     -20611.927      3295.9869     -17315.94       1.0367412    
    547000   294.14131      22.536522      54934.231     -20694.954      3290.553      -17404.401      1.0384683    
    548000   309.83276     -438.72227      55262.806     -20532.441      3466.0929     -17066.348      1.0322939    
    549000   301.81966     -152.39795      55276.603     -20615.772      3376.4505     -17239.322      1.0320362    
    550000   299.63786     -354.00608      54984.007     -20734.092      3352.0428     -17382.049      1.0375282    
    551000   299.77656      746.50105      54438.429     -20612.985      3353.5945     -17259.391      1.0479262    
    552000   307.32119      202.56292      55319.645     -20488.048      3437.9961     -17050.052      1.0312333    
    553000   292.99997     -383.92437      54424.571     -20533.848      3277.7849     -17256.064      1.0481931    
    554000   294.7984       606.70997      54776.226     -20631.601      3297.9038     -17333.697      1.0414638    
    555000   299.12454     -360.50908      55110.337     -20664.888      3346.3002     -17318.588      1.0351499    
    556000   293.94838     -10.61617       55214.179     -20629.325      3288.3947     -17340.93       1.033203     
    557000   302.42851     -375.42262      55184.866     -20573.529      3383.2617     -17190.267      1.0337518    
    558000   296.8556       133.90266      55055.023     -20595.467      3320.9177     -17274.549      1.0361899    
    559000   298.93913     -41.902789      55179.493     -20429.6        3344.2261     -17085.374      1.0338525    
    560000   292.00005      253.91088      54802.117     -20668.522      3266.5988     -17401.924      1.0409718    
    561000   298.10423      603.92572      55114.812     -20552.584      3334.8861     -17217.698      1.0350658    
    562000   298.28669      307.30546      54959.23      -20665.705      3336.9273     -17328.778      1.0379959    
    563000   297.52133      187.25284      54870.392     -20605.858      3328.3652     -17277.492      1.0396765    
    564000   302.61029      46.072507      55311.256     -20585.595      3385.2953     -17200.3        1.0313897    
    565000   291.60811      24.778077      55775.831     -20536.864      3262.2141     -17274.65       1.0227989    
    566000   299.41396     -842.00075      55248.643     -20501.345      3349.538      -17151.807      1.0325585    
    567000   301.59064     -18.862007      55269.445     -20568.189      3373.8885     -17194.301      1.0321699    
    568000   311.26755     -463.77775      55563.632     -20542.917      3482.1439     -17060.773      1.026705     
    569000   299.32623      363.0603       55052.497     -20521.022      3348.5566     -17172.466      1.0362374    
    570000   303.08244      156.1053       55130.904     -20726.515      3390.5773     -17335.937      1.0347637    
    571000   298.92245     -178.56683      55211.383     -20546.873      3344.0395     -17202.834      1.0332554    
    572000   296.55931      335.62585      54991.447     -20606.458      3317.6031     -17288.855      1.0373878    
    573000   308.69422      130.04165      54888.9       -20556.15       3453.3561     -17102.794      1.0393259    
    574000   299.10088     -447.69938      55071.656     -20485.662      3346.0355     -17139.626      1.0358769    
    575000   300.66963     -388.81589      55500.02      -20586.995      3363.5851     -17223.41       1.0278817    
    576000   299.22248     -59.176959      55298.994     -20644.402      3347.396      -17297.006      1.0316184    
    577000   295.83978     -127.51836      55285.602     -20488.933      3309.5537     -17179.38       1.0318683    
    578000   296.97092      396.34215      55194.815     -20640.318      3322.2078     -17318.11       1.0335655    
    579000   297.75618      31.654525      55296.57      -20637.589      3330.9925     -17306.597      1.0316636    
    580000   297.50925      1138.9807      54633.225     -20569.444      3328.2301     -17241.214      1.0441898    
    581000   301.5911      -389.23418      54900.857     -20695.819      3373.8936     -17321.925      1.0390996    
    582000   298.55502     -521.71976      55041.45      -20693.517      3339.9291     -17353.587      1.0364454    
    583000   302.41315      390.64061      54930.19      -20613.364      3383.0899     -17230.274      1.0385447    
    584000   292.56865      251.25437      55011.687     -20660.724      3272.9597     -17387.764      1.0370061    
    585000   298.42862     -263.25545      54727.549     -20536.092      3338.515      -17197.577      1.0423901    
    586000   304.2853       497.10846      54813.825     -20528.256      3404.0336     -17124.222      1.0407494    
    587000   296.70561      49.206509      55093.762     -20491.259      3319.2397     -17172.02       1.0354613    
    588000   305.08569      271.69395      54860.9       -20638.678      3412.9876     -17225.69       1.0398564    
    589000   306.38925      240.32015      54793.849     -20657.697      3427.5704     -17230.126      1.0411289    
    590000   298.41057      321.51136      54486.54      -20529.617      3338.3131     -17191.303      1.0470009    
    591000   298.39216     -227.40155      54780.675     -20532.07       3338.1072     -17193.962      1.0413792    
    592000   296.1545       274.1257       54638.647     -20515.978      3313.0745     -17202.904      1.0440862    
    593000   303.86385      968.96385      54749.584     -20448.985      3399.3189     -17049.666      1.0419706    
    594000   294.16397     -129.74717      54619.424     -20627.049      3290.8065     -17336.242      1.0444537    
    595000   302.74822      335.16471      54878.032     -20593.162      3386.8383     -17206.324      1.0395318    
    596000   295.05009      490.75135      54411.043     -20657.917      3300.7195     -17357.198      1.0484537    
    597000   301.20284      160.54515      54857.684     -20630.762      3369.5502     -17261.212      1.0399174    
    598000   300.22272      157.74239      54945.185     -20597.66       3358.5855     -17239.074      1.0382613    
    599000   304.08602     -307.20975      55296.111     -20622.54       3401.8043     -17220.736      1.0316722    
    600000   302.12388      548.69335      54751.841     -20589.903      3379.8538     -17210.049      1.0419277    
    600010   302.03438     -451.31997      54766.433     -20589.551      3378.8526     -17210.698      1.04165      
Loop time of 8472.36 on 4 procs for 300000 steps with 5541 atoms

Performance: 6.119 ns/day, 3.922 hours/ns, 35.409 timesteps/s, 196.203 katom-step/s
309.0% CPU use with 1 MPI tasks x 4 OpenMP threads

MPI task timing breakdown:
Section |  min time  |  avg time  |  max time  |%varavg| %total
---------------------------------------------------------------
Pair    | 196.08     | 196.08     | 196.08     |   0.0 |  2.31
Bond    | 3.1132     | 3.1132     | 3.1132     |   0.0 |  0.04
Kspace  | 3896.6     | 3896.6     | 3896.6     |   0.0 | 45.99
Neigh   | 0.49421    | 0.49421    | 0.49421    |   0.0 |  0.01
Comm    | 90.092     | 90.092     | 90.092     |   0.0 |  1.06
Output  | 1.1124     | 1.1124     | 1.1124     |   0.0 |  0.01
Modify  | 4252.2     | 4252.2     | 4252.2     |   0.0 | 50.19
Other   |            | 32.69      |            |       |  0.39

Nlocal:           5541 ave        5541 max        5541 min
Histogram: 1 0 0 0 0 0 0 0 0 0
Nghost:          35445 ave       35445 max       35445 min
Histogram: 1 0 0 0 0 0 0 0 0 0
Neighs:              0 ave           0 max           0 min
Histogram: 1 0 0 0 0 0 0 0 0 0

Total # of neighbors = 0
Ave neighs/atom = 0
Ave special neighs/atom = 2.4872767
Neighbor list builds = 27903
Dangerous builds = 0

undump npt_traj
undump npt_dcd
unfix mynpt_standard
unfix thermo_avg_npt

write_restart npt_complete.restart
System init for write_restart ...
PPPM initialization ...
  extracting TIP4P info from pair style
  using 12-bit tables for long-range coulomb
  G vector (1/distance) = 0.28816514
  grid = 50 50 50
  stencil order = 5
  estimated absolute RMS force accuracy = 0.0003326162
  estimated relative force accuracy = 1.0016638e-06
  using double precision FFTW3
  3d grid and FFT values/proc = 205379 125000
Generated 0 of 3 mixed pair_coeff terms from geometric mixing rule
write_data npt_complete.data
System init for write_data ...
PPPM initialization ...
  extracting TIP4P info from pair style
  using 12-bit tables for long-range coulomb
  G vector (1/distance) = 0.28816514
  grid = 50 50 50
  stencil order = 5
  estimated absolute RMS force accuracy = 0.0003326162
  estimated relative force accuracy = 1.0016638e-06
  using double precision FFTW3
  3d grid and FFT values/proc = 205379 125000
Generated 0 of 3 mixed pair_coeff terms from geometric mixing rule
WARNING: Not all mixed pair coeffs generated from mixing. Use write_data with 'pair ij' option to store all pair coeffs. (src/write_data.cpp:364)

# CRITICAL: Save NPT checkpoint for production restart capability
write_restart npt_equilibration_complete.restart
System init for write_restart ...
PPPM initialization ...
  extracting TIP4P info from pair style
  using 12-bit tables for long-range coulomb
  G vector (1/distance) = 0.28816514
  grid = 50 50 50
  stencil order = 5
  estimated absolute RMS force accuracy = 0.0003326162
  estimated relative force accuracy = 1.0016638e-06
  using double precision FFTW3
  3d grid and FFT values/proc = 205379 125000
Generated 0 of 3 mixed pair_coeff terms from geometric mixing rule
write_data npt_equilibration_complete.data
System init for write_data ...
PPPM initialization ...
  extracting TIP4P info from pair style
  using 12-bit tables for long-range coulomb
  G vector (1/distance) = 0.28816514
  grid = 50 50 50
  stencil order = 5
  estimated absolute RMS force accuracy = 0.0003326162
  estimated relative force accuracy = 1.0016638e-06
  using double precision FFTW3
  3d grid and FFT values/proc = 205379 125000
Generated 0 of 3 mixed pair_coeff terms from geometric mixing rule
WARNING: Not all mixed pair coeffs generated from mixing. Use write_data with 'pair ij' option to store all pair coeffs. (src/write_data.cpp:364)

variable current_dens equal density
variable current_vol equal vol
variable current_press equal press
variable current_temp equal temp
print ""

print "NPT equilibration complete (1000 ps total):"
NPT equilibration complete (1000 ps total):
print "  Temperature: ${current_temp} K"
  Temperature: 302.034378913063 K
print "  Density:     ${current_dens} g/cmÂ³"
  Density:     1.04165004189219 g/cm³
print "  Pressure:    ${current_press} atm"
  Pressure:    -451.319969182616 atm
print "  Volume:      ${current_vol} Ã…Â³"
  Volume:      54766.4333719691 …³
print ""

print "âœ… CHECKPOINT: NPT equilibration complete"
œ… CHECKPOINT: NPT equilibration complete
print "   Files saved:"
   Files saved:
print "     - npt_complete.restart (legacy name)"
     - npt_complete.restart (legacy name)
print "     - npt_equilibration_complete.restart (for production restart)"
     - npt_equilibration_complete.restart (for production restart)
print "     - npt_equilibration_complete.data (structure file)"
     - npt_equilibration_complete.data (structure file)
print "     - npt_equilibration_thermo.dat (thermodynamics)"
     - npt_equilibration_thermo.dat (thermodynamics)
print ""


# Checkpoint: Verify density
if "${current_dens} < 0.85 || ${current_dens} > 1.15" then     "print 'ERROR: Density outside expected range (0.85-1.15 g/cmÂ³)'"     "print 'Current density: ${current_dens} g/cmÂ³'"     "quit 1"

print "âœ“ Density validation PASSED: ${current_dens} g/cmÂ³"
œ“ Density validation PASSED: 1.04165004189219 g/cm³

print ""


# ğŸ”§ CHECKPOINT #4: Final validation before production
variable current_dens equal density
variable current_press equal press
variable current_vol equal vol
variable current_boxsize equal vol^(1.0/3.0)

print ""

print "NPT equilibration complete. FINAL VALIDATION:"
NPT equilibration complete. FINAL VALIDATION:
print "  Density:  ${current_dens} g/cmÂ³"
  Density:  1.04165004189219 g/cm³
print "  Pressure: ${current_press} atm"
  Pressure: -451.319969182616 atm
print "  Volume:   ${current_vol} Ã…Â³"
  Volume:   54766.4333719691 …³
print "  Box size: ${current_boxsize} Ã…"
  Box size: 37.9756153279488 …
print ""

print "âœ… CHECKPOINT: NPT equilibration complete (1000 ps)"
œ… CHECKPOINT: NPT equilibration complete (1000 ps)
print "   Creating restart file: npt_equilibration_complete.restart"
   Creating restart file: npt_equilibration_complete.restart
print "   This checkpoint allows restarting from production stage if needed"
   This checkpoint allows restarting from production stage if needed
print ""


# Save NPT checkpoint for production restart capability
write_restart npt_equilibration_complete.restart
System init for write_restart ...
PPPM initialization ...
  extracting TIP4P info from pair style
  using 12-bit tables for long-range coulomb
  G vector (1/distance) = 0.28816514
  grid = 50 50 50
  stencil order = 5
  estimated absolute RMS force accuracy = 0.0003326162
  estimated relative force accuracy = 1.0016638e-06
  using double precision FFTW3
  3d grid and FFT values/proc = 205379 125000
Generated 0 of 3 mixed pair_coeff terms from geometric mixing rule
write_data npt_equilibration_complete.data
System init for write_data ...
PPPM initialization ...
  extracting TIP4P info from pair style
  using 12-bit tables for long-range coulomb
  G vector (1/distance) = 0.28816514
  grid = 50 50 50
  stencil order = 5
  estimated absolute RMS force accuracy = 0.0003326162
  estimated relative force accuracy = 1.0016638e-06
  using double precision FFTW3
  3d grid and FFT values/proc = 205379 125000
Generated 0 of 3 mixed pair_coeff terms from geometric mixing rule
WARNING: Not all mixed pair coeffs generated from mixing. Use write_data with 'pair ij' option to store all pair coeffs. (src/write_data.cpp:364)

print "âœ… NPT checkpoint saved successfully"
œ… NPT checkpoint saved successfully
print "   Files created:"
   Files created:
print "     - npt_equilibration_complete.restart (for continuation)"
     - npt_equilibration_complete.restart (for continuation)
print "     - npt_equilibration_complete.data (structure file)"
     - npt_equilibration_complete.data (structure file)
print ""


if "${current_dens} < 0.80" then     "print 'ğŸ”´ ERROR: Density ${current_dens} g/cmÂ³ is TOO LOW (gas phase)!'"     "print 'Expected: 0.95-1.05 g/cmÂ³ for liquid water'"     "print ''"     "print 'Possible causes:'"     "print '  1. System escaped to gas phase during equilibration'"     "print '  2. PPPM grid artifacts occurred later in simulation'"     "print '  3. Initial system was not properly solvated'"     "quit 1"

if "${current_dens} > 1.20" then     "print 'ğŸ”´ ERROR: Density ${current_dens} g/cmÂ³ is TOO HIGH (over-compressed)!'"     "print 'Expected: 0.95-1.05 g/cmÂ³ for liquid water'"     "print ''"     "print 'Possible causes:'"     "print '  1. Barostat not converging properly'"     "print '  2. System trapped in metastable compressed state'"     "quit 1"

print "âœ… Density validation PASSED: ${current_dens} g/cmÂ³"
œ… Density validation PASSED: 1.04165004189219 g/cm³
print "Current density: ${current_dens} g/cmÂ³"
Current density: 1.04165004189219 g/cm³

#==============================================================================
# STAGE 4: Production MD (4000 ps = 4 ns)
#==============================================================================
print ""

print "===== STAGE 4: Production MD (4000 ps = 4 ns, GPU) ====="
===== STAGE 4: Production MD (4000 ps = 4 ns, GPU) =====
print "Main data collection phase - RDF, MSD, trajectories"
Main data collection phase - RDF, MSD, trajectories
print ""

print "Pressure control strategy:"
Pressure control strategy:
print "  â€¢ Using MTK barostat for better ensemble accuracy"
  €¢ Using MTK barostat for better ensemble accuracy
print "  â€¢ Tdamp = 100 fs (standard for NosÃ©-Hoover)"
  €¢ Tdamp = 100 fs (standard for Nos©-Hoover)
print "  â€¢ Pdamp = 1000 fs (tighter control for stable production)"
  €¢ Pdamp = 1000 fs (tighter control for stable production)
print ""


# Production NPT with MTK barostat and tighter pressure control
# Using smaller pdamp (1000 fs vs 2000 fs) for more stable pressure
# ğŸ”§ CRITICAL: Using npt/gpu instead of npt for FULL GPU acceleration
fix mynpt all npt/gpu temp 300.0 300.0 100.0 iso 1.0 1.0 1000.0 mtk yes

# Main trajectory dump (every 1 ps for analysis)
# Trajectory output (every 1 ps) - using wrapped coordinates for proper visualization
dump prod_traj all custom 1000 production.lammpstrj id type xu yu zu
dump_modify prod_traj sort id

# DCD dump (every 0.5 ps for smooth visualization)
dump prod_dcd all dcd 500 production.dcd
dump_modify prod_dcd unwrap yes

# Detailed thermodynamics (every 1 ps)
fix thermo_avg all ave/time 100 10 1000 v_epsilon_co v_temp v_press v_pe v_ke v_etotal v_vol v_dens     file production_thermo.dat

# Very detailed thermodynamics (every 0.1 ps for fluctuation analysis)
fix thermo_detailed all ave/time 10 10 100 v_temp v_press v_pe v_ke v_vol v_dens     file production_detailed_thermo.dat

# Compute RDFs on-the-fly (C60-water, C60-C60, water-water)
# Syntax: compute ID group-ID rdf Nbin type1 type2 [cutoff]
# Type 1=C, Type 2=O, Type 3=H
compute rdf_CO all rdf 150 1 2  # C-O pairs (C60-water)
compute rdf_CC all rdf 150 1 1  # C-C pairs (C60-C60)
compute rdf_OO all rdf 150 2 2  # O-O pairs (water-water)

# Average RDFs over production run (every 10 ps)
# FIXED: Explicit column indexing (RDF outputs [1]=r, [2]=g(r), [3]=coordination)
fix rdf_CO_avg all ave/time 1000 10 10000 c_rdf_CO[1] c_rdf_CO[2] c_rdf_CO[3] file rdf_CO.dat mode vector
fix rdf_CC_avg all ave/time 1000 10 10000 c_rdf_CC[1] c_rdf_CC[2] c_rdf_CC[3] file rdf_CC.dat mode vector
fix rdf_OO_avg all ave/time 1000 10 10000 c_rdf_OO[1] c_rdf_OO[2] c_rdf_OO[3] file rdf_OO.dat mode vector

# Compute MSD for water oxygen (diffusion analysis)
# Need to use the oxygen group defined earlier
compute msd_water oxygen msd
# MSD compute outputs: [1]=dxÂ², [2]=dyÂ², [3]=dzÂ², [4]=total rÂ²
fix msd_avg all ave/time 100 10 1000 c_msd_water[1] c_msd_water[2] c_msd_water[3] c_msd_water[4] file msd_water.dat

# Dump images every 20 ps for visualization
dump prod_img all image 10000 production_*.ppm type type     axes yes 0.8 0.02 view 60 30 zoom 1.5     box no 0.01 shiny 0.5
dump_modify prod_img pad 6 backcolor white

run 2000000  # 4000 ps = 4 ns at 2 fs timestep
PPPM initialization ...
  extracting TIP4P info from pair style
  using 12-bit tables for long-range coulomb
  G vector (1/distance) = 0.28816514
  grid = 50 50 50
  stencil order = 5
  estimated absolute RMS force accuracy = 0.0003326162
  estimated relative force accuracy = 1.0016638e-06
  using double precision FFTW3
  3d grid and FFT values/proc = 205379 125000
Generated 0 of 3 mixed pair_coeff terms from geometric mixing rule
Neighbor list info ...
  update: every = 1 steps, delay = 5 steps, check = yes
  max neighbors/atom: 2000, page size: 100000
  master list distance cutoff = 14.3092
  ghost atom cutoff = 18
  binsize = 7.1546, bins = 6 6 6
  3 neighbor lists, perpetual/occasional/extra = 0 3 0
  (1) compute rdf, occasional
      attributes: half, newton off
      pair build: half/bin/newtoff
      stencil: full/bin/3d
      bin: standard
  (2) compute rdf, occasional
      attributes: half, newton off
      pair build: half/bin/newtoff
      stencil: full/bin/3d
      bin: standard
  (3) compute rdf, occasional
      attributes: half, newton off
      pair build: half/bin/newtoff
      stencil: full/bin/3d
      bin: standard
Per MPI rank memory allocation (min/avg/max) = 58.91 | 58.91 | 58.91 Mbytes
   Step          Temp          Press          Volume         PotEng         KinEng         TotEng        Density    
    600010   302.03438     -437.17203      54766.433     -20589.574      3378.8526     -17210.721      1.04165      
    601000   296.12837     -127.19145      54841.128     -20732.257      3312.7822     -17419.474      1.0402313    
    602000   298.9395       239.14547      54721.067     -20631.3        3344.2303     -17287.07       1.0425136    
    603000   304.49353     -441.94147      54858.233     -20553.174      3406.363      -17146.811      1.0399069    
    604000   297.22701     -236.53428      55247.738     -20544.445      3325.0727     -17219.372      1.0325754    
    605000   300.30595      737.52772      54891.688     -20435.991      3359.5167     -17076.475      1.0392731    
    606000   304.51263      701.8631       54864.813     -20469.866      3406.5767     -17063.289      1.0397822    
    607000   291.70646      724.71406      54414.345     -20496.309      3263.3143     -17232.995      1.04839      
    608000   302.33894      553.53525      54881.058     -20583.702      3382.2598     -17201.442      1.0394745    
    609000   299.39586     -638.99002      55470.325     -20563.322      3349.3355     -17213.987      1.028432     
    610000   301.28894     -304.21168      55419.198     -20677.719      3370.5134     -17307.206      1.0293808    
    611000   299.68826      217.23651      54517.407     -20658.055      3352.6066     -17305.449      1.0464081    
    612000   301.85374      265.98862      54900.636     -20555.925      3376.8318     -17179.093      1.0391038    
    613000   299.17774      470.26494      54962.801     -20574.994      3346.8954     -17228.099      1.0379285    
    614000   304.44092      144.53969      54794.32      -20611.231      3405.7745     -17205.457      1.0411199    
    615000   302.97245      346.27383      54864.719     -20713.401      3389.3467     -17324.055      1.039784     
    616000   297.74526      444.16339      54912.645     -20614.119      3330.8703     -17283.249      1.0388765    
    617000   295.03644      200.74925      54223.064     -20642.226      3300.5667     -17341.659      1.0520884    
    618000   297.94761     -217.26022      54486.352     -20471.546      3333.134      -17138.412      1.0470045    
    619000   300.8317      -405.39298      55148.755     -20620.493      3365.3982     -17255.095      1.0344288    
    620000   297.90647     -64.548209      55168.619     -20724.01       3332.6738     -17391.337      1.0340563    
    621000   295.08712      1001.6525      54689.493     -20644.629      3301.1337     -17343.495      1.0431155    
    622000   305.5156       133.91766      54282.764     -20499.8        3417.7969     -17082.003      1.0509313    
    623000   307.82169     -620.25123      54893.329     -20651.657      3443.5951     -17208.061      1.0392421    
    624000   296.72683      269.69933      55837.442     -20455.682      3319.4771     -17136.205      1.0216703    
    625000   298.14175     -54.001018      54860.547     -20596.667      3335.3058     -17261.362      1.0398631    
    626000   300.7999      -40.470028      54989.125     -20713.802      3365.0425     -17348.76       1.0374316    
    627000   302.8211      -490.37155      54947.284     -20604.895      3387.6536     -17217.241      1.0382216    
    628000   304.50412      219.36993      54480.118     -20606.245      3406.4815     -17199.764      1.0471243    
    629000   298.58255     -695.5517       55457.374     -20692.437      3340.237      -17352.2        1.0286722    
    630000   295.54802      292.1023       55120.72      -20563.447      3306.2899     -17257.157      1.0349549    
    631000   299.45037      116.04014      55314.951     -20684.848      3349.9453     -17334.902      1.0313208    
    632000   297.40281     -469.75988      55490.013     -20642.183      3327.0393     -17315.144      1.0280671    
    633000   302.25956     -354.28062      55395.687     -20671.183      3381.3717     -17289.811      1.0298177    
    634000   301.42556      429.34001      54850.306     -20555.194      3372.0417     -17183.152      1.0400572    
    635000   304.09182     -586.22641      55033.366     -20531.968      3401.8691     -17130.099      1.0365976    
    636000   299.4275       1072.3565      54622.579     -20560.582      3349.6894     -17210.893      1.0443933    
    637000   301.41345     -247.89206      54858.355     -20623.22       3371.9063     -17251.313      1.0399046    
    638000   296.27514     -230.52247      55092.888     -20582.743      3314.4241     -17268.319      1.0354777    
    639000   303.48488      428.14079      54710.813     -20466.044      3395.0793     -17070.965      1.042709     
    640000   297.95214      1303.8353      53965.124     -20654.364      3333.1847     -17321.18       1.0571171    
    641000   306.95325      620.47918      54861.586     -20650.107      3433.8799     -17216.227      1.0398434    
    642000   307.39109     -189.16036      54764.03      -20599.312      3438.778      -17160.534      1.0416957    
    643000   302.69441     -340.78483      55526.123     -20622.928      3386.2363     -17236.692      1.0273985    
    644000   310.30152      58.526934      55098.853     -20537.449      3471.3369     -17066.113      1.0353656    
    645000   295.35945     -428.99106      54828.405     -20649.721      3304.1803     -17345.541      1.0404727    
    646000   302.21496      280.88978      54828.176     -20477.785      3380.8727     -17096.913      1.040477     
    647000   298.52083     -272.53176      54663.754     -20544.862      3339.5466     -17205.315      1.0436067    
    648000   301.84942     -561.77832      55222.236     -20653.696      3376.7835     -17276.913      1.0330523    
    649000   302.58887     -190.47373      54981.104     -20655.946      3385.0556     -17270.89       1.037583     
    650000   303.11453     -24.699231      55130.235     -20425.709      3390.9362     -17034.773      1.0347763    
    651000   297.39147     -481.64138      55143.092     -20551.38       3326.9124     -17224.468      1.034535     
    652000   300.97921      82.912491      55526.342     -20550.99       3367.0485     -17183.942      1.0273945    
    653000   301.34731     -548.27421      55405.253     -20544.917      3371.1664     -17173.751      1.0296399    
    654000   297.04148     -712.56521      54908.522     -20399.549      3322.9971     -17076.552      1.0389545    
    655000   301.12084     -188.86787      55162.5       -20587.174      3368.6328     -17218.541      1.034171     
    656000   294.78766     -1075.5822      54614.321     -20641.897      3297.7837     -17344.114      1.0445513    
    657000   296.29194      125.60253      54894.692     -20590.693      3314.6121     -17276.081      1.0392163    
    658000   294.46684     -698.97307      54556.574     -20659.494      3294.1947     -17365.299      1.0456569    
    659000   297.38232     -642.43015      55104.804     -20653.672      3326.8101     -17326.861      1.0352538    
    660000   298.8999       414.12465      54860.238     -20579.873      3343.7873     -17236.086      1.0398689    
    661000   299.79706      618.22359      55208.085     -20549.925      3353.8237     -17196.101      1.0333171    
    662000   306.86142     -316.60468      55712.93      -20618.856      3432.8526     -17186.003      1.0239537    
    663000   314.86925     -353.68246      55840.318     -20572.596      3522.436      -17050.16       1.0216177    
    664000   304.7494       632.44883      54958.554     -20661.824      3409.2255     -17252.599      1.0380087    
    665000   288.96224      564.80938      55278.259     -20685.52       3232.6148     -17452.905      1.0320053    
    666000   305.63326      621.25064      54661.203     -20595.158      3419.1132     -17176.045      1.0436554    
    667000   303.8267       646.0786       54743.334     -20563.4        3398.9033     -17164.497      1.0420896    
    668000   305.86173     -276.94352      55163.997     -20395.642      3421.6691     -16973.973      1.0341429    
    669000   301.98095     -637.03512      55212.776     -20597.789      3378.2549     -17219.535      1.0332293    
    670000   300.08447     -526.3042       54820.736     -20596.647      3357.039      -17239.608      1.0406182    
    671000   302.36199     -214.55533      54963.708     -20703.499      3382.5176     -17320.981      1.0379114    
    672000   294.75112     -359.37248      54619.281     -20520.348      3297.3749     -17222.973      1.0444564    
    673000   303.18794      317.98817      54427.256     -20552.642      3391.7575     -17160.885      1.0481414    
    674000   301.24545      87.195749      54711.367     -20676.287      3370.0268     -17306.26       1.0426984    
    675000   310.27828     -268.53538      55274.622     -20567.981      3471.077      -17096.904      1.0320732    
    676000   299.5961       587.86659      54954.528     -20570.789      3351.5756     -17219.213      1.0380848    
    677000   307.0358       139.7444       54974.881     -20694.456      3434.8034     -17259.653      1.0377004    
    678000   298.39103     -659.97815      55069.63      -20584.036      3338.0946     -17245.942      1.035915     
    679000   292.16409      155.57948      54918.459     -20482.762      3268.4338     -17214.328      1.0387665    
    680000   298.21558     -319.29685      54444.276     -20592.114      3336.1317     -17255.982      1.0478137    
    681000   294.74924      263.15514      54731.408     -20590.318      3297.3538     -17292.964      1.0423166    
    682000   300.9536       132.82744      55043.602     -20562.541      3366.7619     -17195.779      1.0364049    
    683000   295.0509       330.96232      55220.001     -20610.771      3300.7285     -17310.043      1.0330941    
    684000   298.05623     -276.18793      55414.683     -20517.381      3334.3491     -17183.032      1.0294647    
    685000   295.98028     -405.07728      55230.717     -20553.96       3311.1255     -17242.835      1.0328937    
    686000   300.00412      266.5585       55276.491     -20439.842      3356.1401     -17083.702      1.0320383    
    687000   308.07876     -355.01237      54818.305     -20579.542      3446.4709     -17133.071      1.0406644    
    688000   293.53062      382.79379      54926.082     -20573.446      3283.7212     -17289.725      1.0386224    
    689000   297.40046      717.51939      54888.083     -20590.809      3327.013      -17263.796      1.0393414    
    690000   295.1236       311.97072      54811.526     -20657.544      3301.5418     -17356.002      1.0407931    
    691000   298.24421     -272.94162      54963.644     -20517.759      3336.4521     -17181.307      1.0379126    
    692000   296.56026      143.10857      54959.079     -20588.809      3317.6137     -17271.196      1.0379988    
    693000   301.95673     -150.10067      54753.675     -20706.707      3377.9839     -17328.724      1.0418928    
    694000   292.48438     -75.836642      55245.931     -20522.262      3272.017      -17250.245      1.0326092    
    695000   296.02153      542.47573      54675.587     -20606.235      3311.587      -17294.647      1.0433808    
    696000   304.67978      589.49776      55232.906     -20527.056      3408.4466     -17118.61       1.0328527    
    697000   297.16969     -85.750565      54967.368     -20625.829      3324.4314     -17301.398      1.0378423    
    698000   306.29779      131.44641      54519.12      -20733.277      3426.5473     -17306.73       1.0463753    
    699000   301.76252     -13.969236      54483.415     -20556.088      3375.8114     -17180.277      1.047061     
    700000   299.57633      154.33845      54778.209     -20592.997      3351.3545     -17241.643      1.0414261    
    701000   301.21895     -58.052519      54752.643     -20621.396      3369.7304     -17251.666      1.0419124    
    702000   304.15507      248.09047      54919.59      -20460.4        3402.5767     -17057.823      1.0387451    
    703000   302.53743     -170.49911      54953.311     -20612.188      3384.4802     -17227.708      1.0381077    
    704000   291.58073     -159.48872      55391.691     -20605.652      3261.9078     -17343.744      1.029892     
    705000   294.2476      -763.84929      54493.884     -20714.22       3291.7421     -17422.478      1.0468598    
    706000   297.28589     -99.525503      54695.886     -20610.664      3325.7313     -17284.932      1.0429936    
    707000   298.38705     -359.24256      54642.136     -20532.359      3338.05       -17194.309      1.0440195    
    708000   301.78752      121.16025      55073.446     -20564.538      3376.091      -17188.447      1.0358432    
    709000   298.79887      518.94057      54516.503     -20445.701      3342.657      -17103.044      1.0464255    
    710000   299.75664      334.6363       54467.46      -20643.049      3353.3715     -17289.678      1.0473677    
    711000   300.71457      669.53092      54992.102     -20581.048      3364.0879     -17216.96       1.0373755    
    712000   295.09992     -332.67818      54992.445     -20628.173      3301.2769     -17326.896      1.037369     
    713000   296.42535     -390.46763      55043.479     -20420.873      3316.1045     -17104.768      1.0364072    
    714000   294.76686      41.431708      54988.817     -20632.682      3297.551      -17335.131      1.0374374    
    715000   294.69503      39.559128      54935.717     -20480.907      3296.7475     -17184.159      1.0384402    
    716000   306.25915      103.4744       55750.31      -20556.866      3426.115      -17130.751      1.0232671    
    717000   302.22108      1483.6745      54826.82      -20683.834      3380.9412     -17302.893      1.0405028    
    718000   302.37549     -999.0192       55585.411     -20533.005      3382.6686     -17150.336      1.0263027    
    719000   304.41846      310.54037      54778.46      -20537.211      3405.5233     -17131.688      1.0414214    
    720000   296.05569     -107.30335      54752.222     -20459.905      3311.9691     -17147.936      1.0419204    
    721000   302.56482      15.23857       54831.604     -20596.372      3384.7866     -17211.586      1.040412     
    722000   299.57838     -438.07286      55276.304     -20658.578      3351.3774     -17307.201      1.0320418    
    723000   307.60556     -364.2337       54747.346     -20727.269      3441.1773     -17286.092      1.0420132    
    724000   297.09705     -84.164207      54450.555     -20598.533      3323.6188     -17274.914      1.0476929    
    725000   295.96216     -40.474368      55223.546     -20698.012      3310.9228     -17387.09       1.0330278    
    726000   292.69383     -359.80555      54964.531     -20609.796      3274.36       -17335.436      1.0378958    
    727000   299.6188       208.95048      54861.78      -20572.232      3351.8295     -17220.403      1.0398397    
    728000   301.11275     -176.66158      55123.304     -20479.162      3368.5424     -17110.62       1.0349064    
    729000   306.45572      28.601747      54663.397     -20662.395      3428.314      -17234.081      1.0436135    
    730000   300.9736      -256.72274      54962.097     -20456.916      3366.9857     -17089.931      1.0379418    
    731000   305.96104      66.115712      55399.83      -20553.146      3422.7801     -17130.366      1.0297407    
    732000   303.39943     -341.9333       55285.116     -20547.743      3394.1234     -17153.62       1.0318773    
    733000   303.71431     -71.838728      55343.401     -20550.243      3397.646      -17152.597      1.0307906    
    734000   302.57068     -135.81656      55002.141     -20580.778      3384.8521     -17195.925      1.0371861    
    735000   307.79348     -167.80716      54858.36      -20564.885      3443.2795     -17121.606      1.0399045    
    736000   302.35579      379.7874       54841.835     -20532.4        3382.4482     -17149.952      1.0402179    
    737000   298.71055     -438.75463      55352.662     -20690.703      3341.669      -17349.034      1.0306181    
    738000   305.95595      308.1273       55438.064     -20604.3        3422.7232     -17181.577      1.0290305    
    739000   298.8606      -181.16599      55232.49      -20615.333      3343.3475     -17271.986      1.0328605    
    740000   302.0612      -1275.3419      55222.255     -20725.008      3379.1526     -17345.856      1.0330519    
    741000   304.84594      609.10999      54744.748     -20708.833      3410.3055     -17298.528      1.0420627    
    742000   305.58098     -127.9529       54637.906     -20524.601      3418.5284     -17106.072      1.0441004    
    743000   296.41155      724.64443      54407.609     -20663.227      3315.9501     -17347.277      1.0485199    
    744000   305.57505      625.49386      54470.382     -20612.71       3418.462      -17194.248      1.0473115    
    745000   298.20688      503.89551      54856.757     -20497.221      3336.0344     -17161.187      1.0399349    
    746000   295.17025      89.17838       55101.347     -20533.287      3302.0637     -17231.223      1.0353188    
    747000   304.44044     -178.13571      54690.106     -20573.204      3405.7692     -17167.434      1.0431038    
    748000   296.77226     -584.76116      55119.891     -20569.944      3319.9854     -17249.958      1.0349704    
    749000   303.62039     -740.21519      55202.001     -20580.595      3396.5953     -17184          1.033431     
    750000   298.67533      335.82779      55028.248     -20364.185      3341.2749     -17022.91       1.0366941    
    751000   307.45712     -181.16049      54692.515     -20397.485      3439.5167     -16957.969      1.0430579    
    752000   298.58069     -93.612966      54756.736     -20450.626      3340.2163     -17110.41       1.0418345    
    753000   300.37736     -126.74719      54975.017     -20415.317      3360.3156     -17055.002      1.0376979    
    754000   304.52057     -56.446488      54940.352     -20549.401      3406.6656     -17142.735      1.0383526    
    755000   299.69096      345.3466       55000.941     -20508.204      3352.6368     -17155.567      1.0372088    
    756000   301.55724     -640.55697      54824.735     -20637.289      3373.5148     -17263.775      1.0405423    
    757000   293.34548      54.911538      55163.897     -20576.804      3281.6501     -17295.154      1.0341448    
    758000   299.75689      373.25371      55160.362     -20614.673      3353.3744     -17261.299      1.0342111    
    759000   304.22661      12.820017      54726.91      -20585.167      3403.377      -17181.79       1.0424023    
    760000   301.70695      312.07016      54598.527     -20557.627      3375.1896     -17182.437      1.0448534    
    761000   297.72568      143.32681      54586.344     -20567.619      3330.6513     -17236.968      1.0450866    
    762000   303.1095       261.83969      54710.104     -20463.701      3390.8799     -17072.821      1.0427225    
    763000   300.405        561.29904      54780.632     -20526.437      3360.6248     -17165.812      1.04138      
    764000   309.81137     -99.185883      55294.901     -20440.445      3465.8536     -16974.591      1.0316947    
    765000   301.31917     -292.86025      55293.703     -20555.673      3370.8516     -17184.822      1.0317171    
    766000   301.44385     -336.83589      55500.882     -20577.115      3372.2464     -17204.868      1.0278658    
    767000   288.51457      620.51247      55281.396     -20556.101      3227.6067     -17328.495      1.0319468    
    768000   299.42818      379.14285      54913.026     -20610.751      3349.6971     -17261.054      1.0388693    
    769000   301.77871      486.33439      55547.7       -20554.827      3375.9924     -17178.835      1.0269994    
    770000   298.51341      33.110013      55057.584     -20535.871      3339.4636     -17196.407      1.0361417    
    771000   303.45644     -676.20537      54965.397     -20646.01       3394.7611     -17251.248      1.0378795    
    772000   295.58308      569.43649      55420.589     -20578.663      3306.682      -17271.981      1.0293549    
    773000   306.72462      799.88155      54452.71      -20584.859      3431.3222     -17153.537      1.0476514    
    774000   301.46031      202.04332      54313.849     -20667.287      3372.4305     -17294.857      1.0503299    
    775000   301.77501      311.59064      55071.221     -20555.626      3375.9511     -17179.675      1.0358851    
    776000   299.11461      589.81845      54932.993     -20579.685      3346.1892     -17233.496      1.0384917    
    777000   302.28815      1142.6386      55140.854     -20455.253      3381.6915     -17073.562      1.034577     
    778000   303.60341     -1191.8273      55575.634     -20607.498      3396.4053     -17211.093      1.0264832    
    779000   299.12828      82.02063       55076.846     -20442.817      3346.3422     -17096.475      1.0357793    
    780000   300.29153      174.1344       55123.525     -20533.191      3359.3554     -17173.835      1.0349022    
    781000   287.23791     -118.65367      54755.467     -20744.932      3213.3248     -17531.607      1.0418587    
    782000   306.38426      223.50753      55387.945     -20570.412      3427.5146     -17142.897      1.0299616    
    783000   297.4342       323.37406      55105.001     -20612.456      3327.3905     -17285.066      1.0352501    
    784000   298.7514       177.50099      55128.151     -20627.923      3342.1259     -17285.797      1.0348154    
    785000   295.16895      48.726274      55140.824     -20455.089      3302.0491     -17153.04       1.0345775    
    786000   300.16405      437.71071      55019.299     -20466.301      3357.9293     -17108.372      1.0368627    
    787000   299.55577      772.89224      55072.056     -20566.509      3351.1245     -17215.385      1.0358694    
    788000   303.02957      74.519324      54776.418     -20539.574      3389.9857     -17149.589      1.0414602    
    789000   305.54356      246.28075      55194.666     -20609.479      3418.1097     -17191.37       1.0335683    
    790000   294.32426     -154.32598      55067.42      -20541.733      3292.5997     -17249.134      1.0359566    
    791000   303.57262      1088.5471      54698.105     -20531.273      3396.0608     -17135.212      1.0429513    
    792000   297.54084      451.94035      55355.087     -20463.856      3328.5834     -17135.273      1.030573     
    793000   299.54681     -496.98592      54947.045     -20571.862      3351.0242     -17220.837      1.0382261    
    794000   300.31882     -497.2751       54905.97      -20628.16       3359.6606     -17268.5        1.0390028    
    795000   305.47259      1.4832552      54725.385     -20619.807      3417.3158     -17202.491      1.0424314    
    796000   300.30562      67.771178      55140.7       -20524.489      3359.513      -17164.976      1.0345799    
    797000   301.81862     -18.109844      55402.829     -20493.152      3376.4388     -17116.714      1.0296849    
    798000   302.09626      349.04852      55136.258     -20576.242      3379.5448     -17196.697      1.0346632    
    799000   301.72054      605.22257      55298.789     -20578.95       3375.3417     -17203.608      1.0316222    
    800000   297.14533     -670.18073      54931.798     -20556.762      3324.1589     -17232.603      1.0385143    
    801000   301.61353     -464.309        55342.207     -20658.968      3374.1446     -17284.824      1.0308128    
    802000   298.47639     -235.14233      55023.404     -20603.628      3339.0495     -17264.578      1.0367853    
    803000   304.72855     -669.87336      55056.578     -20659.858      3408.9922     -17250.866      1.0361606    
    804000   300.35485     -411.68769      54888.409     -20578.099      3360.0637     -17218.036      1.0393352    
    805000   294.99808      319.909        55057.089     -20678.847      3300.1377     -17378.709      1.036151     
    806000   302.11453      306.07426      55786.284     -20504.283      3379.7493     -17124.533      1.0226072    
    807000   300.5479       537.0353       54748.83      -20570.195      3362.2234     -17207.971      1.041985     
    808000   300.75281      302.04226      54755.967     -20685.944      3364.5157     -17321.429      1.0418492    
    809000   307.11245     -99.339398      54543.477     -20651.299      3435.6609     -17215.638      1.045908     
    810000   288.19449     -769.88005      54914.534     -20639.783      3224.026      -17415.757      1.0388408    
    811000   297.75022      44.760897      54762.327     -20532.533      3330.9258     -17201.607      1.0417281    
    812000   301.77938      970.69405      54879.66      -20603.387      3376          -17227.387      1.0395009    
    813000   295.83413      753.79494      54702.51      -20593.134      3309.4905     -17283.643      1.0428673    
    814000   306.8444      -36.527251      54785.637     -20515.538      3432.6622     -17082.876      1.0412849    
    815000   295.77503     -303.76322      54557.932     -20695.545      3308.8294     -17386.716      1.0456309    
    816000   297.78638     -900.19625      54628.268     -20557.837      3331.3303     -17226.507      1.0442846    
    817000   297.70607     -938.22183      55552.282     -20596.438      3330.4318     -17266.006      1.0269148    
    818000   306.20619      553.11052      54649.338     -20600.949      3425.5226     -17175.426      1.0438819    
    819000   307.68993      628.39251      54729.082     -20748.091      3442.1211     -17305.97       1.0423609    
    820000   297.70145     -23.555291      54584.694     -20624.473      3330.3802     -17294.093      1.0451182    
    821000   300.26003     -315.55872      54726.345     -20695.353      3359.003      -17336.35       1.0424131    
    822000   298.80964      92.320305      54940.031     -20689.818      3342.7775     -17347.04       1.0383587    
    823000   309.05742      366.82462      55440.518     -20481.782      3457.4192     -17024.363      1.0289849    
    824000   296.55569      849.69157      54718.158     -20642.088      3317.5626     -17324.525      1.0425691    
    825000   299.33221      128.28435      55143.884     -20506.661      3348.6235     -17158.037      1.0345201    
    826000   299.97553     -266.89561      55392.202     -20557.812      3355.8203     -17201.992      1.0298825    
    827000   292.75388     -127.72866      54962.883     -20460.615      3275.0319     -17185.583      1.037927     
    828000   302.09715     -356.69743      54686.742     -20495.813      3379.5548     -17116.258      1.043168     
    829000   301.08435     -542.51731      55460.919     -20533.358      3368.2246     -17165.133      1.0286064    
    830000   298.6183       658.29596      54763.011     -20559.77       3340.637      -17219.133      1.0417151    
    831000   306.73159      84.157271      55131.788     -20567.04       3431.4002     -17135.639      1.0347471    
    832000   299.38417     -375.36967      54621.576     -20497.312      3349.2048     -17148.108      1.0444125    
    833000   299.61347     -211.83068      55243.474     -20630.392      3351.77       -17278.622      1.0326551    
    834000   301.06242     -39.879574      54889.538     -20572.499      3367.9793     -17204.52       1.0393139    
    835000   306.36112      951.2595       55296.193     -20524.694      3427.2558     -17097.438      1.0316706    
    836000   299.89791      313.76203      55010.653     -20540.074      3354.9519     -17185.122      1.0370256    
    837000   300.75132      339.63839      54945.634     -20511.455      3364.499      -17146.956      1.0382528    
    838000   299.21192      377.40963      54293.527     -20551.922      3347.2778     -17204.644      1.050723     
    839000   304.1107      -260.39812      54997.46      -20505.153      3402.0804     -17103.073      1.0372744    
    840000   304.46521     -39.415375      55136.588     -20512.467      3406.0462     -17106.421      1.034657     
    841000   295.66272      98.436166      54923.694     -20482.331      3307.573      -17174.758      1.0386675    
    842000   296.37796     -633.95774      55043.542     -20574.678      3315.5744     -17259.104      1.036406     
    843000   296.9043       782.9981       54898.687     -20627.029      3321.4625     -17305.567      1.0391406    
    844000   302.25704     -503.11719      55491.359     -20568.702      3381.3435     -17187.359      1.0280422    
    845000   301.00662     -282.47756      54693.087     -20714.503      3367.3551     -17347.148      1.0430469    
    846000   301.98106      147.42335      54412.109     -20506.537      3378.2561     -17128.281      1.0484331    
    847000   300.84582     -838.61272      54957.117     -20724.105      3365.5562     -17358.549      1.0380358    
    848000   303.7778      -505.88242      55361.897     -20644.454      3398.3562     -17246.097      1.0304462    
    849000   307.13744     -369.65733      54951.721     -20660.285      3435.9405     -17224.345      1.0381378    
    850000   304.29048     -692.98675      54841.71      -20470.232      3404.0915     -17066.14       1.0402203    
    851000   303.10577     -566.65934      55345.366     -20509.042      3390.8382     -17118.204      1.030754     
    852000   300.18395      287.60663      54939.967     -20632.954      3358.1519     -17274.802      1.0383599    
    853000   301.77801      729.06366      55162.977     -20541.215      3375.9846     -17165.231      1.034162     
    854000   300.06664     -352.99304      55026.576     -20553.786      3356.8396     -17196.947      1.0367256    
    855000   298.24365     -537.71545      55475.307     -20603.377      3336.4458     -17266.932      1.0283397    
    856000   304.25574      542.98486      54581.933     -20601.733      3403.7029     -17198.03       1.0451711    
    857000   297.98872     -11.362846      54889.228     -20640.988      3333.5938     -17307.395      1.0393197    
    858000   301.2059       451.17285      55318.774     -20552.158      3369.5844     -17182.574      1.0312495    
    859000   305.02709      974.53416      54731.821     -20538.209      3412.332      -17125.877      1.0423088    
    860000   300.31938      172.10757      55587.219     -20596.356      3359.6669     -17236.689      1.0262693    
    861000   296.60295     -423.93927      55227.882     -20644.837      3318.0913     -17326.745      1.0329467    
    862000   299.20656     -636.43163      54909.704     -20667.673      3347.2179     -17320.455      1.0389322    
    863000   303.30944      535.11178      54729.168     -20592.032      3393.1167     -17198.916      1.0423593    
    864000   311.37355     -369.38379      54948.785     -20611.549      3483.3297     -17128.22       1.0381932    
    865000   305.76626     -520.09242      54699.269     -20560.167      3420.6011     -17139.566      1.0429291    
    866000   304.33558      320.59485      55004.642     -20488.53       3404.5961     -17083.934      1.037139     
    867000   295.84405      211.66288      55313.698     -20560.615      3309.6015     -17251.014      1.0313441    
    868000   300.24363      166.57324      55132.218     -20632.594      3358.8195     -17273.774      1.034739     
    869000   305.52494     -461.14683      55366.755     -20641.383      3417.9014     -17223.481      1.0303558    
    870000   302.97677     -170.82398      55728.852     -20536.826      3389.3951     -17147.431      1.0236611    
    871000   298.90903      800.26187      54958.633     -20561.073      3343.8894     -17217.184      1.0380072    
    872000   303.08195      325.60155      54736.758     -20442.486      3390.5718     -17051.914      1.0422148    
    873000   301.1158       781.40396      54515.766     -20610.483      3368.5764     -17241.906      1.0464396    
    874000   305.27705      207.48064      54947.493     -20524.382      3415.1282     -17109.254      1.0382177    
    875000   295.64086     -36.856724      55066.803     -20565.041      3307.3284     -17257.713      1.0359682    
    876000   299.0361      -538.98668      55192.003     -20481.591      3345.311      -17136.28       1.0336182    
    877000   295.62955     -144.11986      54622.931     -20656.844      3307.2019     -17349.642      1.0443866    
    878000   297.58831     -124.85117      55051.9       -20688.86       3329.1146     -17359.746      1.0362487    
    879000   304.55214     -109.785        55075.219     -20614.558      3407.0187     -17207.539      1.0358099    
    880000   300.48108      446.26125      54916.289     -20535.54       3361.4759     -17174.064      1.0388076    
    881000   299.37342     -644.52795      55183.702     -20520.548      3349.0845     -17171.464      1.0337737    
    882000   302.60356      134.6031       54630.71      -20517.543      3385.22       -17132.323      1.0442379    
    883000   301.52365     -440.03856      54867.613     -20498.835      3373.1391     -17125.696      1.0397292    
    884000   296.22239      431.36841      54407.937     -20496.471      3313.8339     -17182.638      1.0485135    
    885000   296.07549     -388.49325      54673.08      -20459.163      3312.1906     -17146.973      1.0434286    
    886000   307.56976     -299.70101      55029.208     -20512.947      3440.7768     -17072.17       1.036676     
    887000   299.38272      218.77758      55055.477     -20675.733      3349.1886     -17326.544      1.0361813    
    888000   296.00595     -137.66822      55541.04      -20664.173      3311.4127     -17352.761      1.0271226    
    889000   312.09108     -272.05273      55165.651     -20509.088      3491.3567     -17017.731      1.0341119    
    890000   300.31683     -169.1687       54979.347     -20630.429      3359.6384     -17270.791      1.0376161    
    891000   298.53474     -488.37322      55187.317     -20508.581      3339.7022     -17168.879      1.0337059    
    892000   301.09655      233.78503      55032.229     -20522.769      3368.3612     -17154.407      1.0366191    
    893000   301.60131      284.40192      55349.031     -20593.968      3374.0078     -17219.96       1.0306858    
    894000   310.91507     -52.58551       54709.836     -20500.248      3478.2007     -17022.048      1.0427276    
    895000   301.2875      -88.353924      55074.4       -20471.744      3370.4973     -17101.246      1.0358253    
    896000   295.91672      120.87511      55103.486     -20587.056      3310.4145     -17276.642      1.0352786    
    897000   301.88368     -241.14557      55265.975     -20495.089      3377.1667     -17117.922      1.0322347    
    898000   295.13699      951.04736      54674.249     -20476.248      3301.6917     -17174.556      1.0434063    
    899000   301.01875     -305.68942      55228.559     -20562.916      3367.4908     -17195.425      1.032934     
    900000   299.75167      62.199357      55050.023     -20609.706      3353.316      -17256.39       1.036284     
    901000   298.2715      -52.584364      55160.833     -20506.912      3336.7573     -17170.154      1.0342022    
    902000   300.72584     -707.22867      55317.983     -20665.69       3364.214      -17301.476      1.0312642    
    903000   298.15488      210.69674      55498.091     -20524.783      3335.4527     -17189.33       1.0279175    
    904000   296.64885     -811.44606      54933.654     -20575.884      3318.6048     -17257.279      1.0384792    
    905000   298.03047      510.44929      54961.971     -20551.193      3334.0609     -17217.133      1.0379442    
    906000   294.52886      342.06397      54631.153     -20479.057      3294.8885     -17184.168      1.0442294    
    907000   297.58798     -15.018833      55167.004     -20457.538      3329.1108     -17128.427      1.0340866    
    908000   308.90867      509.23246      55041.231     -20640.219      3455.7552     -17184.464      1.0364495    
    909000   301.27922     -819.22449      54860.033     -20614.517      3370.4046     -17244.112      1.0398728    
    910000   300.4288       46.494607      54549.511     -20586.122      3360.8911     -17225.23       1.0457923    
    911000   301.25567      147.68629      55303.375     -20569.009      3370.1412     -17198.867      1.0315366    
    912000   307.13982     -348.19823      55415.598     -20600.406      3435.967      -17164.438      1.0294477    
    913000   296.19443     -132.53943      55148.278     -20562.519      3313.5213     -17248.998      1.0344377    
    914000   306.44759      156.79303      55593.521     -20511.165      3428.2231     -17082.942      1.026153     
    915000   302.53273      83.03327       55318.892     -20554.431      3384.4276     -17170.004      1.0312473    
    916000   298.49727     -70.429996      54854.961     -20543.98       3339.2831     -17204.697      1.039969     
    917000   299.33308     -702.51784      54964.997     -20517.849      3348.6332     -17169.216      1.037887     
    918000   295.04825     -483.7822       55085.061     -20514.122      3300.6989     -17213.423      1.0356248    
    919000   301.06407      460.53821      54931.218     -20526.107      3367.9977     -17158.109      1.0385253    
    920000   305.90682     -893.92252      55020.911     -20627.051      3422.1736     -17204.877      1.0368323    
    921000   294.19334     -357.37276      55272.311     -20493.225      3291.135      -17202.09       1.0321164    
    922000   297.16652      421.15705      54383.332     -20647.607      3324.3959     -17323.212      1.0489879    
    923000   300.21697     -42.2823        54675.342     -20524.988      3358.5213     -17166.467      1.0433855    
    924000   301.46634     -538.80373      54881.901     -20543.647      3372.4979     -17171.149      1.0394585    
    925000   293.27385      474.96183      54598.438     -20538.421      3280.8488     -17257.572      1.0448551    
    926000   301.14705     -321.89713      54824.209     -20558.792      3368.9261     -17189.866      1.0405523    
    927000   301.68346      463.03839      54671.036     -20586.152      3374.9268     -17211.225      1.0434676    
    928000   296.71098      451.4867       54435.322     -20596.322      3319.2998     -17277.022      1.047986     
    929000   303.1801       363.77541      54935.379     -20668.631      3391.6698     -17276.961      1.0384466    
    930000   297.26703      279.12611      54934.101     -20620.811      3325.5204     -17295.291      1.0384708    
    931000   303.35378     -704.04191      54687.922     -20678.492      3393.6127     -17284.879      1.0431455    
    932000   300.36415     -479.44009      55444.681     -20631.76       3360.1677     -17271.592      1.0289077    
    933000   296.53292      971.30305      54930.353     -20617.94       3317.3078     -17300.632      1.0385416    
    934000   296.52052      63.217151      54790.581     -20514.286      3317.1692     -17197.117      1.041191     
    935000   297.07991     -332.78507      54914.821     -20553.509      3323.427      -17230.082      1.0388354    
    936000   303.22697      507.91986      54679.888     -20450.943      3392.1941     -17058.749      1.0432987    
    937000   295.53198     -363.76312      55158.284     -20540.259      3306.1104     -17234.149      1.03425      
    938000   304.5044      -18.864909      55183.252     -20685.703      3406.4846     -17279.218      1.0337821    
    939000   294.01373     -345.18258      54717.937     -20772.097      3289.1258     -17482.971      1.0425732    
    940000   303.31649     -230.86776      54274.483     -20646.144      3393.1955     -17252.949      1.0510917    
    941000   300.1903      -1246.1004      55073.451     -20669.245      3358.2229     -17311.022      1.0358432    
    942000   303.598       -220.46476      55117.592     -20516.471      3396.3448     -17120.126      1.0350136    
    943000   303.87492      815.44421      54436.044     -20616.172      3399.4426     -17216.729      1.0479721    
    944000   306.92268     -294.2981       54902.743     -20695.861      3433.538      -17262.323      1.0390639    
    945000   299.20181     -709.52166      55308.124     -20489.371      3347.1647     -17142.207      1.0314481    
    946000   301.61909     -86.938495      55079.34      -20604.503      3374.2067     -17230.297      1.0357324    
    947000   296.88238     -18.969166      55035.154     -20642.899      3321.2173     -17321.682      1.036564     
    948000   303.95923     -462.76264      55557.291     -20569.812      3400.3859     -17169.426      1.0268222    
    949000   301.33622      271.78472      55219.342     -20623.667      3371.0423     -17252.625      1.0331064    
    950000   307.69096     -243.30564      55381.666     -20530.392      3442.1327     -17088.259      1.0300784    
    951000   295.02672     -275.25144      54702.722     -20674.657      3300.4581     -17374.199      1.0428632    
    952000   298.90206      63.350419      54924.827     -20651.944      3343.8114     -17308.132      1.0386461    
    953000   303.00461      34.040289      55159         -20589.495      3389.7066     -17199.789      1.0342366    
    954000   304.23408     -405.73247      55553.024     -20537.494      3403.4606     -17134.033      1.026901     
    955000   299.76662      915.29033      55548         -20593.96       3353.4832     -17240.476      1.0269939    
    956000   296.63799     -110.26962      55393.577     -20553.522      3318.4833     -17235.038      1.0298569    
    957000   302.06984     -558.99603      55481.167     -20706.536      3379.2493     -17327.287      1.028231     
    958000   310.18601      41.385714      55243.366     -20527.934      3470.0448     -17057.89       1.0326572    
    959000   297.85436     -178.12109      54788.399     -20626.371      3332.0908     -17294.281      1.0412324    
    960000   296.22026     -42.281175      54925.05      -20488.968      3313.8101     -17175.158      1.0386419    
    961000   302.44973     -655.48074      55113.366     -20565.071      3383.4991     -17181.572      1.035093     
    962000   296.26183     -394.38045      55290.922     -20695.68       3314.2752     -17381.404      1.031769     
    963000   303.92468     -673.53867      55617.919     -20519.671      3399.9994     -17119.672      1.0257028    
    964000   298.7878      -163.18452      55067.716     -20674.491      3342.5332     -17331.958      1.035951     
    965000   294.02966     -45.579856      55095.522     -20568.831      3289.304      -17279.527      1.0354282    
    966000   302.18475      1305.5463      54754.911     -20595.111      3380.5347     -17214.576      1.0418693    
    967000   299.22268      313.0448       55260.607     -20658.458      3347.3982     -17311.06       1.032335     
    968000   305.09985      936.93577      55129.179     -20436.132      3413.146      -17022.986      1.0347961    
    969000   304.64047     -900.34196      55321.928     -20570.671      3408.0068     -17162.664      1.0311907    
    970000   297.98885     -30.55501       55609.688     -20514.769      3333.5954     -17181.173      1.0258547    
    971000   296.70773     -248.00204      54961.174     -20659.642      3319.2635     -17340.379      1.0379592    
    972000   301.71422      190.89837      54713.568     -20439.197      3375.2709     -17063.926      1.0426565    
    973000   304.09437      317.53707      54934.866     -20633.523      3401.8977     -17231.625      1.0384563    
    974000   297.23136      314.58738      54793.335     -20522.185      3325.1213     -17197.063      1.0411386    
    975000   292.28031     -258.51963      54612.041     -20588.669      3269.734      -17318.935      1.0445949    
    976000   300.58745     -457.29661      55384.816     -20491.191      3362.6658     -17128.525      1.0300198    
    977000   297.85017      18.462957      55197.554     -20556.622      3332.0439     -17224.578      1.0335142    
    978000   303.71772     -346.42669      55142.771     -20601.887      3397.6841     -17204.203      1.034541     
    979000   300.90431      120.47386      55075.112     -20475.244      3366.2105     -17109.033      1.0358119    
    980000   297.46235     -510.792        55020.17      -20604.962      3327.7054     -17277.256      1.0368463    
    981000   303.48388     -582.88759      54899.725     -20544.539      3395.0681     -17149.471      1.039121     
    982000   293.38021     -341.29939      55059.084     -20629.359      3282.0386     -17347.32       1.0361134    
    983000   302.76543      120.43388      55309.599     -20517.236      3387.0308     -17130.205      1.0314206    
    984000   298.17372     -370.31701      55537.624     -20579.304      3335.6635     -17243.64       1.0271858    
    985000   298.69483      36.372595      54488.419     -20598.153      3341.4931     -17256.66       1.0469648    
    986000   291.52343      11.302888      54789.075     -20614.625      3261.2669     -17353.358      1.0412196    
    987000   300.10671      559.45712      55122.893     -20481.348      3357.2878     -17124.06       1.0349141    
    988000   296.72399      679.45621      54624.582     -20510.537      3319.4453     -17191.092      1.044355     
    989000   297.48559     -420.15595      55206.839     -20521.946      3327.9654     -17193.98       1.0333404    
    990000   305.6954       1023.8259      54800.043     -20516.618      3419.8084     -17096.809      1.0410112    
    991000   292.92646     -788.22717      55042.851     -20566.08       3276.9625     -17289.118      1.036419     
    992000   295.95184     -231.22204      55673.668     -20553.309      3310.8073     -17242.502      1.0246757    
    993000   298.31371      167.36882      55709.896     -20492.076      3337.2295     -17154.847      1.0240094    
    994000   301.48429      152.50122      54741.928     -20616.721      3372.6987     -17244.023      1.0421163    
    995000   296.1374      -666.59304      54629.729     -20591.886      3312.8832     -17279.002      1.0442566    
    996000   305.7373      -347.81433      54876.479     -20566.298      3420.2771     -17146.021      1.0395612    
    997000   308.34696      24.324764      55337.158     -20566.003      3449.4714     -17116.531      1.0309069    
    998000   308.33053     -31.606364      54544.981     -20504.565      3449.2876     -17055.278      1.0458791    
    999000   296.97216     -727.72019      55047.621     -20577.965      3322.2216     -17255.743      1.0363292    
   1000000   305.97669     -605.84247      54994.877     -20658.206      3422.9551     -17235.251      1.0373231    
   1001000   297.62094      685.39006      54363.949     -20713.758      3329.4795     -17384.278      1.0493619    
   1002000   300.44237     -478.7887       55143.937     -20649.993      3361.0428     -17288.95       1.0345191    
   1003000   297.74529     -233.65469      54864.331     -20655.241      3330.8706     -17324.371      1.0397914    
   1004000   300.58425      33.707821      55287.69      -20608.413      3362.63       -17245.783      1.0318293    
   1005000   304.36211     -235.85776      55406.636     -20533.068      3404.8929     -17128.175      1.0296142    
   1006000   296.67248     -41.664949      55099.556     -20584.135      3318.8691     -17265.265      1.0353524    
   1007000   306.11457      160.85309      55381.525     -20567.151      3424.4976     -17142.654      1.030081     
   1008000   296.54603     -40.874232      55153.83      -20548.748      3317.4545     -17231.294      1.0343336    
   1009000   296.9778      -178.25797      54708.042     -20587.659      3322.2847     -17265.375      1.0427618    
   1010000   311.10698     -461.6999       55015.737     -20636.2        3480.3476     -17155.852      1.0369298    
   1011000   296.19115     -749.77112      55452.635     -20634.238      3313.4845     -17320.754      1.0287601    
   1012000   302.87432      535.58603      55145.054     -20624.242      3388.249      -17235.993      1.0344982    
   1013000   300.93198      204.78361      55643.009     -20492.558      3366.5201     -17126.038      1.0252403    
   1014000   296.4604      -231.30432      55533.337     -20599.098      3316.4966     -17282.601      1.0272651    
   1015000   300.95807     -628.80087      55694.778     -20609.463      3366.8119     -17242.651      1.0242874    
   1016000   302.49805      181.01831      54937.726     -20490.22       3384.0396     -17106.18       1.0384022    
   1017000   302.28063      370.77879      55387.236     -20526.903      3381.6074     -17145.295      1.0299748    
   1018000   296.95702      791.26512      54569.457     -20701.097      3322.0523     -17379.044      1.04541      
   1019000   296.79353      1067.1271      54598.485     -20604.094      3320.2233     -17283.87       1.0448542    
   1020000   300.28838     -582.7486       54934.794     -20614.479      3359.3202     -17255.159      1.0384577    
   1021000   296.22         303.10003      55518.469     -20584.342      3313.8072     -17270.534      1.0275402    
   1022000   300.59189      792.89683      55094.056     -20432.862      3362.7155     -17070.146      1.0354558    
   1023000   298.64141     -71.527242      55192.533     -20613.944      3340.8955     -17273.049      1.0336083    
   1024000   299.92826     -817.88784      55089.721     -20543.844      3355.2915     -17188.552      1.0355372    
   1025000   301.00324     -658.15524      55439.028     -20496.451      3367.3173     -17129.133      1.0290126    
   1026000   304.40042     -153.83991      55012.324     -20538.938      3405.3214     -17133.616      1.0369941    
   1027000   308.86135     -584.35144      55340.246     -20530.538      3455.2257     -17075.312      1.0308494    
   1028000   308.3831      -894.96332      55220.176     -20536.901      3449.8756     -17087.025      1.0330908    
   1029000   296.21976      781.15275      54601.662     -20724.104      3313.8046     -17410.3        1.0447934    
   1030000   296.79768     -163.66798      55539.413     -20560.353      3320.2697     -17240.084      1.0271527    
   1031000   303.65049     -330.16905      55329.784     -20514.931      3396.932      -17117.999      1.0310443    
   1032000   302.83808     -209.51331      55133.82      -20523.908      3387.8436     -17136.064      1.034709     
   1033000   299.70965      343.09078      54682.141     -20671.182      3352.8459     -17318.336      1.0432557    
   1034000   300.67704     -527.92341      55870.752     -20718.019      3363.6681     -17354.351      1.0210612    
   1035000   298.78165     -271.58912      54987.159     -20660.531      3342.4644     -17318.067      1.0374687    
   1036000   297.70306     -374.5279       55426.429     -20593.872      3330.3983     -17263.474      1.0292465    
   1037000   303.05336      251.94361      54932.463     -20587.168      3390.252      -17196.916      1.0385017    
   1038000   296.66112     -456.50869      55411.32      -20522.044      3318.7421     -17203.302      1.0295271    
   1039000   298.15725     -852.65885      55361.388     -20567.719      3335.4792     -17232.24       1.0304557    
   1040000   302.85584      704.92518      55044.487     -20602.787      3388.0423     -17214.745      1.0363882    
   1041000   299.62939      610.29127      54770.609     -20601.838      3351.948      -17249.89       1.0415706    
   1042000   299.17853      239.86356      55015.986     -20562.555      3346.9042     -17215.651      1.0369251    
   1043000   305.35659      173.12303      55017.649     -20583.362      3416.0181     -17167.344      1.0368938    
   1044000   297.8576       81.304955      54366.213     -20625.655      3332.127      -17293.528      1.0493182    
   1045000   299.73027      160.24568      55089.943     -20477.057      3353.0765     -17123.981      1.0355331    
   1046000   299.29664     -105.66597      54820.585     -20488.952      3348.2255     -17140.726      1.0406211    
   1047000   300.89184      258.92252      54596.242     -20483.11       3366.071      -17117.039      1.0448971    
   1048000   303.43077     -101.18036      55081.842     -20622.545      3394.474      -17228.071      1.0356854    
   1049000   302.15258      37.182483      55084.571     -20565.964      3380.1749     -17185.79       1.0356341    
   1050000   307.04587      387.24185      55036.268     -20582.933      3434.9161     -17148.017      1.036543     
   1051000   299.1071       926.41241      55079.054     -20509.277      3346.1052     -17163.172      1.0357378    
   1052000   296.05994      829.29008      55120.928     -20416.895      3312.0167     -17104.878      1.034951     
   1053000   293.8661       139.02295      55021.373     -20579.097      3287.4742     -17291.623      1.0368236    
   1054000   293.47249      280.09975      55360.421     -20551.883      3283.0709     -17268.812      1.0304737    
   1055000   302.69131      676.60627      54541.717     -20511.743      3386.2017     -17125.541      1.0459417    
   1056000   296.18242      15.623578      54699.689     -20519.998      3313.3869     -17206.611      1.0429211    
   1057000   298.31838      390.72403      54990.453     -20503.502      3337.2818     -17166.22       1.0374066    
   1058000   302.07755      105.40362      54921.427     -20509.113      3379.3355     -17129.777      1.0387104    
   1059000   301.87568     -731.55054      54810.398     -20552.034      3377.0773     -17174.957      1.0408145    
   1060000   297.88673     -68.593144      54518.641     -20588.42       3332.4529     -17255.967      1.0463844    
   1061000   296.08799      157.57655      54621.103     -20529.128      3312.3304     -17216.798      1.0444216    
   1062000   291.68236      568.16383      54268.563     -20582.115      3263.0448     -17319.07       1.0512063    
   1063000   303.8454       217.21962      54755.163     -20547.696      3399.1125     -17148.584      1.0418644    
   1064000   298.17501     -1156.2284      55626.448     -20630.576      3335.6779     -17294.898      1.0255456    
   1065000   297.69131     -81.470107      55340.025     -20729.594      3330.2668     -17399.328      1.0308535    
   1066000   300.39149      190.01744      55718.754     -20609.877      3360.4736     -17249.404      1.0238466    
   1067000   298.62145      400.3796       54670.587     -20641.787      3340.6723     -17301.114      1.0434762    
   1068000   295.81291      22.336844      55139.462     -20563.239      3309.2531     -17253.986      1.0346031    
   1069000   299.06321     -430.24799      55025.276     -20606.099      3345.6142     -17260.485      1.0367501    
   1070000   297.08964     -339.55179      54931.267     -20663.347      3323.5359     -17339.812      1.0385243    
   1071000   299.15173     -191.92054      55116.359     -20593.865      3346.6044     -17247.26       1.0350368    
   1072000   296.84436      535.47918      55200.945     -20650.916      3320.792      -17330.124      1.0334507    
   1073000   298.479        389.71754      55149.493     -20547.775      3339.0786     -17208.697      1.0344149    
   1074000   301.24601     -711.80931      54728.073     -20585.569      3370.0332     -17215.536      1.0423802    
   1075000   303.16888     -485.02395      54852.468     -20675.068      3391.5442     -17283.524      1.0400163    
   1076000   301.98281      698.02716      55114.071     -20500.104      3378.2757     -17121.828      1.0350797    
   1077000   296.43967      153.5556       54864.247     -20550.625      3316.2647     -17234.36       1.039793     
   1078000   302.75308     -585.45132      54728.826     -20601.896      3386.8926     -17215.003      1.0423658    
   1079000   294.75104     -149.15629      54632.98      -20601.704      3297.374      -17304.33       1.0441945    
   1080000   295.37226      194.58157      55258.359     -20428.089      3304.3236     -17123.766      1.032377     
   1081000   299.52154      1014.5895      54815.046     -20564.558      3350.7415     -17213.817      1.0407263    
   1082000   298.9073      -232.04906      54948.553     -20773.859      3343.87       -17429.989      1.0381976    
   1083000   301.69805     -363.99476      54924.841     -20493.437      3375.0901     -17118.347      1.0386458    
   1084000   305.51161     -74.963267      55255.569     -20694.113      3417.7523     -17276.361      1.0324291    
   1085000   298.46989      534.58552      54849.167     -20654.4        3338.9767     -17315.424      1.0400788    
   1086000   295.51383     -405.84609      54704.342     -20680.052      3305.9074     -17374.145      1.0428323    
   1087000   303.15459      400.42678      54965.562     -20489.047      3391.3844     -17097.663      1.0378764    
   1088000   295.19035      127.90087      54666.953     -20638.876      3302.2886     -17336.587      1.0435456    
   1089000   293.83096      181.00674      54767.571     -20600.598      3287.0811     -17313.517      1.0416284    
   1090000   303.42014      6.3324695      55029.748     -20605.59       3394.355      -17211.235      1.0366658    
   1091000   303.42283     -228.82879      54948.729     -20608.766      3394.3851     -17214.381      1.0381943    
   1092000   301.49151      1017.6688      55013.506     -20450.324      3372.7796     -17077.544      1.0369719    
   1093000   299.32874     -71.461498      55495.926     -20490.066      3348.5846     -17141.481      1.0279576    
   1094000   297.49472      197.39281      55241.806     -20590.413      3328.0675     -17262.346      1.0326863    
   1095000   296.92632     -267.57523      55406.926     -20628.325      3321.7088     -17306.616      1.0296088    
   1096000   292.689        486.15479      54881.933     -20663.228      3274.306      -17388.922      1.0394579    
   1097000   295.7175       183.10873      55071.939     -20445.559      3308.1857     -17137.374      1.0358716    
   1098000   298.31065     -265.57712      54472.526     -20563.092      3337.1953     -17225.896      1.0472703    
   1099000   297.0843       420.85878      54843.91      -20499.989      3323.4761     -17176.513      1.0401785    
   1100000   302.87879     -89.402106      54915.55      -20658.477      3388.2991     -17270.178      1.0388216    
   1101000   301.33214      613.22111      55357.757     -20469.733      3370.9967     -17098.736      1.0305233    
   1102000   290.29867      284.84962      54953.318     -20534.849      3247.5654     -17287.284      1.0381076    
   1103000   301.15927      610.95349      55106.817     -20536.916      3369.0628     -17167.853      1.035216     
   1104000   296.62462      236.51494      54551.674     -20508.965      3318.3338     -17190.631      1.0457508    
   1105000   300.25502     -506.63288      55344.13      -20545.13       3358.9469     -17186.183      1.030777     
   1106000   300.93831      168.3746       54133.872     -20524.226      3366.5909     -17157.635      1.0538219    
   1107000   295.24388     -277.08473      54421.049     -20602.344      3302.8874     -17299.457      1.0482609    
   1108000   307.41561     -121.38829      54831.388     -20604.011      3439.0523     -17164.959      1.0404161    
   1109000   304.36166     -20.165136      54360.983     -20610.126      3404.8879     -17205.238      1.0494192    
   1110000   299.96159      53.914901      54687.132     -20671.948      3355.6644     -17316.284      1.0431605    
   1111000   296.61169     -727.52659      55735.062     -20465.832      3318.1891     -17147.642      1.023547     
   1112000   298.36952     -73.176586      55350.383     -20569.42       3337.8539     -17231.566      1.0306606    
   1113000   297.73932      283.98406      55433.166     -20574.42       3330.8039     -17243.616      1.0291214    
   1114000   299.84481      274.40809      55249.483     -20639.64       3354.3579     -17285.282      1.0325428    
   1115000   302.58825      389.36368      55305.131     -20565.811      3385.0488     -17180.762      1.0315039    
   1116000   303.94351      708.38667      55092.101     -20635.757      3400.2101     -17235.547      1.0354925    
   1117000   302.66056      46.736815      54692.599     -20534.491      3385.8577     -17148.633      1.0430563    
   1118000   295.47065      270.36907      55088.221     -20551.971      3305.4243     -17246.547      1.0355654    
   1119000   294.31449      230.58929      55167.53      -20461.186      3292.4904     -17168.696      1.0340767    
   1120000   296.74335     -24.876742      55025.908     -20616.916      3319.662      -17297.254      1.0367381    
   1121000   300.33076     -1186.3907      55215.362     -20616.608      3359.7943     -17256.814      1.0331809    
   1122000   290.63594      174.59075      55294.479     -20564.317      3251.3385     -17312.979      1.0317026    
   1123000   300.26678     -688.74309      55280.658     -20561.314      3359.0785     -17202.236      1.0319605    
   1124000   302.29106      185.73313      54222.692     -20604.954      3381.724      -17223.23       1.0520956    
   1125000   297.36295      246.65313      54684.877     -20656.076      3326.5934     -17329.482      1.0432035    
   1126000   304.18271      257.78758      54920.894     -20519.554      3402.8859     -17116.668      1.0387205    
   1127000   295.14949     -1067.1144      54783.035     -20545.501      3301.8315     -17243.67       1.0413344    
   1128000   304.3177      -309.90421      55332.527     -20533.946      3404.3961     -17129.55       1.0309932    
   1129000   302.512       -27.462185      55372.982     -20427.598      3384.1958     -17043.402      1.0302399    
   1130000   297.42082      64.204627      55089.149     -20569.778      3327.2408     -17242.537      1.035548     
   1131000   307.61537      378.01945      55237.572     -20522.885      3441.287      -17081.598      1.0327655    
   1132000   295.42335      27.051411      54630.989     -20447.993      3304.8951     -17143.098      1.0442326    
   1133000   297.10182      376.6246       54714.731     -20453.153      3323.6722     -17129.48       1.0426343    
   1134000   307.0444       189.0887       54547.358     -20600.307      3434.8996     -17165.407      1.0458336    
   1135000   307.22723      489.94637      55057.532     -20578.551      3436.9449     -17141.606      1.0361427    
   1136000   300.45806     -179.63238      55316.619     -20566.641      3361.2183     -17205.422      1.0312897    
   1137000   309.53797     -264.30194      54839.563     -20563.291      3462.7951     -17100.496      1.040261     
   1138000   294.65529      196.38646      54795.765     -20591.497      3296.3029     -17295.194      1.0410925    
   1139000   307.31967     -531.27494      54916.936     -20541.726      3437.9791     -17103.747      1.0387954    
   1140000   301.73229      713.55729      54757.136     -20543.984      3375.4731     -17168.511      1.0418269    
   1141000   296.5087       12.64253       55568.08      -20664.154      3317.037      -17347.117      1.0266228    
   1142000   300.97676      507.2042       54751.078     -20575.941      3367.021      -17208.92       1.0419422    
   1143000   302.30542     -1185.792       55328.084     -20603.336      3381.8848     -17221.451      1.031076     
   1144000   301.08095      909.10667      54995.885     -20727.03       3368.1866     -17358.844      1.0373041    
   1145000   292.92976     -442.48262      55183.935     -20574.771      3276.9994     -17297.772      1.0337693    
   1146000   299.17457     -542.50439      55054.03      -20630.585      3346.8599     -17283.725      1.0362086    
   1147000   303.95654     -243.67353      55145.72      -20529.29       3400.3558     -17128.934      1.0344857    
   1148000   295.75734      1076.1031      54644.096     -20602.071      3308.6315     -17293.439      1.0439821    
   1149000   296.06101     -296.72456      54929.739     -20631.685      3312.0286     -17319.656      1.0385532    
   1150000   302.4436      -535.95013      54991.481     -20539.132      3383.4306     -17155.702      1.0373872    
   1151000   302.20883      65.298495      54801.374     -20547.591      3380.8041     -17166.787      1.0409859    
   1152000   297.49973      582.19914      54730.727     -20574.07       3328.1236     -17245.947      1.0423296    
   1153000   298.56695     -292.24565      54485.403     -20576.849      3340.0625     -17236.787      1.0470228    
   1154000   305.31088     -43.044652      55148.106     -20656.274      3415.5067     -17240.767      1.0344409    
   1155000   297.68649     -160.28129      54964.332     -20439.025      3330.2128     -17108.812      1.0378996    
   1156000   294.01815     -15.20978       54752.993     -20623.88       3289.1753     -17334.705      1.0419057    
   1157000   298.18274      540.98947      54822.509     -20646.908      3335.7644     -17311.143      1.0405846    
   1158000   294.81632      48.710885      55133.625     -20491.063      3298.1044     -17192.959      1.0347126    
   1159000   302.79884     -340.79582      54585.492     -20696.575      3387.4046     -17309.17       1.0451029    
   1160000   295.74455     -267.68658      55280.14      -20593.342      3308.4884     -17284.854      1.0319702    
   1161000   292.93239      548.97014      55425.489     -20524.425      3277.0288     -17247.396      1.029264     
   1162000   298.49204     -818.81         55623.866     -20576.249      3339.2245     -17237.025      1.0255932    
   1163000   302.43445      44.676478      54783.548     -20684.318      3383.3282     -17300.99       1.0413246    
   1164000   299.37118      270.66746      55177.38      -20623.116      3349.0594     -17274.057      1.0338921    
   1165000   293.04908     -347.2359       54881.603     -20518.028      3278.3342     -17239.694      1.0394641    
   1166000   300.72001     -13.584998      55157.654     -20678.413      3364.1488     -17314.264      1.0342619    
   1167000   302.14305     -92.953782      55307.005     -20415.072      3380.0683     -17035.004      1.0314689    
   1168000   301.39606     -20.442299      55017.585     -20572.908      3371.7117     -17201.196      1.036895     
   1169000   305.39996     -261.10768      55358.378     -20585.993      3416.5033     -17169.49       1.0305117    
   1170000   300.64025      661.92784      54706.444     -20572.211      3363.2565     -17208.954      1.0427923    
   1171000   298.85593     -21.243317      54825.839     -20619.211      3343.2953     -17275.916      1.0405214    
   1172000   301.69355      396.94798      55328.318     -20599.165      3375.0398     -17224.125      1.0310716    
   1173000   304.93626     -218.42404      55334.088     -20459.452      3411.3159     -17048.137      1.0309641    
   1174000   301.52868     -524.84395      55514.349     -20689.87       3373.1953     -17316.675      1.0276164    
   1175000   296.88349     -140.25997      55292.819     -20573.725      3321.2296     -17252.495      1.0317336    
   1176000   300.01366     -711.02898      54345.075     -20692.623      3356.2469     -17336.377      1.0497264    
   1177000   301.51295     -409.47685      55800.321     -20488.535      3373.0194     -17115.516      1.02235      
   1178000   298.51215      681.44174      54746.618     -20493.706      3339.4495     -17154.257      1.0420271    
   1179000   295.99772     -359.99908      55125.899     -20549.712      3311.3206     -17238.391      1.0348576    
   1180000   302.22744      311.02458      54602.688     -20544.584      3381.0123     -17163.572      1.0447738    
   1181000   307.66761      595.17964      54861.842     -20593.259      3441.8714     -17151.388      1.0398385    
   1182000   306.50365      363.30597      54519.124     -20618.038      3428.8503     -17189.188      1.0463752    
   1183000   304.35923      550.20641      54906.183     -20596.676      3404.8606     -17191.815      1.0389988    
   1184000   297.45605      112.37226      54841.049     -20679.429      3327.6349     -17351.794      1.0402328    
   1185000   296.9334       97.420013      54739.114     -20556.262      3321.7881     -17234.474      1.0421699    
   1186000   298.95155      954.37458      54884.624     -20548.219      3344.3651     -17203.854      1.0394069    
   1187000   306.83541      107.27461      54778.667     -20513.575      3432.5616     -17081.014      1.0414174    
   1188000   297.88438     -865.72776      55459.889     -20541.615      3332.4266     -17209.189      1.0286255    
   1189000   301.46587     -7.5664528      54296.914     -20681.866      3372.4927     -17309.373      1.0506575    
   1190000   297.40993     -85.595298      54897.154     -20692.306      3327.119      -17365.188      1.0391697    
   1191000   300.17212      1.8043886      54947.967     -20590.61       3358.0196     -17232.59       1.0382087    
   1192000   303.60188     -43.452773      55510.197     -20419.151      3396.3882     -17022.763      1.0276933    
   1193000   305.8743       582.20158      55098.086     -20505.233      3421.8097     -17083.424      1.03538      
   1194000   298.86267      403.1976       54931.737     -20597.509      3343.3708     -17254.139      1.0385154    
   1195000   291.31729     -208.38204      54606.362     -20537.562      3258.9607     -17278.602      1.0447035    
   1196000   303.92942      38.953568      54787.009     -20630.459      3400.0523     -17230.407      1.0412588    
   1197000   294.56029     -11.482593      55133.372     -20520.322      3295.2401     -17225.082      1.0347174    
   1198000   302.3053      -885.77513      55402.694     -20664.449      3381.8834     -17282.566      1.0296874    
   1199000   302.82846      153.44632      54708.759     -20625.289      3387.7359     -17237.553      1.0427482    
   1200000   295.96172     -881.98149      55107.277     -20606.133      3310.9179     -17295.215      1.0352073    
   1201000   301.10833     -707.43899      54939.557     -20524.088      3368.4929     -17155.595      1.0383676    
   1202000   296.76504     -270.96601      54433.833     -20561.684      3319.9047     -17241.78       1.0480147    
   1203000   298.01754      268.16235      55364.31      -20528.953      3333.9162     -17195.037      1.0304013    
   1204000   298.58673      477.30278      55433.862     -20537.558      3340.2838     -17197.274      1.0291085    
   1205000   295.04178     -104.74803      55112.307     -20613.898      3300.6265     -17313.271      1.0351129    
   1206000   299.29646     -190.56174      55110.017     -20519.487      3348.2235     -17171.263      1.0351559    
   1207000   296.16527     -594.7683       54795.483     -20545.648      3313.1949     -17232.453      1.0410978    
   1208000   306.72415     -454.59609      54799.757     -20379.403      3431.317      -16948.086      1.0410166    
   1209000   299.7298      -234.80353      55434.285     -20557.816      3353.0713     -17204.745      1.0291006    
   1210000   298.65876      905.59358      55155.129     -20460.317      3341.0896     -17119.228      1.0343092    
   1211000   304.17957     -930.64098      55822.444     -20586.656      3402.8508     -17183.805      1.0219448    
   1212000   306.53236     -61.186754      55550.165     -20649.124      3429.1715     -17219.952      1.0269539    
   1213000   304.94723     -1021.515       54947.334     -20508.516      3411.4386     -17097.078      1.0382207    
   1214000   300.41157     -183.11342      55627.015     -20548.655      3360.6982     -17187.957      1.0255351    
   1215000   309.64845     -408.46226      54817.471     -20484.161      3464.0311     -17020.13       1.0406802    
   1216000   301.24452     -452.2419       55314.647     -20516.435      3370.0164     -17146.418      1.0313264    
   1217000   305.29223      193.86277      54933.452     -20553.637      3415.2981     -17138.339      1.038483     
   1218000   300.24274     -503.69757      54997.469     -20536.71       3358.8095     -17177.901      1.0372742    
   1219000   298.1424      -86.565229      55107.058     -20698.822      3335.3131     -17363.509      1.0352115    
   1220000   301.46833      136.16787      54991.37      -20745.207      3372.5202     -17372.687      1.0373893    
   1221000   301.64502      669.35165      55057.549     -20629.406      3374.4968     -17254.909      1.0361423    
   1222000   300.34716     -146.57483      55463.266     -20472.505      3359.9777     -17112.527      1.0285629    
   1223000   305.3302      -410.91531      54489.133     -20598.101      3415.7229     -17182.378      1.0469511    
   1224000   293.63395     -211.60098      54504.42      -20558.755      3284.8772     -17273.878      1.0466575    
   1225000   302.59215      108.47798      54876.583     -20543.158      3385.0924     -17158.066      1.0395592    
   1226000   308.17106      302.9286       54817.291     -20601.348      3447.5035     -17153.844      1.0406836    
   1227000   297.34621      450.56555      54807.216     -20526.949      3326.4062     -17200.543      1.0408749    
   1228000   304.4428      -557.96943      54564.581     -20617.781      3405.7955     -17211.985      1.0455034    
   1229000   291.82372     -118.36639      54508.2       -20626.874      3264.6262     -17362.247      1.0465849    
   1230000   293.11635     -364.67345      54978.224     -20638.298      3279.0868     -17359.212      1.0376373    
   1231000   292.41852      88.92983       54938.891     -20476.274      3271.2802     -17204.994      1.0383802    
   1232000   303.96645     -634.22495      55387.339     -20610.211      3400.4666     -17209.744      1.0299729    
   1233000   304.48336     -145.81389      55531.061     -20543.933      3406.2493     -17137.684      1.0273072    
   1234000   306.02472      6.0051107      54865.867     -20551.159      3423.4924     -17127.667      1.0397623    
   1235000   304.37278     -74.592916      55029.189     -20605.078      3405.0122     -17200.066      1.0366763    
   1236000   298.84007      148.26094      55708.14      -20565.459      3343.118      -17222.341      1.0240417    
   1237000   294.91118      265.83536      55155.723     -20565.97       3299.1655     -17266.805      1.0342981    
   1238000   299.41079     -46.973486      55330.706     -20601.276      3349.5025     -17251.774      1.0310271    
   1239000   298.13999     -90.377183      54965.731     -20521.86       3335.2861     -17186.574      1.0378732    
   1240000   294.38833     -17.968615      54826.803     -20490.567      3293.3164     -17197.251      1.0405031    
   1241000   293.24991     -271.30993      54910.201     -20583.534      3280.581      -17302.953      1.0389228    
   1242000   302.27824      343.63842      54592.619     -20455.052      3381.5807     -17073.471      1.0449665    
   1243000   303.09177      526.07769      54643.858     -20588.893      3390.6816     -17198.211      1.0439866    
   1244000   308.29291      64.115934      54868.107     -20422.194      3448.8666     -16973.327      1.0397198    
   1245000   292.82915     -16.739727      54872.448     -20707.945      3275.8739     -17432.071      1.0396375    
   1246000   296.41622      321.76413      55065.494     -20693.767      3316.0023     -17377.765      1.0359928    
   1247000   298.68672     -191.92983      55014.552     -20420.857      3341.4024     -17079.455      1.0369521    
   1248000   294.31055     -164.5366       55254.915     -20666.845      3292.4463     -17374.399      1.0324413    
   1249000   301.09034     -167.69035      54800.074     -20553.118      3368.2916     -17184.826      1.0410106    
   1250000   302.77566      355.54634      54713.503     -20456.577      3387.1453     -17069.432      1.0426578    
   1251000   299.01999     -36.26538       54361.668     -20418.769      3345.1306     -17073.638      1.0494059    
   1252000   299.78458     -212.68223      55036.6       -20447.027      3353.6841     -17093.342      1.0365367    
   1253000   299.55809      69.963916      54812.648     -20555.591      3351.1504     -17204.44       1.0407718    
   1254000   297.13609      1052.5312      54310.01      -20552.535      3324.0555     -17228.48       1.0504041    
   1255000   295.61451     -223.83842      55036.808     -20614.138      3307.0337     -17307.104      1.0365328    
   1256000   297.76921      282.29869      55100.837     -20621.844      3331.1383     -17290.706      1.0353283    
   1257000   298.59719     -159.04514      55081.003     -20455.675      3340.4008     -17115.274      1.0357011    
   1258000   289.60255     -479.71442      55502.329     -20565.22       3239.778      -17325.441      1.027839     
   1259000   300.4512       21.468621      55501.617     -20555.404      3361.1416     -17194.263      1.0278522    
   1260000   304.12235      1125.5657      54843.572     -20515.355      3402.2106     -17113.144      1.0401849    
   1261000   302.65999      413.85092      55049.119     -20442.972      3385.8513     -17057.121      1.036301     
   1262000   304.83493     -60.363423      55155.411     -20471.226      3410.1824     -17061.043      1.0343039    
   1263000   301.96192      265.83517      54596.272     -20514.933      3378.042      -17136.891      1.0448966    
   1264000   303.55726      114.64835      54644.788     -20555.643      3395.889      -17159.754      1.0439689    
   1265000   300.92734      38.996227      55289.05      -20530.427      3366.4682     -17163.959      1.0318039    
   1266000   299.17402      120.83365      55297.127     -20451.137      3346.8538     -17104.283      1.0316532    
   1267000   291.41694     -412.66576      55346.046     -20482.504      3260.0755     -17222.428      1.0307413    
   1268000   299.16392     -77.15289       54965.967     -20548.855      3346.7408     -17202.115      1.0378687    
   1269000   303.56766     -26.985878      54662.377     -20525.021      3396.0053     -17129.015      1.043633     
   1270000   302.08504      196.98042      54957.757     -20618.678      3379.4194     -17239.258      1.0380238    
   1271000   301.93549     -166.71162      54723.92      -20500.555      3377.7463     -17122.809      1.0424593    
   1272000   302.74195      739.76698      54820.668     -20524.186      3386.7682     -17137.417      1.0406195    
   1273000   292.36646     -502.27204      55451.26      -20484.326      3270.6978     -17213.629      1.0287856    
   1274000   309.49511     -368.77341      55186.907     -20562.169      3462.3156     -17099.853      1.0337136    
   1275000   301.46213     -514.36022      55411.435     -20439.303      3372.4509     -17066.852      1.029525     
   1276000   301.5103       321.46177      55458.662     -20633.363      3372.9897     -17260.374      1.0286483    
   1277000   302.2014      -138.93346      55038.41      -20584.861      3380.7211     -17204.14       1.0365027    
   1278000   301.84273      85.560225      55369.961     -20557.42       3376.7086     -17180.712      1.0302961    
   1279000   300.88471      595.17104      55514.692     -20504.455      3365.9912     -17138.463      1.0276101    
   1280000   299.07774     -148.37199      55641.122     -20460.082      3345.7768     -17114.305      1.0252751    
   1281000   297.84147     -121.92613      54882.858     -20516.038      3331.9466     -17184.092      1.0394403    
   1282000   301.50462      73.321979      54393.096     -20610.373      3372.9262     -17237.447      1.0487996    
   1283000   299.72615      109.86686      55015.692     -20643.666      3353.0305     -17290.636      1.0369307    
   1284000   296.52684     -109.99858      55562.888     -20640.733      3317.2398     -17323.493      1.0267187    
   1285000   293.82605      439.92066      55007.789     -20708.786      3287.0262     -17421.76       1.0370796    
   1286000   296.92773     -611.93669      55036.896     -20474.292      3321.7246     -17152.568      1.0365312    
   1287000   300.68011      680.067        54537.914     -20598.605      3363.7024     -17234.902      1.0460147    
   1288000   296.0875       293.72372      55158.474     -20713.473      3312.325      -17401.148      1.0342465    
   1289000   300.4638      -345.8149       54565.728     -20572.83       3361.2826     -17211.547      1.0454815    
   1290000   302.66931      228.54302      54610.628     -20542.667      3385.9555     -17156.712      1.0446219    
   1291000   299.00335      417.89822      54653.244     -20605.561      3344.9445     -17260.617      1.0438073    
   1292000   297.14639      338.1357       54933.731     -20606.446      3324.1708     -17282.275      1.0384778    
   1293000   300.72927      86.818734      55200.853     -20556.243      3364.2524     -17191.991      1.0334525    
   1294000   306.24031      429.39119      54959.73      -20499.908      3425.9043     -17074.004      1.0379865    
   1295000   298.77735     -965.52256      55756.988     -20504.273      3342.4163     -17161.856      1.0231445    
   1296000   297.13369      260.82204      55288.1       -20585.805      3324.0287     -17261.776      1.0318216    
   1297000   306.68845      563.76041      54782.373     -20445.243      3430.9176     -17014.326      1.041347     
   1298000   303.28438      348.63084      55294.038     -20599.872      3392.8364     -17207.035      1.0317108    
   1299000   304.16232      1061.6446      54812.302     -20496.577      3402.6578     -17093.919      1.0407784    
   1300000   301.65862      838.98159      54800.14      -20446.83       3374.6489     -17072.181      1.0410093    
   1301000   303.02386      252.5004       54567.374     -20484.886      3389.9219     -17094.964      1.0454499    
   1302000   299.1623       868.94696      55014.976     -20507.91       3346.7227     -17161.187      1.0369442    
   1303000   295.5931      -1071.8281      54811.217     -20539.038      3306.7941     -17232.244      1.040799     
   1304000   299.69686      409.30268      55123.604     -20653.651      3352.7028     -17300.948      1.0349007    
   1305000   297.51178      633.31433      54999.221     -20551.229      3328.2584     -17222.971      1.0372412    
   1306000   304.45369     -123.32387      55357.097     -20522.795      3405.9174     -17116.878      1.0305356    
   1307000   299.99508     -610.97162      55325.136     -20484.359      3356.039      -17128.32       1.0311309    
   1308000   302.575        641.0953       54909.343     -20572.841      3384.9005     -17187.941      1.038939     
   1309000   305.595       -298.34533      55563.804     -20562.124      3418.6852     -17143.439      1.0267018    
   1310000   302.74737     -739.32029      55305.428     -20618.301      3386.8288     -17231.472      1.0314983    
   1311000   300.15602      106.57682      55504.657     -20581.115      3357.8394     -17223.276      1.0277959    
   1312000   301.12729     -399.2487       55247.556     -20509.582      3368.705      -17140.877      1.0325789    
   1313000   301.27384      165.60202      54993.493     -20660.302      3370.3445     -17289.958      1.0373492    
   1314000   294.50604      104.05974      55080.316     -20508.072      3294.6332     -17213.439      1.0357141    
   1315000   305.04906      434.32114      54957.134     -20524.342      3412.5778     -17111.764      1.0380355    
   1316000   296.79609     -335.80346      54662.114     -20580.922      3320.252      -17260.67       1.043638     
   1317000   306.80548     -407.26805      54896.704     -20491.443      3432.2269     -17059.216      1.0391782    
   1318000   306.22304      83.229437      54714.81      -20542.412      3425.711      -17116.701      1.0426328    
   1319000   296.2585       68.368589      54497.863     -20585.536      3314.238      -17271.298      1.0467834    
   1320000   298.18346      503.65571      55110.222     -20534.784      3335.7724     -17199.012      1.035152     
   1321000   295.10158      174.41819      54940.747     -20524.462      3301.2955     -17223.167      1.0383451    
   1322000   297.40587      795.56026      54107.466     -20498.27       3327.0735     -17171.197      1.0543361    
   1323000   306.4325      -157.8286       55009.111     -20589.877      3428.0543     -17161.823      1.0370547    
   1324000   305.42785      442.4785       55059.518     -20621.928      3416.8153     -17205.112      1.0361053    
   1325000   302.18696     -64.282846      54906.743     -20664.687      3380.5595     -17284.128      1.0389882    
   1326000   300.03034      42.964684      54988.838     -20577.251      3356.4335     -17220.817      1.0374371    
   1327000   290.08055      3.8068373      55111.642     -20646.902      3245.1254     -17401.776      1.0351253    
   1328000   301.17208      866.30956      55032.369     -20502.405      3369.2061     -17133.199      1.0366164    
   1329000   306.56657     -506.03972      54730.562     -20584.643      3429.5541     -17155.089      1.0423328    
   1330000   299.84191      282.60431      55133.909     -20551.83       3354.3255     -17197.505      1.0347073    
   1331000   298.8662       452.93674      55235.211     -20424.217      3343.4102     -17080.807      1.0328096    
   1332000   299.71619     -436.97873      54994.311     -20682.494      3352.9191     -17329.575      1.0373338    
   1333000   308.28376     -72.752262      55361.433     -20409.411      3448.7643     -16960.647      1.0304549    
   1334000   306.12159      15.539797      55023.74      -20567.491      3424.5762     -17142.915      1.036779     
   1335000   296.48665      174.12614      54602.975     -20537.992      3316.7903     -17221.201      1.0447683    
   1336000   303.20808     -160.9098       54828.686     -20679.623      3391.9828     -17287.64       1.0404673    
   1337000   299.54861     -426.71967      55555.672     -20601.634      3351.0443     -17250.59       1.0268521    
   1338000   306.1206       673.6908       54840.257     -20552.232      3424.5651     -17127.667      1.0402478    
   1339000   296.2302       695.96042      54945.873     -20586.105      3313.9214     -17272.184      1.0382483    
   1340000   303.61448     -401.41685      55201.624     -20523.383      3396.5292     -17126.853      1.033438     
   1341000   297.35688      841.96549      54664.598     -20606.11       3326.5255     -17279.584      1.0435905    
   1342000   302.5504      -627.07969      55393.621     -20591.767      3384.6253     -17207.141      1.0298561    
   1343000   297.60293      473.84524      54151.601     -20461.316      3329.2781     -17132.038      1.0534768    
   1344000   298.61983      930.31649      54415.931     -20620.128      3340.6541     -17279.474      1.0483595    
   1345000   304.38347     -270.92543      55521.375     -20698.122      3405.1319     -17292.99       1.0274864    
   1346000   299.19234     -233.19717      55310.932     -20649.435      3347.0587     -17302.376      1.0313957    
   1347000   299.54383     -121.59226      55531.214     -20611.648      3350.9909     -17260.657      1.0273044    
   1348000   300.31768     -826.99805      54843.862     -20612.469      3359.6479     -17252.821      1.0401794    
   1349000   298.36841     -14.73465       55112.747     -20561.53       3337.8415     -17223.688      1.0351046    
   1350000   295.91827     -83.950709      54928.249     -20483.157      3310.4318     -17172.725      1.0385814    
   1351000   303.47914     -319.15899      54840.726     -20651.133      3395.0152     -17256.118      1.0402389    
   1352000   298.8793       441.7481       54881.649     -20554.043      3343.5568     -17210.486      1.0394632    
   1353000   298.90148     -149.22926      55350.007     -20648.972      3343.8049     -17305.167      1.0306676    
   1354000   299.27765      788.40084      54762.112     -20538.939      3348.0131     -17190.926      1.0417322    
   1355000   301.03063      827.33287      54546.128     -20539.04       3367.6237     -17171.416      1.0458571    
   1356000   295.51634     -225.7645       54444.393     -20514.088      3305.9355     -17208.153      1.0478114    
   1357000   303.06099      112.05864      55085.952     -20453.674      3390.3373     -17063.337      1.0356081    
   1358000   295.57922     -392.31963      55058.161     -20521.27       3306.6388     -17214.631      1.0361308    
   1359000   299.28062     -396.49182      54794.476     -20488.993      3348.0463     -17140.946      1.0411169    
   1360000   298.40748      440.05139      54660.987     -20585.561      3338.2785     -17247.283      1.0436595    
   1361000   302.79709     -61.739418      55159.903     -20612.822      3387.385      -17225.437      1.0342197    
   1362000   297.30238      15.748385      55295.496     -20623.429      3325.9158     -17297.513      1.0316836    
   1363000   292.81617     -344.49212      54632.48      -20486.107      3275.7287     -17210.378      1.0442041    
   1364000   301.57256     -329.77789      55239.255     -20464.909      3373.6862     -17091.222      1.032734     
   1365000   304.83905      309.07631      55223.885     -20558.211      3410.2284     -17147.982      1.0330214    
   1366000   298.60357     -373.34738      55194.936     -20606.037      3340.4722     -17265.565      1.0335633    
   1367000   302.05588      384.70317      55168.787     -20481.495      3379.0931     -17102.401      1.0340531    
   1368000   301.82255     -278.88289      55185.845     -20551.862      3376.4828     -17175.379      1.0337335    
   1369000   303.4534      -36.991154      55314.151     -20513.63       3394.7271     -17118.903      1.0313357    
   1370000   296.72938     -267.68045      55000.635     -20507.917      3319.5057     -17188.412      1.0372145    
   1371000   301.75665     -28.089022      54793.452     -20452.81       3375.7457     -17077.064      1.0411364    
   1372000   303.17221     -782.74566      55285.943     -20500.819      3391.5815     -17109.238      1.0318619    
   1373000   301.80311      613.01633      54830.936     -20486.331      3376.2654     -17110.065      1.0404247    
   1374000   297.00268     -805.26323      54947.658     -20495.763      3322.5631     -17173.2        1.0382145    
   1375000   301.76903      23.13672       55461.522     -20636.711      3375.8841     -17260.827      1.0285952    
   1376000   293.59795     -760.17764      55212.388     -20654.027      3284.4744     -17369.553      1.0332365    
   1377000   299.11645      628.88842      54761.01      -20567.753      3346.2098     -17221.543      1.0417532    
   1378000   296.28373     -665.06636      55584.69      -20505.418      3314.5202     -17190.898      1.026316     
   1379000   301.18266      126.18451      55011.369     -20637.226      3369.3245     -17267.901      1.0370121    
   1380000   301.26465     -943.75529      54670.096     -20623.478      3370.2417     -17253.236      1.0434856    
   1381000   306.15676     -916.40372      55546.816     -20523.349      3424.9696     -17098.38       1.0270158    
   1382000   286.72995     -26.629441      54782.092     -20636.872      3207.6422     -17429.229      1.0413523    
   1383000   296.57831      489.76892      54811.619     -20532.726      3317.8156     -17214.91       1.0407913    
   1384000   303.59021     -210.13338      55087.226     -20616.305      3396.2576     -17220.047      1.0355841    
   1385000   299.82118     -304.31924      54943.076     -20536.182      3354.0936     -17182.088      1.0383011    
   1386000   305.62753      127.04951      55098.481     -20544.965      3419.0491     -17125.916      1.0353726    
   1387000   304.20685     -507.25609      55196.458     -20527.336      3403.156      -17124.18       1.0335348    
   1388000   303.21468      747.28599      55416.819     -20595.582      3392.0566     -17203.525      1.029425     
   1389000   304.04182     -525.96509      55461.883     -20474.669      3401.3098     -17073.359      1.0285885    
   1390000   297.88576     -355.99415      55081.082     -20481.537      3332.442      -17149.095      1.0356997    
   1391000   299.44605      785.3079       54821.824     -20501.104      3349.897      -17151.207      1.0405976    
   1392000   303.99445     -86.054398      55001.221     -20584.136      3400.7798     -17183.356      1.0372035    
   1393000   301.18293      487.64905      54814.093     -20625.105      3369.3275     -17255.778      1.0407443    
   1394000   305.80781     -276.58122      55198.14      -20590.144      3421.0659     -17169.079      1.0335033    
   1395000   292.2053       65.567669      54928.85      -20549.199      3268.8949     -17280.305      1.03857      
   1396000   301.85956      156.38102      54649.441     -20648.007      3376.8969     -17271.11       1.04388      
   1397000   295.90356      66.953225      55096.136     -20539.196      3310.2672     -17228.929      1.0354167    
   1398000   290.25532     -357.08843      55325.145     -20598.778      3247.0805     -17351.697      1.0311307    
   1399000   302.4492      -144.01869      55085.152     -20525.574      3383.4932     -17142.081      1.0356231    
   1400000   297.49308     -100.97237      55400.079     -20541.265      3328.0492     -17213.216      1.029736     
   1401000   296.29555     -350.5103       55291.852     -20562.402      3314.6525     -17247.749      1.0317516    
   1402000   301.8279      -424.02239      55502.086     -20577.015      3376.5427     -17200.472      1.0278435    
   1403000   300.2219      -24.534386      55279.957     -20561.027      3358.5764     -17202.451      1.0319736    
   1404000   294.66227     -135.70325      55437.903     -20676.659      3296.3809     -17380.278      1.0290335    
   1405000   303.59183      500.1177       54736.327     -20754.61       3396.2757     -17358.335      1.042223     
   1406000   294.13953     -285.49515      55614.576     -20457.906      3290.5331     -17167.373      1.0257645    
   1407000   296.00242      601.21457      54818.206     -20652.064      3311.3732     -17340.691      1.0406663    
   1408000   306.39828      195.67882      54074.094     -20509.765      3427.6715     -17082.094      1.0549868    
   1409000   293.83429     -116.74131      54763.998     -20526.395      3287.1184     -17239.277      1.0416964    
   1410000   298.57357     -61.569881      54876.19      -20563.366      3340.1366     -17223.229      1.0395667    
   1411000   297.84128      533.77671      54588.901     -20620.66       3331.9445     -17288.716      1.0450377    
   1412000   295.27156      444.86138      54793.778     -20597.772      3303.197      -17294.575      1.0411302    
   1413000   296.28449     -458.27315      55014.346     -20583.613      3314.5287     -17269.085      1.036956     
   1414000   304.1956      -264.28724      55317.109     -20557.643      3403.0301     -17154.612      1.0312805    
   1415000   294.61995     -15.110188      54745.624     -20663.853      3295.9075     -17367.945      1.042046     
   1416000   306.3323       500.86167      54994.361     -20673.5        3426.9333     -17246.566      1.0373329    
   1417000   301.75265     -232.04151      55036.094     -20680.577      3375.7009     -17304.876      1.0365463    
   1418000   297.58868     -289.67648      55192.712     -20665.361      3329.1186     -17336.242      1.0336049    
   1419000   295.6129      -169.1995       54753.81      -20523.798      3307.0156     -17216.782      1.0418902    
   1420000   300.49647      260.85658      55140.048     -20597.21       3361.648      -17235.562      1.0345921    
   1421000   299.95309     -163.65972      54923.365     -20537.621      3355.5693     -17182.052      1.0386738    
   1422000   301.3665       300.27803      54840.826     -20500.123      3371.3811     -17128.742      1.040237     
   1423000   297.87401     -214.42867      55169.226     -20602.929      3332.3106     -17270.618      1.0340449    
   1424000   297.24192      224.59053      54913.974     -20649.666      3325.2394     -17324.426      1.0388514    
   1425000   300.04665     -354.68139      55702.559     -20557.645      3356.6159     -17201.029      1.0241443    
   1426000   304.13984     -960.2786       55705.044     -20560.474      3402.4064     -17158.068      1.0240986    
   1427000   300.95091      342.34534      55555.155     -20680.188      3366.7319     -17313.456      1.0268616    
   1428000   301.4578       618.70697      54796.733     -20477.615      3372.4024     -17105.212      1.0410741    
   1429000   295.22465      150.81209      54410.286     -20600.797      3302.6723     -17298.125      1.0484683    
   1430000   304.13587      224.02684      54832.561     -20588.45       3402.3619     -17186.088      1.0403938    
   1431000   300.6978      -219.86274      55114.43      -20652.85       3363.9003     -17288.95       1.035073     
   1432000   304.41238     -156.70795      54930.483     -20584.412      3405.4553     -17178.957      1.0385392    
   1433000   294.91427     -15.306409      54903.794     -20476.044      3299.2        -17176.844      1.039044     
   1434000   306.18673     -47.785598      54878.699     -20624.615      3425.3048     -17199.31       1.0395191    
   1435000   302.52593     -15.743503      54987.187     -20629.831      3384.3516     -17245.479      1.0374682    
   1436000   296.04736      235.45699      54966.945     -20767.86       3311.876      -17455.984      1.0378502    
   1437000   296.14451      61.238029      55061.46      -20630.417      3312.9628     -17317.455      1.0360687    
   1438000   299.50073     -150.0308       54833.807     -20602.602      3350.5087     -17252.093      1.0403702    
   1439000   305.74427     -268.21993      54991.654     -20486.708      3420.3551     -17066.353      1.0373839    
   1440000   302.63216     -667.36866      55444.506     -20567.151      3385.54       -17181.611      1.0289109    
   1441000   304.62832      108.69528      55113.711     -20489.924      3407.871      -17082.053      1.0350865    
   1442000   300.56614      42.827443      54954.204     -20590.759      3362.4275     -17228.332      1.0380909    
   1443000   296.32473      308.42109      55101.314     -20614.871      3314.9789     -17299.892      1.0353194    
   1444000   299.13674      259.59241      55104.203     -20550.075      3346.4368     -17203.639      1.0352651    
   1445000   308.75742      634.56085      55259.543     -20516.886      3454.0631     -17062.823      1.0323549    
   1446000   304.79447     -39.385698      55171.552     -20647.629      3409.7297     -17237.899      1.0340013    
   1447000   295.49355      26.790332      54797.377     -20530.065      3305.6805     -17224.385      1.0410618    
   1448000   291.02695     -628.50645      54821.823     -20541.667      3255.7127     -17285.954      1.0405976    
   1449000   302.09908     -137.27198      55193.465     -20520.997      3379.5764     -17141.421      1.0335908    
   1450000   307.14929     -581.27518      55078.67      -20511.423      3436.0731     -17075.35       1.035745     
   1451000   303.02122      939.54031      54438.894     -20564.695      3389.8924     -17174.803      1.0479173    
   1452000   305.54082      83.581871      54577.173     -20571.431      3418.0791     -17153.352      1.0452622    
   1453000   298.67349      479.25334      54564.526     -20557.542      3341.2544     -17216.287      1.0455045    
   1454000   302.48299      158.07542      54941.195     -20597.539      3383.8712     -17213.668      1.0383367    
   1455000   302.43998      321.90762      54545.233     -20573.777      3383.3901     -17190.387      1.0458743    
   1456000   294.46291     -46.165317      54840.88      -20582.028      3294.1507     -17287.878      1.040236     
   1457000   300.49         95.664347      54782.262     -20486.394      3361.5756     -17124.818      1.0413491    
   1458000   296.6699       271.4622       54684.671     -20523.257      3318.8403     -17204.417      1.0432075    
   1459000   298.59614     -316.6474       55097.418     -20516.357      3340.389      -17175.968      1.0353926    
   1460000   300.21952      373.19706      55124.052     -20630.918      3358.5498     -17272.368      1.0348923    
   1461000   300.39978      416.52065      54896.519     -20531.609      3360.5663     -17171.043      1.0391817    
   1462000   302.172       -22.065668      55689.463     -20678.838      3380.3922     -17298.446      1.0243851    
   1463000   303.68942      441.02599      55053.372     -20561.59       3397.3675     -17164.223      1.0362209    
   1464000   303.78877     -315.76045      55177.174     -20610.352      3398.4789     -17211.873      1.033896     
   1465000   299.13244     -538.297        55104.223     -20600.093      3346.3887     -17253.704      1.0352647    
   1466000   296.51794     -667.35232      55309.554     -20613.491      3317.1403     -17296.351      1.0314214    
   1467000   300.07151      801.61141      54915.668     -20543.06       3356.894      -17186.166      1.0388193    
   1468000   301.23144     -824.62025      55256.843     -20461.402      3369.8701     -17091.532      1.0324053    
   1469000   300.80119     -329.63215      55050.734     -20632.169      3365.0569     -17267.112      1.0362706    
   1470000   299.2003      -523.8448       55356.345     -20492.275      3347.1478     -17145.127      1.0305496    
   1471000   296.76673      13.314503      55334.9       -20528.443      3319.9235     -17208.519      1.030949     
   1472000   304.37625     -53.883438      54639.492     -20473.43       3405.051      -17068.379      1.0440701    
   1473000   295.5631      -466.13155      54951.363     -20458.701      3306.4585     -17152.242      1.0381445    
   1474000   298.39466     -99.169461      54942.594     -20523.582      3338.1351     -17185.447      1.0383102    
   1475000   299.41589      54.203355      55301.588     -20554.142      3349.5596     -17204.582      1.03157      
   1476000   296.16891     -586.47068      54434.314     -20662.419      3313.2357     -17349.183      1.0480054    
   1477000   298.34994     -965.75021      54766.666     -20611.716      3337.6348     -17274.081      1.0416456    
   1478000   303.06198      526.09033      54619.375     -20575.35       3390.3484     -17185.001      1.0444546    
   1479000   306.24696     -65.542433      55423.39      -20577.337      3425.9786     -17151.359      1.0293029    
   1480000   290.37525      288.59677      54891.809     -20660.607      3248.4221     -17412.185      1.0392709    
   1481000   302.94063     -238.56224      55504.237     -20556.859      3388.9908     -17167.868      1.0278037    
   1482000   297.16857     -412.70688      55496.718     -20633.643      3324.4188     -17309.224      1.0279429    
   1483000   298.10121      479.2578       55000.848     -20640.128      3334.8523     -17305.276      1.0372105    
   1484000   304.59274     -38.047703      55047.078     -20549.682      3407.4729     -17142.209      1.0363394    
   1485000   296.44166      786.69867      54802.628     -20482.901      3316.287      -17166.614      1.0409621    
   1486000   298.61853      526.71614      54457.178     -20656.252      3340.6395     -17315.613      1.0475654    
   1487000   304.20353     -19.817852      54747.07      -20556.855      3403.1189     -17153.736      1.0420185    
   1488000   307.15094     -231.70179      55410.108     -20509.905      3436.0914     -17073.813      1.0295497    
   1489000   295.84838     -258.22485      55033.405     -20458.389      3309.65       -17148.739      1.0365969    
   1490000   303.49581      330.10378      55166.023     -20573.682      3395.2015     -17178.48       1.034105     
   1491000   294.54388      491.78972      54854.894     -20509.456      3295.0565     -17214.4        1.0399702    
   1492000   295.54601      28.615907      54818.419     -20498.705      3306.2673     -17192.438      1.0406622    
   1493000   296.4185       432.09081      54766.549     -20520.744      3316.0278     -17204.716      1.0416479    
   1494000   301.82745      77.895098      55391.3       -20519.388      3376.5377     -17142.851      1.0298992    
   1495000   297.00724     -69.781372      55037.684     -20553.322      3322.6141     -17230.708      1.0365163    
   1496000   298.51836     -67.281984      54709.431     -20682.32       3339.5189     -17342.801      1.0427354    
   1497000   294.87334     -188.89046      54865.132     -20674.42       3298.7422     -17375.677      1.0397762    
   1498000   307.39183     -335.43601      54726.831     -20542.009      3438.7863     -17103.222      1.0424038    
   1499000   303.86501      398.97058      54671.349     -20669.307      3399.3318     -17269.976      1.0434617    
   1500000   301.39202      328.28181      55328.134     -20576.814      3371.6665     -17205.148      1.031075     
   1501000   299.3024       1017.2889      54443.963     -20682.425      3348.29       -17334.135      1.0478197    
   1502000   306.14168      101.55338      55316.517     -20597.558      3424.8009     -17172.757      1.0312916    
   1503000   306.77927      667.24833      54655.807     -20592.365      3431.9336     -17160.431      1.0437584    
   1504000   303.16766     -478.2907       55405.261     -20584.351      3391.5306     -17192.82       1.0296397    
   1505000   297.37841      109.6737       55192.394     -20504.021      3326.7664     -17177.255      1.0336108    
   1506000   307.60288     -95.214174      55206.563     -20472.757      3441.1473     -17031.61       1.0333456    
   1507000   301.52233      721.52859      54886.475     -20480.25       3373.1243     -17107.125      1.0393719    
   1508000   300.03065     -140.74556      55167.814     -20583.83       3356.4369     -17227.394      1.0340714    
   1509000   303.06206      521.17731      54963.755     -20529.672      3390.3492     -17139.323      1.0379105    
   1510000   299.09513      136.52838      54898.593     -20605.162      3345.9713     -17259.191      1.0391424    
   1511000   299.92951      175.37315      55617.759     -20649.849      3355.3054     -17294.544      1.0257058    
   1512000   292.96641     -425.45179      54484.678     -20706.177      3277.4093     -17428.768      1.0470367    
   1513000   300.59694      1025.4357      55161.658     -20615.326      3362.772      -17252.554      1.0341868    
   1514000   301.01941     -369.91867      54915.317     -20684.935      3367.4982     -17317.437      1.038826     
   1515000   300.13642      614.57838      54505.231     -20611.721      3357.6201     -17254.101      1.0466419    
   1516000   297.46351      63.267637      54761.604     -20595.124      3327.7184     -17267.406      1.0417419    
   1517000   304.09802      269.4087       54921.787     -20525.9        3401.9385     -17123.961      1.0387036    
   1518000   299.00471      554.15825      54891.989     -20519.388      3344.9598     -17174.428      1.0392674    
   1519000   299.50601      978.7452       55467.208     -20560.844      3350.5677     -17210.276      1.0284898    
   1520000   299.54116      28.757534      55174.943     -20522.08       3350.961      -17171.119      1.0339378    
   1521000   297.0537       442.54192      54946.188     -20635.615      3323.1338     -17312.482      1.0382423    
   1522000   304.12664      105.20231      55052.651     -20711.166      3402.2587     -17308.907      1.0362345    
   1523000   302.17954      344.96925      55385.246     -20608.344      3380.4765     -17227.867      1.0300118    
   1524000   305.95733     -167.31403      54947.834     -20512.885      3422.7385     -17090.147      1.0382112    
   1525000   303.28438      54.566899      55103.853     -20561.204      3392.8363     -17168.368      1.0352717    
   1526000   297.50769      366.54781      54618.478     -20544.897      3328.2126     -17216.684      1.0444718    
   1527000   303.35776     -740.18116      55483.038     -20565.402      3393.6573     -17171.745      1.0281964    
   1528000   299.17709      200.46579      55152.936     -20613.567      3346.8881     -17266.679      1.0343503    
   1529000   304.66562      148.24178      55776.924     -20605.607      3408.2883     -17197.318      1.0227788    
   1530000   301.60148      225.46421      55031.383     -20639.58       3374.0098     -17265.57       1.036635     
   1531000   301.07786     -1253.3051      55843.628     -20534.307      3368.1521     -17166.155      1.0215572    
   1532000   303.82172      203.38379      55076.034     -20583.084      3398.8475     -17184.237      1.0357946    
   1533000   307.34188      113.18708      55474.649     -20433.06       3438.2275     -16994.832      1.0283519    
   1534000   304.7654      -228.94389      54658.687     -20552.043      3409.4045     -17142.639      1.0437034    
   1535000   297.97917     -498.3616       55023.888     -20527.311      3333.4871     -17193.823      1.0367762    
   1536000   296.80724      282.66468      54500.583     -20580.23       3320.3767     -17259.853      1.0467311    
   1537000   303.77608     -281.33297      54704.703     -20441.777      3398.3369     -17043.44       1.0428255    
   1538000   300.27947     -30.095965      54412.706     -20457.833      3359.2205     -17098.612      1.0484216    
   1539000   304.28161      257.9662       54987.427     -20591.342      3403.9923     -17187.35       1.0374637    
   1540000   304.06591     -210.5015       55375.486     -20595.327      3401.5793     -17193.748      1.0301934    
   1541000   297.3566      -734.59342      55085.284     -20564.214      3326.5223     -17237.692      1.0356207    
   1542000   301.87695     -47.438313      55210.95      -20502.268      3377.0914     -17125.177      1.0332635    
   1543000   294.60436     -809.9349       55165.265     -20582.213      3295.7331     -17286.48       1.0341192    
   1544000   300.21775      1367.0436      54923.936     -20693.619      3358.53       -17335.089      1.038663     
   1545000   304.1719       384.75402      54786.779     -20555.309      3402.765      -17152.544      1.0412632    
   1546000   299.9044       228.23606      55428.973     -20456.089      3355.0245     -17101.065      1.0291992    
   1547000   306.45435     -1097.1652      55317.531     -20545.703      3428.2987     -17117.404      1.0312727    
   1548000   302.88549      380.51252      54891.124     -20640.02       3388.3739     -17251.646      1.0392838    
   1549000   295.39761      226.8098       54763.455     -20520.106      3304.6072     -17215.499      1.0417067    
   1550000   306.23315     -420.50802      55145.855     -20599.962      3425.8242     -17174.137      1.0344831    
   1551000   303.97933     -650.92627      54859.196     -20637.32       3400.6107     -17236.709      1.0398887    
   1552000   296.22918      54.584605      54262.654     -20566.988      3313.91       -17253.078      1.0513208    
   1553000   298.65939      257.8084       54799.394     -20596.396      3341.0966     -17255.299      1.0410235    
   1554000   301.85048      592.24947      54934.578     -20611.331      3376.7953     -17234.536      1.0384617    
   1555000   302.96753      829.12702      54829.692     -20581.704      3389.2917     -17192.412      1.0404483    
   1556000   295.37149     -746.6366       54558.426     -20519.726      3304.315      -17215.411      1.0456214    
   1557000   304.99435      335.77855      54528.797     -20518.068      3411.9658     -17106.102      1.0461896    
   1558000   297.64681      585.94946      55126.825     -20702.537      3329.769      -17372.768      1.0348403    
   1559000   288.77903      69.282171      54669.937     -20585.313      3230.5653     -17354.748      1.0434886    
   1560000   302.79011      165.47324      55004.009     -20657.477      3387.3069     -17270.17       1.0371509    
   1561000   299.35549     -422.08138      55591.582     -20635.883      3348.8839     -17287          1.0261888    
   1562000   301.28487      150.22635      54687.416     -20502.765      3370.4679     -17132.297      1.0431551    
   1563000   296.30822     -309.809        54859.868     -20596.146      3314.7942     -17281.352      1.0398759    
   1564000   302.40484      1179.4959      54993.474     -20555.798      3382.9969     -17172.801      1.0373496    
   1565000   295.0781      -970.51839      55068.276     -20542.04       3301.0328     -17241.007      1.0359405    
   1566000   301.3488      -139.85704      54969.248     -20512.328      3371.1831     -17141.145      1.0378068    
   1567000   304.97778     -307.32257      55169.945     -20528.787      3411.7804     -17117.007      1.0340314    
   1568000   298.10897      352.1942       54950.541     -20573.176      3334.9391     -17238.237      1.0381601    
   1569000   303.03815     -219.2298       54985.14      -20665.74       3390.0818     -17275.658      1.0375068    
   1570000   291.87536     -188.16874      55250.201     -20473.408      3265.2038     -17208.204      1.0325294    
   1571000   293.76373     -515.25824      55230.024     -20586.908      3286.329      -17300.579      1.0329066    
   1572000   299.67625      788.02837      54492.315     -20556.061      3352.4723     -17203.588      1.04689      
   1573000   307.44785      1038.1716      55591.698     -20466.408      3439.413      -17026.995      1.0261866    
   1574000   298.3132       97.815406      55036.572     -20591.478      3337.2239     -17254.254      1.0365373    
   1575000   300.22771     -117.78337      54924.871     -20578.425      3358.6414     -17219.783      1.0386453    
   1576000   301.4766      -450.45551      54578.208     -20677.69       3372.6127     -17305.077      1.0452424    
   1577000   300.78682     -431.59752      55590.66      -20467.007      3364.8962     -17102.11       1.0262058    
   1578000   301.73692      484.89963      55119.403     -20656.943      3375.5249     -17281.419      1.0349796    
   1579000   300.42099      401.78559      55277.579     -20647.397      3360.8036     -17286.593      1.032018     
   1580000   306.94847      103.79618      55429.007     -20567.981      3433.8264     -17134.155      1.0291986    
   1581000   298.8306       219.7857       55204.416     -20530.166      3343.012      -17187.154      1.0333858    
   1582000   290.04573     -209.67363      55500.448     -20575.631      3244.7358     -17330.895      1.0278738    
   1583000   301.51442      213.20767      55335.211     -20623.319      3373.0358     -17250.283      1.0309432    
   1584000   309.05131      672.83733      54901.553     -20659.383      3457.3509     -17202.032      1.0390864    
   1585000   301.02625     -367.28008      55359.528     -20684.924      3367.5747     -17317.35       1.0304903    
   1586000   299.64478     -178.87413      55195.534     -20682.063      3352.1202     -17329.943      1.0335521    
   1587000   296.16661     -281.1159       54957.957     -20639.371      3313.2099     -17326.161      1.03802      
   1588000   301.01335     -333.97644      54672.392     -20551.006      3367.4303     -17183.576      1.0434418    
   1589000   303.56692      314.87844      55098.764     -20496.041      3395.9972     -17100.044      1.0353673    
   1590000   304.52225     -159.32128      54794.015     -20568.524      3406.6843     -17161.839      1.0411257    
   1591000   301.68076      908.05774      54978.866     -20603.081      3374.8966     -17228.184      1.0376252    
   1592000   297.93767     -531.89423      55065.057     -20628.457      3333.0228     -17295.435      1.0360011    
   1593000   300.06977      647.58608      54870.767     -20549.273      3356.8745     -17192.398      1.0396694    
   1594000   302.95329      822.35578      54296.518     -20481.934      3389.1324     -17092.802      1.0506651    
   1595000   298.05807     -411.03987      54504.894     -20653.381      3334.3697     -17319.011      1.0466484    
   1596000   299.6282      -21.342113      54950.218     -20707.959      3351.9347     -17356.025      1.0381662    
   1597000   303.70767     -45.776885      54967.442     -20625.358      3397.5716     -17227.786      1.0378409    
   1598000   301.16625      259.15159      54553.333     -20639.653      3369.1408     -17270.512      1.045719     
   1599000   301.02284      969.96716      54769.382     -20692.134      3367.5365     -17324.598      1.041594     
   1600000   299.22912     -1097.3382      55419.169     -20626.169      3347.4703     -17278.698      1.0293813    
   1601000   302.2895      -378.31519      55096.345     -20655.496      3381.7066     -17273.789      1.0354127    
   1602000   302.72346      269.97494      55144.436     -20603.042      3386.5614     -17216.48       1.0345098    
   1603000   304.95328     -565.96676      55539.606     -20641.074      3411.5063     -17229.567      1.0271491    
   1604000   303.53324      597.65024      54231.543     -20630.057      3395.6203     -17234.436      1.0519239    
   1605000   291.22059     -66.089137      54891.624     -20635.097      3257.879      -17377.218      1.0392744    
   1606000   302.38926      630.26815      54900.897     -20539.762      3382.8227     -17156.939      1.0390988    
   1607000   299.07884     -1042.6545      55190.441     -20503.595      3345.789      -17157.806      1.0336474    
   1608000   295.58966      124.52393      55250.849     -20525.075      3306.7557     -17218.319      1.0325173    
   1609000   298.63078      506.98322      55200.611     -20640.128      3340.7766     -17299.352      1.033457     
   1610000   300.30096      42.155604      54901.029     -20550.405      3359.4608     -17190.944      1.0390963    
   1611000   298.12482      780.26771      55228.118     -20712.1        3335.1165     -17376.984      1.0329423    
   1612000   295.1064      -430.76434      55286.355     -20624.944      3301.3494     -17323.595      1.0318542    
   1613000   298.49137     -527.99007      55349.138     -20485.051      3339.217      -17145.834      1.0306838    
   1614000   301.87622      333.1463       55210.599     -20679.212      3377.0833     -17302.129      1.03327      
   1615000   298.99183     -822.22011      55166.297     -20560.594      3344.8157     -17215.779      1.0340998    
   1616000   299.87321     -109.82802      54983.993     -20618.015      3354.6756     -17263.34       1.0375285    
   1617000   297.30749     -729.20114      55424.19      -20624.745      3325.973      -17298.772      1.0292881    
   1618000   295.3135      -285.85872      55070.502     -20588.912      3303.6663     -17285.245      1.0358986    
   1619000   297.59304      576.56339      55372.765     -20649.821      3329.1675     -17320.653      1.030244     
   1620000   296.29585     -47.621888      55301.119     -20561.85       3314.6558     -17247.194      1.0315787    
   1621000   300.56096     -93.182042      54896.017     -20520.324      3362.3694     -17157.954      1.0391912    
   1622000   301.21118      249.04044      55124.8       -20675.834      3369.6435     -17306.19       1.0348783    
   1623000   302.33026     -298.92068      55059.277     -20467.872      3382.1626     -17085.709      1.0361098    
   1624000   293.53967     -913.95743      54562.276     -20577.215      3283.8225     -17293.392      1.0455476    
   1625000   302.49597      491.99525      54775.357     -20565.502      3384.0164     -17181.485      1.0414803    
   1626000   302.85855      586.00494      54859.1       -20652.605      3388.0726     -17264.533      1.0398905    
   1627000   290.4081       624.65814      54581.031     -20690.484      3248.7897     -17441.695      1.0451884    
   1628000   299.10565     -214.24036      55024.202     -20539.639      3346.089      -17193.55       1.0367703    
   1629000   305.9132      -521.26178      55380.873     -20488.11       3422.2448     -17065.865      1.0300932    
   1630000   299.15076      43.443585      54692.897     -20472.586      3346.5936     -17125.992      1.0430506    
   1631000   300.60789      917.00196      54135.551     -20540.73       3362.8945     -17177.835      1.0537892    
   1632000   297.45374      428.40557      54662.356     -20605.419      3327.609      -17277.809      1.0436333    
   1633000   300.36559     -184.24119      54767.876     -20596.543      3360.1839     -17236.359      1.0416226    
   1634000   300.5335       915.68577      54709.413     -20591.144      3362.0623     -17229.082      1.0427357    
   1635000   296.46296      378.31878      54706.439     -20515.409      3316.5253     -17198.883      1.0427924    
   1636000   299.81723     -414.49986      55252.694     -20598.965      3354.0494     -17244.915      1.0324828    
   1637000   301.71938     -275.6098       54738.139     -20557.71       3375.3287     -17182.381      1.0421885    
   1638000   291.53222      36.351154      55102.304     -20485.551      3261.3652     -17224.186      1.0353008    
   1639000   301.89093     -157.61727      55063.624     -20603.36       3377.2478     -17226.112      1.036028     
   1640000   297.54313      132.37589      55240.005     -20483.138      3328.6091     -17154.529      1.03272      
   1641000   293.86324      383.55365      55239.456     -20731.248      3287.4422     -17443.806      1.0327303    
   1642000   293.83         1150.0075      54708.166     -20537.074      3287.0704     -17250.004      1.0427595    
   1643000   296.11488     -817.83055      55048.782     -20619.275      3312.6313     -17306.644      1.0363074    
   1644000   296.42294     -480.98236      55134.984     -20606.913      3316.0776     -17290.835      1.0346871    
   1645000   301.05399     -14.899028      55084.886     -20580.857      3367.8851     -17212.972      1.0356281    
   1646000   293.5568       26.620188      55007.596     -20442.65       3284.0141     -17158.636      1.0370833    
   1647000   297.54779      136.52908      54806.058     -20693.825      3328.6612     -17365.163      1.0408969    
   1648000   300.13724     -402.91124      54848.593     -20792.232      3357.6293     -17434.603      1.0400897    
   1649000   296.97522     -496.27841      55371.906     -20678.063      3322.2558     -17355.807      1.03026      
   1650000   304.78717      468.45173      54812.885     -20717.607      3409.6481     -17307.959      1.0407673    
   1651000   295.5911      -336.54181      55422.596     -20534.413      3306.7718     -17227.642      1.0293177    
   1652000   296.80628      996.48528      54894.001     -20534.014      3320.366      -17213.648      1.0392294    
   1653000   299.22599     -362.04943      54859.198     -20604.339      3347.4352     -17256.904      1.0398887    
   1654000   303.72872      190.93409      54845.492     -20612.516      3397.8072     -17214.708      1.0401485    
   1655000   299.3997      -345.62426      54996.303     -20655.165      3349.3785     -17305.786      1.0372962    
   1656000   301.2438       498.8535       54957.369     -20599.772      3370.0084     -17229.763      1.0380311    
   1657000   293.99804     -678.11234      55090.029     -20658.58       3288.9502     -17369.63       1.0355314    
   1658000   301.72374     -240.30538      55219.579     -20538.956      3375.3775     -17163.578      1.033102     
   1659000   294.27155      1068.1979      54628.654     -20452.858      3292.01       -17160.848      1.0442772    
   1660000   290.28093      392.81139      54949.921     -20554.039      3247.367      -17306.672      1.0381718    
   1661000   300.29622      30.516038      54192.214     -20608.03       3359.4079     -17248.622      1.0526873    
   1662000   301.11621     -830.95298      55311.444     -20575.93       3368.581      -17207.349      1.0313862    
   1663000   304.46009      741.42042      54657.981     -20670.732      3405.989      -17264.743      1.0437169    
   1664000   299.09535     -528.29929      54854.616     -20674.668      3345.9737     -17328.694      1.0399755    
   1665000   305.26285      626.58394      55025.72      -20584.521      3414.9695     -17169.551      1.0367417    
   1666000   310.58293      248.53397      54725.315     -20619.25       3474.485      -17144.765      1.0424327    
   1667000   301.99203      527.97761      54696.217     -20600.389      3378.3788     -17222.01       1.0429873    
   1668000   297.98698      102.32033      55245.892     -20627.382      3333.5744     -17293.807      1.03261      
   1669000   294.9647       112.6342       54669.795     -20520.003      3299.7642     -17220.239      1.0434913    
   1670000   296.61052     -616.4043       55266.052     -20623.359      3318.176      -17305.183      1.0322333    
   1671000   301.66355     -62.340273      54570.586     -20519.412      3374.7042     -17144.708      1.0453884    
   1672000   297.96086      245.31133      55185.25      -20491.206      3333.2822     -17157.924      1.0337447    
   1673000   300.15843      366.28064      55213.793     -20617.38       3357.8664     -17259.513      1.0332103    
   1674000   296.79271      118.00358      54793.877     -20608.475      3320.2141     -17288.261      1.0411283    
   1675000   303.10959      188.13213      54892.851     -20580.605      3390.881      -17189.724      1.0392511    
   1676000   300.98922      185.2521       55177.776     -20634.125      3367.1604     -17266.965      1.0338847    
   1677000   302.79284      77.484799      55019.311     -20642.417      3387.3375     -17255.079      1.0368624    
   1678000   304.19546      514.40052      54931.302     -20600.944      3403.0285     -17197.915      1.0385237    
   1679000   299.26702     -17.306952      55001.024     -20611.399      3347.8942     -17263.505      1.0372072    
   1680000   302.33595      361.37029      54724.211     -20666.185      3382.2263     -17283.959      1.0424537    
   1681000   303.58363      331.00536      55028.608     -20528.126      3396.184      -17131.942      1.0366873    
   1682000   301.93326      187.55257      54702.657     -20622.468      3377.7213     -17244.747      1.0428645    
   1683000   301.28891      387.46245      54052.764     -20698.611      3370.513      -17328.098      1.0554031    
   1684000   299.46259      370.92995      54417.878     -20585.316      3350.0821     -17235.234      1.048322     
   1685000   295.12735     -578.41864      54389.454     -20459.719      3301.5838     -17158.135      1.0488698    
   1686000   301.54019     -485.85141      54814.924     -20600.043      3373.3241     -17226.719      1.0407286    
   1687000   303.93901      459.62862      55036.254     -20618.897      3400.1596     -17218.737      1.0365433    
   1688000   293.73757      204.33788      55548.289     -20579.981      3286.0363     -17293.944      1.0269886    
   1689000   298.13233      305.35885      54707.519     -20546.745      3335.2005     -17211.545      1.0427718    
   1690000   302.40362      431.54914      55085.659     -20621.256      3382.9832     -17238.273      1.0356136    
   1691000   304.29319     -564.05611      54999.735     -20587.506      3404.1219     -17183.384      1.0372315    
   1692000   304.19325      659.25727      55122.449     -20575.364      3403.0038     -17172.36       1.0349224    
   1693000   308.80345      182.74941      54591.292     -20674.165      3454.5781     -17219.587      1.0449919    
   1694000   294.70164      49.709034      54926.764     -20657.405      3296.8214     -17360.583      1.0386095    
   1695000   298.78272      202.15913      54739.59      -20613.049      3342.4763     -17270.573      1.0421609    
   1696000   306.15427     -50.777444      54897.799     -20499.949      3424.9418     -17075.007      1.0391575    
   1697000   299.04052     -165.92864      55232.893     -20538.243      3345.3603     -17192.883      1.032853     
   1698000   306.73311     -34.567668      54840.048     -20610.502      3431.4172     -17179.085      1.0402518    
   1699000   298.62429     -881.3093       55341.161     -20576.595      3340.704      -17235.891      1.0308323    
   1700000   301.51018      69.226047      55228.707     -20681.589      3372.9884     -17308.601      1.0329313    
   1701000   305.60527      635.7354       54868.492     -20668.066      3418.8001     -17249.266      1.0397125    
   1702000   297.28764      34.484044      55191.552     -20506.716      3325.7509     -17180.965      1.0336266    
   1703000   299.19749     -426.35688      55098.95      -20794.655      3347.1163     -17447.539      1.0353638    
   1704000   303.84107     -455.55648      55994.076     -20559.59       3399.064      -17160.526      1.0188124    
   1705000   302.2938       209.50007      54915.096     -20576.421      3381.7547     -17194.666      1.0388302    
   1706000   301.21994     -278.64427      54736.947     -20536.751      3369.7415     -17167.009      1.0422112    
   1707000   297.40596      473.28229      55191.256     -20524.225      3327.0746     -17197.15       1.0336322    
   1708000   304.54003     -479.84253      55705.378     -20587.718      3406.8832     -17180.834      1.0240925    
   1709000   300.62921      260.17302      55060.276     -20513.275      3363.133      -17150.142      1.036091     
   1710000   305.58479     -1320.8642      55502.979     -20503.774      3418.571      -17085.203      1.0278269    
   1711000   302.77383     -463.54304      55080.999     -20463.63       3387.1249     -17076.505      1.0357012    
   1712000   300.58553     -164.87669      54674.691     -20546.125      3362.6443     -17183.481      1.0433979    
   1713000   301.13455     -117.84162      54849.183     -20498.59       3368.7862     -17129.804      1.0400785    
   1714000   297.79845     -90.61398       54885.799     -20533.659      3331.4653     -17202.194      1.0393847    
   1715000   299.36008     -552.49236      54332.517     -20631.388      3348.9352     -17282.453      1.049969     
   1716000   295.05761     -139.99391      54780.912     -20571.437      3300.8036     -17270.634      1.0413747    
   1717000   294.39595     -832.49729      55458.384     -20593.66       3293.4016     -17300.258      1.0286534    
   1718000   298.75054     -133.10443      55281.573     -20568.666      3342.1164     -17226.549      1.0319435    
   1719000   302.28679      552.80527      54597.539     -20552.88       3381.6763     -17171.203      1.0448723    
   1720000   296.07353      163.47311      55425.971     -20346.015      3312.1687     -17033.846      1.029255     
   1721000   297.7558       384.61666      54649.065     -20490.918      3330.9882     -17159.93       1.0438872    
   1722000   298.90569     -476.87116      55036.107     -20609.699      3343.8521     -17265.847      1.036546     
   1723000   305.89919      182.65143      55183.736     -20536.369      3422.0882     -17114.281      1.033773     
   1724000   296.76981     -151.30692      54765.072     -20636.195      3319.958      -17316.237      1.0416759    
   1725000   302.33113     -262.03125      55365.702     -20559.735      3382.1723     -17177.563      1.0303754    
   1726000   299.53521      677.17272      54854.606     -20581.19       3350.8945     -17230.295      1.0399757    
   1727000   307.55463      204.33606      54666.696     -20637.131      3440.6075     -17196.523      1.0435505    
   1728000   299.58519     -233.72392      55531.515     -20365.1        3351.4535     -17013.646      1.0272988    
   1729000   291.82373      387.54697      54845.376     -20568.525      3264.6263     -17303.898      1.0401507    
   1730000   299.2205       299.9669       54942.744     -20569.555      3347.3738     -17222.182      1.0383074    
   1731000   298.56366      684.00964      54796.11      -20637.355      3340.0257     -17297.329      1.0410859    
   1732000   305.3167      -739.09509      55872.931     -20611.5        3415.5719     -17195.929      1.0210214    
   1733000   304.46391     -584.36475      55541.859     -20666.591      3406.0318     -17260.559      1.0271075    
   1734000   295.93005     -16.468732      54670.472     -20593.696      3310.5636     -17283.132      1.0434784    
   1735000   303.5413       67.864711      54639.158     -20641.265      3395.7104     -17245.554      1.0440764    
   1736000   305.98345      631.41814      55012.529     -20435.866      3423.0308     -17012.835      1.0369903    
   1737000   304.92689     -191.38098      54932.9       -20539.185      3411.211      -17127.974      1.0384935    
   1738000   301.19953     -168.79666      55217.161     -20511.565      3369.5131     -17142.052      1.0331472    
   1739000   296.37262      257.55307      54073.488     -20658.186      3315.5146     -17342.672      1.0549987    
   1740000   300.89436      993.07048      54575.577     -20622.163      3366.0992     -17256.063      1.0452928    
   1741000   302.03927     -493.73555      54826.911     -20552.933      3378.9073     -17174.025      1.040501     
   1742000   300.74312     -521.69762      54985.287     -20602.563      3364.4073     -17238.156      1.037504     
   1743000   295.22693     -423.91998      54865.614     -20701.408      3302.6978     -17398.71       1.039767     
   1744000   295.01789     -739.72597      55600.472     -20621.225      3300.3592     -17320.866      1.0260247    
   1745000   305.54772     -677.32537      55346.286     -20637.061      3418.1562     -17218.905      1.0307369    
   1746000   292.12225      462.02234      54906.225     -20635.756      3267.9658     -17367.79       1.038998     
   1747000   295.09358     -495.99974      55226.852     -20597.174      3301.206      -17295.968      1.032966     
   1748000   299.94067     -162.24759      55199.716     -20636.691      3355.4303     -17281.261      1.0334738    
   1749000   297.27632      145.91035      55051.449     -20473.976      3325.6243     -17148.352      1.0362571    
   1750000   299.95596      247.33316      54858.629     -20634.363      3355.6014     -17278.761      1.0398994    
   1751000   294.80722      124.45266      55234.735     -20601.996      3298.0025     -17303.993      1.0328185    
   1752000   299.46252     -671.6152       55276.021     -20566.064      3350.0812     -17215.982      1.0320471    
   1753000   303.11726     -1249.7417      54737.627     -20632.69       3390.9668     -17241.723      1.0421982    
   1754000   299.29132      804.02092      54627.332     -20489.202      3348.1661     -17141.036      1.0443025    
   1755000   301.10979     -194.48022      55055.317     -20530.086      3368.5092     -17161.577      1.0361843    
   1756000   298.55666      340.25678      54875.977     -20620.499      3339.9474     -17280.551      1.0395707    
   1757000   295.84525     -159.96288      54622.353     -20507.594      3309.615      -17197.98       1.0443977    
   1758000   299.54787     -388.76001      55263.65      -20516.573      3351.036      -17165.537      1.0322781    
   1759000   297.7859      -83.237861      55570.271     -20663.911      3331.3249     -17332.586      1.0265823    
   1760000   303.80743     -10.673416      55067.111     -20606.789      3398.6877     -17208.101      1.0359624    
   1761000   297.18164      66.543819      55270.79      -20763.114      3324.5651     -17438.549      1.0321448    
   1762000   292.6133       373.25128      54645.357     -20686.044      3273.4592     -17412.584      1.043958     
   1763000   310.79723      710.55122      55217.318     -20594.234      3476.8825     -17117.351      1.0331443    
   1764000   297.4367      -275.75778      55501.552     -20563.774      3327.4185     -17236.356      1.0278534    
   1765000   296.9803       161.36504      54900.991     -20764.389      3322.3127     -17442.077      1.0390971    
   1766000   297.54487     -396.72964      55035.332     -20531.31       3328.6285     -17202.682      1.0365606    
   1767000   296.24054      434.87299      54985.695     -20538.158      3314.0371     -17224.121      1.0374964    
   1768000   297.09144     -427.62489      55375.158     -20501.724      3323.556      -17178.168      1.0301995    
   1769000   301.81843     -475.62405      54928.219     -20632.227      3376.4367     -17255.79       1.038582     
   1770000   298.82968     -133.04811      55094.667     -20654.284      3343.0017     -17311.282      1.0354443    
   1771000   301.74546      2.6914119      54408.633     -20582.847      3375.6205     -17207.226      1.0485001    
   1772000   296.29174      554.05119      54685.849     -20637.243      3314.6098     -17322.634      1.043185     
   1773000   302.30831      854.77767      54506.099     -20615.874      3381.9171     -17233.957      1.0466252    
   1774000   297.96484     -142.75059      55094.387     -20557.51       3333.3268     -17224.183      1.0354495    
   1775000   297.9647      -610.78855      55065.239     -20466.843      3333.3251     -17133.518      1.0359976    
   1776000   302.09328      775.29617      54430.756     -20640.566      3379.5116     -17261.054      1.0480739    
   1777000   296.34708     -313.90866      54840.493     -20502.977      3315.2289     -17187.748      1.0402433    
   1778000   301.12279     -280.93953      54586.767     -20628.085      3368.6547     -17259.43       1.0450785    
   1779000   294.34421     -335.17998      54910.11      -20580.457      3292.8228     -17287.635      1.0389245    
   1780000   296.90261      390.54526      54688.788     -20420.525      3321.4436     -17099.081      1.0431289    
   1781000   299.68567      68.962164      55149.223     -20463.235      3352.5777     -17110.657      1.03442      
   1782000   293.40032     -318.09611      55115.081     -20570.426      3282.2635     -17288.163      1.0350608    
   1783000   293.79824     -213.63694      54642.183     -20612.658      3286.715      -17325.943      1.0440186    
   1784000   307.11815     -276.14541      54915.791     -20589.879      3435.7247     -17154.154      1.038817     
   1785000   300.0789       414.72176      54923.166     -20588.415      3356.9767     -17231.438      1.0386775    
   1786000   291.72764      3.8621129      55276.848     -20604.895      3263.5513     -17341.344      1.0320317    
   1787000   295.73251     -44.932146      55181.066     -20646.96       3308.3537     -17338.606      1.033823     
   1788000   303.02516     -959.88843      55243.715     -20563.967      3389.9365     -17174.03       1.0326506    
   1789000   301.24292     -127.99357      55131.003     -20645.928      3369.9985     -17275.93       1.0347618    
   1790000   300.28759     -110.26473      54612.006     -20707.295      3359.3113     -17347.984      1.0445955    
   1791000   298.51438     -13.231857      55300.542     -20617.752      3339.4744     -17278.277      1.0315895    
   1792000   301.36068      676.0975       55044.452     -20533.428      3371.3159     -17162.112      1.0363889    
   1793000   306.33555     -21.310603      55725.843     -20552.755      3426.9697     -17125.786      1.0237164    
   1794000   301.94624     -66.559601      55150.514     -20551.923      3377.8666     -17174.056      1.0343957    
   1795000   299.28531     -68.131612      55358.174     -20481.407      3348.0988     -17133.308      1.0305155    
   1796000   298.64399      505.32938      55003.994     -20629.507      3340.9244     -17288.583      1.0371512    
   1797000   288.88957      270.3378       54344.783     -20638.175      3231.8019     -17406.374      1.049732     
   1798000   303.86316     -64.470995      55066.58      -20519.79       3399.3112     -17120.479      1.0359724    
   1799000   292.31836     -437.54541      54780.253     -20455.859      3270.1596     -17185.699      1.0413873    
   1800000   304.52453      253.89875      55075.888     -20438.537      3406.7099     -17031.827      1.0357973    
   1801000   306.57334     -671.6262       55366.461     -20463.753      3429.6298     -17034.123      1.0303613    
   1802000   295.34827      261.00942      54353.014     -20640.157      3304.0552     -17336.102      1.049573     
   1803000   298.8073      -116.26962      54598.071     -20483.838      3342.7513     -17141.087      1.0448622    
   1804000   295.12153     -365.21158      54895.709     -20663.904      3301.5187     -17362.385      1.039197     
   1805000   302.02711      150.90489      55395.843     -20690.628      3378.7713     -17311.857      1.0298148    
   1806000   297.66864     -375.3784       55391.128     -20654.471      3330.0131     -17324.458      1.0299024    
   1807000   296.93688      977.83263      54822.507     -20580.173      3321.827      -17258.346      1.0405846    
   1808000   297.96454     -779.65557      55227.713     -20522.095      3333.3234     -17188.772      1.0329499    
   1809000   299.39832     -788.69452      55025.961     -20522.775      3349.3631     -17173.412      1.0367371    
   1810000   293.60871     -35.169278      54908.741     -20726.087      3284.5949     -17441.492      1.0389504    
   1811000   305.38525     -366.58306      54835.041     -20512.958      3416.3387     -17096.619      1.0403468    
   1812000   296.48962      329.45381      54971.441     -20592.03       3316.8235     -17275.207      1.0377654    
   1813000   293.84397      104.61045      54984.394     -20626.971      3287.2266     -17339.744      1.0375209    
   1814000   303.91084      87.456325      54863.241     -20653.787      3399.8445     -17253.943      1.039812     
   1815000   291.92402      504.17939      54910.374     -20551.598      3265.7482     -17285.85       1.0389195    
   1816000   304.62236      295.36956      55078.776     -20606.113      3407.8042     -17198.309      1.035743     
   1817000   296.46503     -1135.3108      55266.001     -20621.561      3316.5484     -17305.012      1.0322342    
   1818000   303.75307      214.19721      54572.148     -20647.764      3398.0795     -17249.685      1.0453585    
   1819000   292.51613     -53.953253      55098.186     -20713.026      3272.3722     -17440.654      1.0353781    
   1820000   302.11546     -314.96508      54811.775     -20526.765      3379.7596     -17147.005      1.0407884    
   1821000   300.62495     -217.08725      54645.343     -20443.474      3363.0854     -17080.389      1.0439583    
   1822000   299.43482     -506.78229      55429.83      -20483.396      3349.7714     -17133.625      1.0291833    
   1823000   294.30726     -167.93642      55037.727     -20504.472      3292.4095     -17212.062      1.0365155    
   1824000   296.46343     -670.22863      55065.161     -20625.217      3316.5305     -17308.687      1.0359991    
   1825000   303.41177     -94.547743      54660.365     -20550.317      3394.2614     -17156.056      1.0436714    
   1826000   293.68303     -426.18565      55178.038     -20667.893      3285.4262     -17382.466      1.0338798    
   1827000   303.26482      21.572984      54260.719     -20650.237      3392.6175     -17257.619      1.0513583    
   1828000   301.87675      265.36773      54539.237     -20498.388      3377.0892     -17121.298      1.0459893    
   1829000   298.95882      484.49975      55079.639     -20493.738      3344.4463     -17149.292      1.0357268    
   1830000   300.33647     -573.41606      54628.914     -20606.381      3359.8582     -17246.522      1.0442722    
   1831000   308.10561     -766.62387      55222.521     -20534.482      3446.7713     -17087.711      1.033047     
   1832000   303.5625      -271.14121      55299.484     -20678.194      3395.9477     -17282.246      1.0316092    
   1833000   300.13725     -684.74555      55364.517     -20537.153      3357.6294     -17179.524      1.0303975    
   1834000   294.68787     -75.466774      55108.664     -20593.855      3296.6674     -17297.187      1.0351813    
   1835000   299.41626      437.60001      54520.408     -20541.749      3349.5638     -17192.185      1.0463505    
   1836000   303.68815     -104.65207      54883.061     -20616.312      3397.3533     -17218.959      1.0394365    
   1837000   300.57457     -32.398016      54656.073     -20531.636      3362.5218     -17169.114      1.0437533    
   1838000   299.31316      20.951016      55142.452     -20590.862      3348.4104     -17242.452      1.034547     
   1839000   307.06546     -578.61985      55339.291     -20604.692      3435.1352     -17169.557      1.0308672    
   1840000   308.79283      61.437003      55279.061     -20588.287      3454.4592     -17133.828      1.0319903    
   1841000   299.69195      524.08572      54627.005     -20630.579      3352.6478     -17277.931      1.0443087    
   1842000   307.14323     -451.60086      55440.464     -20571.656      3436.0052     -17135.651      1.0289859    
   1843000   304.10356      657.1951       54759.309     -20522.73       3402.0004     -17120.73       1.0417856    
   1844000   303.62442      358.89396      55060.565     -20525.221      3396.6404     -17128.58       1.0360856    
   1845000   302.83729     -563.67035      54435.623     -20468.664      3387.8347     -17080.829      1.0479803    
   1846000   295.96964     -637.38393      55287.105     -20496.782      3311.0065     -17185.776      1.0318402    
   1847000   295.58636     -457.87903      55347.455     -20504.299      3306.7187     -17197.581      1.0307151    
   1848000   297.10541     -53.451018      55053.841     -20591.333      3323.7123     -17267.62       1.0362121    
   1849000   303.60025     -139.10572      55296.188     -20743.821      3396.3699     -17347.451      1.0316707    
   1850000   296.96466      351.80456      55141.568     -20530.036      3322.1378     -17207.898      1.0345636    
   1851000   300.75152      549.99274      54665.301     -20583.003      3364.5013     -17218.501      1.0435771    
   1852000   296.52981      37.724284      54789.124     -20612.45       3317.2731     -17295.177      1.0412187    
   1853000   296.88451      530.18189      55135.443     -20551.067      3321.2411     -17229.826      1.0346785    
   1854000   298.73382      499.57691      55009.663     -20525.476      3341.9293     -17183.547      1.0370443    
   1855000   296.08347      737.47534      54294.032     -20571.835      3312.2799     -17259.555      1.0507132    
   1856000   300.5468       74.019246      55199.845     -20508.584      3362.2111     -17146.373      1.0334713    
   1857000   297.0704      -294.07353      55068.376     -20437.588      3323.3207     -17114.268      1.0359386    
   1858000   302.89909     -179.95757      54801.766     -20486.882      3388.5261     -17098.356      1.0409784    
   1859000   297.16335      818.60813      54734.51      -20569.222      3324.3605     -17244.862      1.0422576    
   1860000   302.88972     -106.00416      54771.15      -20542.336      3388.4212     -17153.915      1.0415603    
   1861000   297.37725      641.87091      54484.622     -20516.462      3326.7534     -17189.708      1.0470378    
   1862000   297.54703      206.77803      54833.245     -20629.443      3328.6527     -17300.79       1.0403808    
   1863000   304.39902     -663.57401      54523.595     -20560.44       3405.3058     -17155.134      1.0462894    
   1864000   294.37243     -770.16955      54981.404     -20526.716      3293.1385     -17233.577      1.0375773    
   1865000   293.40653     -586.92855      55225.713     -20526.709      3282.3331     -17244.376      1.0329872    
   1866000   298.5376       307.87817      54765.043     -20581.954      3339.7342     -17242.22       1.0416765    
   1867000   300.27664     -432.67834      54912.272     -20653.869      3359.1888     -17294.68       1.0388836    
   1868000   305.12532     -100.34131      55039.589     -20613.745      3413.4309     -17200.314      1.0364804    
   1869000   300.89238      289.67456      55184.105     -20645.24       3366.0771     -17279.163      1.0337661    
   1870000   295.87787      303.63868      55330.331     -20500.519      3309.9798     -17190.539      1.0310341    
   1871000   294.78155      101.88687      55091.495     -20609.205      3297.7154     -17311.489      1.0355039    
   1872000   299.79308      240.86131      54911.515     -20546.786      3353.7793     -17193.006      1.0388979    
   1873000   302.02142     -2.6393326      55247.699     -20544.882      3378.7077     -17166.174      1.0325762    
   1874000   293.26251     -456.14201      54907.284     -20522.09       3280.7218     -17241.368      1.038978     
   1875000   293.61857      1050.9316      55172.969     -20547.376      3284.7051     -17262.671      1.0339748    
   1876000   298.6475      -931.25607      55689.954     -20659.926      3340.9636     -17318.962      1.0243761    
   1877000   304.58471      219.39493      54739.295     -20596.616      3407.3831     -17189.233      1.0421665    
   1878000   297.55776      318.89822      54884.356     -20555.861      3328.7727     -17227.089      1.039412     
   1879000   295.52451     -343.59228      54603.49      -20554.6        3306.0268     -17248.573      1.0447585    
   1880000   302.1622       549.43301      55041.575     -20595.692      3380.2825     -17215.409      1.0364431    
   1881000   292.58964      765.07482      55161.129     -20514.257      3273.1945     -17241.063      1.0341967    
   1882000   297.82497     -400.14459      54965         -20508.94       3331.7621     -17177.178      1.037887     
   1883000   295.72327      829.67395      54454.013     -20627.137      3308.2504     -17318.887      1.0476263    
   1884000   300.39462      39.758652      55265.059     -20533.577      3360.5087     -17173.068      1.0322518    
   1885000   300.37736      194.79703      55176.167     -20588.189      3360.3155     -17227.873      1.0339148    
   1886000   307.69076     -1558.1743      55460.102     -20597.667      3442.1304     -17155.537      1.0286216    
   1887000   301.30484     -374.43005      55456.978     -20539.132      3370.6913     -17168.441      1.0286795    
   1888000   305.59582      462.34829      55029.241     -20486.273      3418.6944     -17067.579      1.0366754    
   1889000   303.32179      124.00751      54897.914     -20717.809      3393.2549     -17324.554      1.0391553    
   1890000   294.88866      115.48537      54984.093     -20594.235      3298.9136     -17295.322      1.0375266    
   1891000   307.00066      872.61037      55723.683     -20606.464      3434.4103     -17172.054      1.0237561    
   1892000   310.38595      633.50234      54953.711     -20713.491      3472.2815     -17241.21       1.0381002    
   1893000   301.28823     -882.74964      55015.607     -20620.3        3370.5054     -17249.794      1.0369323    
   1894000   298.95553     -99.201525      54722.229     -20657.3        3344.4095     -17312.89       1.0424915    
   1895000   295.22092      289.59292      54554.057     -20620.647      3302.6305     -17318.016      1.0457051    
   1896000   293.25641     -743.4465       55505.483     -20625.351      3280.6536     -17344.698      1.0277806    
   1897000   302.96355     -227.72578      54977.603     -20590.005      3389.2472     -17200.758      1.0376491    
   1898000   300.98876      449.98806      54864.116     -20546.007      3367.1552     -17178.852      1.0397954    
   1899000   297.92643     -145.51878      54777.795     -20557.7        3332.8971     -17224.803      1.041434     
   1900000   298.63399     -53.253341      55051.558     -20524.259      3340.8126     -17183.446      1.0362551    
   1901000   298.04653     -5.9497892      55082.45      -20694.979      3334.2406     -17360.738      1.0356739    
   1902000   296.56117      469.60289      55136.011     -20583.695      3317.624      -17266.071      1.0346679    
   1903000   301.69839     -540.56402      54863.289     -20644.313      3375.0939     -17269.219      1.0398111    
   1904000   295.28484     -0.73493166     55262.548     -20555.622      3303.3456     -17252.276      1.0322987    
   1905000   298.70725     -705.01104      54926.019     -20578.545      3341.632      -17236.913      1.0386236    
   1906000   298.37544     -206.19865      55055.554     -20716.009      3337.9201     -17378.089      1.0361799    
   1907000   298.26494     -678.20841      55248.434     -20452.249      3336.6839     -17115.565      1.0325624    
   1908000   302.47422     -692.97063      55279.988     -20646.665      3383.7731     -17262.892      1.0319731    
   1909000   300.83438     -196.87317      54433.629     -20553.527      3365.4283     -17188.099      1.0480186    
   1910000   295.24872      2.786175       54887.056     -20616.326      3302.9416     -17313.384      1.0393609    
   1911000   301.95756      226.16403      55283.07      -20542.283      3377.9932     -17164.29       1.0319155    
   1912000   298.05247     -305.51543      55023.325     -20558.159      3334.3071     -17223.852      1.0367868    
   1913000   303.4682      -492.86586      55294.304     -20588.619      3394.8927     -17193.727      1.0317059    
   1914000   303.55588     -66.556593      55190.594     -20475.458      3395.8736     -17079.585      1.0336446    
   1915000   308.38938     -103.75596      55298.165     -20648.803      3449.9459     -17198.857      1.0316338    
   1916000   296.57202     -263.33572      55254.855     -20517.921      3317.7452     -17200.176      1.0324424    
   1917000   298.52133      288.20795      54728.57      -20739.018      3339.5522     -17399.466      1.0423707    
   1918000   295.39382      342.82022      55604.48      -20544.055      3304.5647     -17239.49       1.0259508    
   1919000   295.59973     -610.90964      55439.909     -20626.081      3306.8683     -17319.213      1.0289962    
   1920000   299.89635      467.96226      54549.75      -20598.955      3354.9345     -17244.021      1.0457877    
   1921000   301.14241     -82.390986      54828.795     -20603.361      3368.8742     -17234.487      1.0404653    
   1922000   294.90889     -316.01591      54650.298     -20617.397      3299.1398     -17318.257      1.0438636    
   1923000   297.68508      164.87412      54513.561     -20561.962      3330.1971     -17231.764      1.0464819    
   1924000   299.26285      808.61126      54771.45      -20660.738      3347.8475     -17312.89       1.0415546    
   1925000   301.00334      393.73535      55293.885     -20500.718      3367.3184     -17133.4        1.0317137    
   1926000   306.09355      421.72574      55167.899     -20456.753      3424.2624     -17032.491      1.0340698    
   1927000   301.7781      -114.59544      55162.308     -20522.342      3375.9856     -17146.357      1.0341746    
   1928000   292.92195      505.92003      54884.195     -20613.228      3276.9121     -17336.316      1.039415     
   1929000   299.2822      -1167.3937      54845.95      -20647.943      3348.0641     -17299.879      1.0401398    
   1930000   297.07294      86.45487       54551.115     -20593.817      3323.3491     -17270.468      1.0457615    
   1931000   297.64447     -556.78592      54882.054     -20608.878      3329.7427     -17279.135      1.0394556    
   1932000   299.32792      177.0917       55015.751     -20610.335      3348.5755     -17261.76       1.0369295    
   1933000   303.08591     -188.14977      54986.357     -20651.118      3390.6161     -17260.502      1.0374839    
   1934000   300.95113      135.99196      54529.25      -20591.111      3366.7343     -17224.377      1.0461809    
   1935000   303.2299      -296.06352      55272.3       -20601.625      3392.2269     -17209.398      1.0321166    
   1936000   302.56176      893.10092      54574.348     -20453.46       3384.7523     -17068.708      1.0453163    
   1937000   298.87994      519.00388      54936.398     -20543.533      3343.564      -17199.969      1.0384273    
   1938000   300.72825      613.55794      55177.517     -20582.354      3364.241      -17218.113      1.0338895    
   1939000   311.44563      249.44952      55003.784     -20600.712      3484.1361     -17116.576      1.0371552    
   1940000   298.1188      -660.04224      55326.259     -20566.081      3335.049      -17231.032      1.03111      
   1941000   295.32564      394.75195      54669.729     -20588.717      3303.8021     -17284.915      1.0434926    
   1942000   297.63901     -581.66857      54727.635     -20593.016      3329.6817     -17263.334      1.0423885    
   1943000   303.66698      107.15358      54876.322     -20597.201      3397.1164     -17200.085      1.0395642    
   1944000   297.70971     -897.1597       54752.657     -20518.573      3330.4726     -17188.1        1.0419121    
   1945000   304.8771       266.3355       54653.594     -20519.858      3410.6541     -17109.204      1.0438007    
   1946000   292.48337      121.44439      54764.279     -20568.407      3272.0056     -17296.402      1.041691     
   1947000   303.141        213.31947      55135.743     -20554.054      3391.2323     -17162.822      1.0346729    
   1948000   300.2362       300.37609      55114.346     -20678.411      3358.7365     -17319.675      1.0350746    
   1949000   305.34733     -190.336        54695.692     -20551.444      3415.9145     -17135.529      1.0429973    
   1950000   308.92736      1039.0216      54654.26      -20641.047      3455.9643     -17185.083      1.0437879    
   1951000   299.83312      827.88019      54957.862     -20601.047      3354.2272     -17246.82       1.0380218    
   1952000   302.31555      277.90953      54769.885     -20611.866      3381.998      -17229.868      1.0415844    
   1953000   302.46937     -424.00203      55416.027     -20526.912      3383.7189     -17143.193      1.0294397    
   1954000   294.98275     -297.07101      55295.618     -20621.687      3299.9661     -17321.721      1.0316813    
   1955000   299.28775      372.09748      54876.063     -20691.147      3348.1261     -17343.021      1.0395691    
   1956000   295.13856      538.11175      54933.668     -20506.862      3301.7092     -17205.153      1.038479     
   1957000   299.94801      139.71686      54543.815     -20620.083      3355.5125     -17264.571      1.0459015    
   1958000   303.15218      906.23682      54610.507     -20623.635      3391.3575     -17232.277      1.0446242    
   1959000   300.34826      1042.8014      54597.914     -20632.78       3359.99       -17272.79       1.0448652    
   1960000   305.75722      61.345954      55036.676     -20554.201      3420.5        -17133.701      1.0365353    
   1961000   295.40619      204.68444      54500.844     -20623.356      3304.7031     -17318.653      1.0467261    
   1962000   305.8888       674.09898      55125.125     -20539.155      3421.972      -17117.183      1.0348722    
   1963000   307.35012      768.2503       54643.401     -20528.678      3438.3197     -17090.358      1.0439954    
   1964000   298.21972     -507.44839      54854.133     -20626.121      3336.1781     -17289.943      1.0399847    
   1965000   300.69579      290.15109      55287.906     -20577.689      3363.8778     -17213.812      1.0318253    
   1966000   305.55823      486.94148      54531.485     -20520.988      3418.2739     -17102.714      1.046138     
   1967000   296.92796      264.56394      55034.319     -20561.134      3321.7272     -17239.407      1.0365797    
   1968000   297.49258      21.670381      55039.097     -20612.469      3328.0435     -17284.426      1.0364897    
   1969000   298.52088      384.03475      55304.157     -20547.619      3339.5472     -17208.071      1.0315221    
   1970000   302.30432      341.54983      55398.119     -20594.86       3381.8724     -17212.988      1.0297725    
   1971000   302.93428      343.05726      54983.355     -20558.281      3388.9197     -17169.361      1.0375405    
   1972000   293.35079      168.06643      55399.688     -20586.566      3281.7095     -17304.857      1.0297433    
   1973000   306.9344       127.14422      54884.101     -20572.979      3433.669      -17139.31       1.0394168    
   1974000   301.96348      752.10351      55265.521     -20651.919      3378.0594     -17273.86       1.0322432    
   1975000   301.8002       849.24407      55065.231     -20584.573      3376.2328     -17208.34       1.0359978    
   1976000   300.48371      235.71903      55118.286     -20458.752      3361.5053     -17097.246      1.0350006    
   1977000   293.2824       356.94206      54840.688     -20566.416      3280.9444     -17285.471      1.0402396    
   1978000   296.1136       124.50486      54662.951     -20605.38       3312.6169     -17292.763      1.043622     
   1979000   301.74313     -370.64962      54891.95      -20569.921      3375.5944     -17194.326      1.0392682    
   1980000   304.53363      816.4845       54910.202     -20588.757      3406.8117     -17181.945      1.0389227    
   1981000   301.19637      164.89039      54848.237     -20669.56       3369.4778     -17300.083      1.0400965    
   1982000   288.60695      40.72713       55031.852     -20547.935      3228.6403     -17319.295      1.0366262    
   1983000   302.20191     -165.98259      54707.104     -20543.278      3380.7268     -17162.551      1.0427797    
   1984000   304.70024      352.61698      54750.151     -20659.699      3408.6755     -17251.024      1.0419598    
   1985000   298.47036      738.09952      54784.333     -20676.814      3338.982      -17337.832      1.0413097    
   1986000   297.35465     -660.83483      55217.594     -20608.779      3326.5006     -17282.278      1.0331391    
   1987000   298.47812      779.32195      54905.423     -20694.007      3339.0687     -17354.938      1.0390132    
   1988000   297.07333     -812.25108      54966.714     -20545.223      3323.3535     -17221.869      1.0378546    
   1989000   296.3889       763.86236      54385.534     -20628.773      3315.6967     -17313.076      1.0489454    
   1990000   297.69104      218.55042      54643.679     -20630.605      3330.2637     -17300.342      1.0439901    
   1991000   301.08669      478.76265      54555.359     -20698.251      3368.2508     -17330          1.0456802    
   1992000   297.54611      365.93578      54623.304     -20638.815      3328.6424     -17310.172      1.0443795    
   1993000   293.18741     -401.85539      55790.415     -20475.121      3279.8817     -17195.239      1.0225315    
   1994000   298.90502      579.29954      55006.362     -20630.367      3343.8445     -17286.522      1.0371065    
   1995000   303.84839     -1018.8497      55562.046     -20532.808      3399.1459     -17133.662      1.0267343    
   1996000   297.37728     -188.42488      54786.034     -20688.196      3326.7538     -17361.443      1.0412774    
   1997000   301.34914      97.523172      54566.314     -20532.893      3371.1869     -17161.706      1.0454702    
   1998000   298.97668      131.71731      55136.166     -20514.285      3344.6462     -17169.639      1.0346649    
   1999000   294.8094       560.87343      54989.637     -20557.277      3298.0269     -17259.25       1.037422     
   2000000   300.13749     -1407.7311      55226.4       -20591.264      3357.6322     -17233.632      1.0329744    
   2001000   306.64284      886.93333      54737.897     -20634.381      3430.4074     -17203.973      1.0421931    
   2002000   300.84572      498.66319      55175.045     -20424.456      3365.5551     -17058.901      1.0339359    
   2003000   298.06363      193.89984      54756.301     -20649.16       3334.432      -17314.728      1.0418428    
   2004000   305.89216     -444.36415      55014.156     -20595.862      3422.0095     -17173.852      1.0369596    
   2005000   295.72268     -145.48063      55042.728     -20412.403      3308.2437     -17104.16       1.0364213    
   2006000   299.83016     -475.81832      54983.783     -20611.513      3354.1941     -17257.319      1.0375324    
   2007000   299.93641     -258.68839      55036.53      -20641.087      3355.3827     -17285.704      1.0365381    
   2008000   294.35111     -39.174231      54961.65      -20585.241      3292.9        -17292.341      1.0379502    
   2009000   288.43514      351.47907      55144.081     -20634.964      3226.7181     -17408.246      1.0345164    
   2010000   302.65384      1134.3039      54527.397     -20562.833      3385.7825     -17177.05       1.0462164    
   2011000   298.51796     -431.99834      54914.275     -20564.153      3339.5145     -17224.639      1.0388457    
   2012000   306.84717     -907.03217      55909.984     -20429.781      3432.6932     -16997.088      1.0203447    
   2013000   306.25399      2.0424758      55246.18      -20479.172      3426.0573     -17053.115      1.0326046    
   2014000   301.21322     -579.84294      55318.122     -20756.798      3369.6663     -17387.132      1.0312616    
   2015000   305.35245      276.99128      54874.382     -20642.261      3415.9718     -17226.289      1.0396009    
   2016000   297.55398     -137.25128      54791.116     -20652.36       3328.7305     -17323.629      1.0411808    
   2017000   299.12687      240.18423      55415.031     -20590.112      3346.3264     -17243.786      1.0294582    
   2018000   296.84845     -334.80087      55270.61      -20707.234      3320.8377     -17386.396      1.0321481    
   2019000   297.98127     -310.27695      55160.609     -20653.049      3333.5105     -17319.539      1.0342064    
   2020000   305.04482     -591.45511      55322.931     -20465.413      3412.5303     -17052.882      1.031172     
   2021000   300.35746     -121.58058      55202.322     -20549.251      3360.0929     -17189.158      1.033425     
   2022000   299.48192      242.20804      55013.375     -20667.423      3350.2983     -17317.125      1.0369743    
   2023000   300.35667     -1260.1138      55527.722     -20611.007      3360.0841     -17250.923      1.0273689    
   2024000   302.66667     -41.377012      55389.836     -20642.074      3385.926      -17256.148      1.0299265    
   2025000   291.31777     -1063.1832      54970.949     -20722.52       3258.9661     -17463.554      1.0377747    
   2026000   305.07232     -108.43176      54581.432     -20510.209      3412.8379     -17097.371      1.0451807    
   2027000   298.12451     -139.52963      54976.882     -20511.32       3335.113      -17176.207      1.0376627    
   2028000   305.97161     -822.69624      55226.479     -20566.1        3422.8983     -17143.202      1.0329729    
   2029000   297.70991      929.72709      54646.792     -20532.012      3330.4748     -17201.537      1.0439306    
   2030000   296.56451     -70.955106      55828.594     -20566.066      3317.6613     -17248.405      1.0218322    
   2031000   303.96679      1141.8998      55093.681     -20573.865      3400.4704     -17173.394      1.0354628    
   2032000   301.92412     -148.87276      54807.824     -20695.73       3377.6192     -17318.111      1.0408634    
   2033000   296.52756     -197.09491      55495.104     -20532.552      3317.2479     -17215.304      1.0279728    
   2034000   298.9136       654.00637      55116.634     -20514.705      3343.9405     -17170.764      1.0350316    
   2035000   298.61251     -65.387916      55072.936     -20573.724      3340.5722     -17233.152      1.0358529    
   2036000   297.78607     -414.92348      55073.002     -20601.356      3331.3268     -17270.029      1.0358516    
   2037000   296.9421      -179.64355      55015.404     -20702.758      3321.8854     -17380.872      1.0369361    
   2038000   296.61364     -329.47437      54963.301     -20578.597      3318.2109     -17260.386      1.0379191    
   2039000   296.48056     -81.839977      55511.893     -20586.399      3316.7222     -17269.677      1.0276619    
   2040000   306.60642      161.25713      55310.519     -20633.314      3429.9999     -17203.314      1.0314034    
   2041000   301.47419     -77.123059      55454.614     -20548.435      3372.5858     -17175.849      1.0287234    
   2042000   307.29878      246.50597      55343.868     -20599.424      3437.7453     -17161.678      1.0307819    
   2043000   298.50607      77.79912       55269.99      -20651.515      3339.3815     -17312.134      1.0321597    
   2044000   298.29549      317.97176      55117.17      -20532.899      3337.0258     -17195.873      1.0350215    
   2045000   297.97859     -354.76596      54718.063     -20461.832      3333.4806     -17128.352      1.0425709    
   2046000   299.56909     -104.69458      55091.27      -20529.87       3351.2734     -17178.597      1.0355081    
   2047000   298.54959     -738.03369      55109.383     -20638.681      3339.8683     -17298.813      1.0351678    
   2048000   299.17581      159.58235      55411.612     -20601.773      3346.8738     -17254.899      1.0295217    
   2049000   298.49798     -471.24728      54905.387     -20467.946      3339.2909     -17128.655      1.0390138    
   2050000   297.22691     -381.89709      55405.978     -20562.615      3325.0715     -17237.544      1.0296264    
   2051000   304.7212       19.41849       55557.315     -20551.631      3408.91       -17142.721      1.0268217    
   2052000   301.4749       303.95082      54864.883     -20530.68       3372.5937     -17158.086      1.0397809    
   2053000   294.07218      25.313031      55237.306     -20498.918      3289.7796     -17209.138      1.0327705    
   2054000   292.66887      290.99786      54843.311     -20608.676      3274.0808     -17334.595      1.0401899    
   2055000   305.45615      333.73286      54489.831     -20607.423      3417.1318     -17190.291      1.0469377    
   2056000   299.41533      368.33933      55307.054     -20634.585      3349.5533     -17285.032      1.031468     
   2057000   304.45119     -279.90185      55602.745     -20519.856      3405.8895     -17113.967      1.0259828    
   2058000   302.46284      350.33411      54778.061     -20755.687      3383.6458     -17372.041      1.0414289    
   2059000   299.54647      189.76863      54579.932     -20690.488      3351.0204     -17339.468      1.0452094    
   2060000   307.38581     -127.16089      55286.778     -20416.48       3438.7189     -16977.761      1.0318463    
   2061000   296.49331      322.78054      55451.681     -20512.985      3316.8647     -17196.12       1.0287778    
   2062000   291.34835      928.04551      54702.935     -20636.888      3259.3082     -17377.58       1.0428592    
   2063000   300.3521      -112.09371      55053.022     -20546.569      3360.033      -17186.536      1.0362275    
   2064000   301.96956      9.152905       54800.617     -20562.126      3378.1274     -17183.999      1.0410003    
   2065000   295.95488      502.53686      54707.622     -20683.156      3310.8413     -17372.314      1.0427698    
   2066000   297.23949     -449.89072      55212.999     -20484.703      3325.2122     -17159.491      1.0332251    
   2067000   298.75714      984.48754      54907.076     -20526.467      3342.1902     -17184.276      1.0389819    
   2068000   302.47247      184.06524      55077.92      -20646.421      3383.7535     -17262.668      1.0357591    
   2069000   299.26911      36.924629      54623.774     -20634.296      3347.9175     -17286.379      1.0443705    
   2070000   302.23138     -473.55638      55256.462     -20534.332      3381.0564     -17153.275      1.0324124    
   2071000   297.71039     -156.29946      55307.73      -20517.855      3330.4802     -17187.375      1.0314554    
   2072000   304.91104     -213.67021      55206.756     -20513.102      3411.0338     -17102.069      1.033342     
   2073000   302.5485      -642.19561      55392.27      -20491.289      3384.6041     -17106.685      1.0298812    
   2074000   302.13447      146.29991      54938.499     -20699.381      3379.9723     -17319.408      1.0383876    
   2075000   295.31705     -123.29241      55102.524     -20576.015      3303.706      -17272.309      1.0352966    
   2076000   295.97043      32.90103       54860.594     -20535.472      3311.0153     -17224.457      1.0398622    
   2077000   300.05478      626.68231      54642.584     -20541.531      3356.7068     -17184.824      1.044011     
   2078000   304.57024      48.279894      54829.89      -20655.971      3407.2213     -17248.749      1.0404445    
   2079000   302.48116     -45.03735       55057.487     -20658.141      3383.8507     -17274.291      1.0361435    
   2080000   295.96143     -855.53128      54862.939     -20615.796      3310.9146     -17304.881      1.0398177    
   2081000   300.1169       821.22678      54883.456     -20613.295      3357.4018     -17255.893      1.039429     
   2082000   297.30122     -242.29768      54930.192     -20553.373      3325.9029     -17227.47       1.0385447    
   2083000   301.21002      207.75097      55100.542     -20625.064      3369.6305     -17255.434      1.0353339    
   2084000   301.8041      -446.79647      55771.414     -20519.131      3376.2764     -17142.855      1.0228799    
   2085000   293.6716      -1101.7608      55331.856     -20691.939      3285.2983     -17406.64       1.0310057    
   2086000   298.41462      50.335464      54479.205     -20630.634      3338.3584     -17292.275      1.0471419    
   2087000   297.90822     -758.89324      54825.041     -20516.218      3332.6933     -17183.524      1.0405365    
   2088000   301.99356     -485.34167      55088.171     -20635.183      3378.396      -17256.787      1.0355664    
   2089000   296.08988      573.11842      54820.016     -20591.559      3312.3516     -17279.207      1.0406319    
   2090000   302.72016     -648.30171      55649.233     -20631.588      3386.5244     -17245.063      1.0251257    
   2091000   298.6539       729.40571      54786.623     -20549.8        3341.0352     -17208.765      1.0412662    
   2092000   295.21157      112.22905      54643.405     -20670.072      3302.526      -17367.546      1.0439953    
   2093000   303.22464     -56.752578      54943.415     -20599.564      3392.168      -17207.396      1.0382947    
   2094000   305.68129     -299.60354      55455.228     -20546.317      3419.6505     -17126.667      1.028712     
   2095000   302.51154     -201.00337      55146.153     -20574.176      3384.1906     -17189.985      1.0344776    
   2096000   299.77537     -149.36445      55440.158     -20634.293      3353.5811     -17280.712      1.0289916    
   2097000   302.62662      406.84897      55385.919     -20687.738      3385.478      -17302.26       1.0299993    
   2098000   301.43795      408.54139      54937.491     -20584.532      3372.1804     -17212.352      1.0384067    
   2099000   306.80835      423.17848      54643.445     -20694.579      3432.259      -17262.32       1.0439945    
   2100000   302.39228      435.92799      54860.72      -20647.48       3382.8564     -17264.624      1.0398598    
   2101000   301.77445     -207.769        55397.317     -20602.828      3375.9448     -17226.883      1.0297874    
   2102000   297.62555      271.95512      54657.388     -20658.127      3329.5311     -17328.596      1.0437282    
   2103000   296.18489      405.28419      54698.395     -20600.331      3313.4144     -17286.916      1.0429457    
   2104000   308.92165      110.03257      54713.145     -20468.256      3455.9004     -17012.356      1.0426646    
   2105000   299.44831     -189.54035      54856.982     -20668.25       3349.9222     -17318.327      1.0399307    
   2106000   297.38537     -1095.6858      55216.242     -20589.823      3326.8442     -17262.979      1.0331644    
   2107000   293.83726     -118.49273      55074.584     -20604.849      3287.1516     -17317.698      1.0358218    
   2108000   296.43009     -130.43283      55104.891     -20549.445      3316.1575     -17233.287      1.0352522    
   2109000   288.77987      493.24465      54966.768     -20773.105      3230.5747     -17542.53       1.0378536    
   2110000   296.20845     -88.840778      55166.834     -20424.992      3313.678      -17111.314      1.0340897    
   2111000   304.35009     -404.89733      54582.838     -20561.087      3404.7584     -17156.329      1.0451538    
   2112000   294.54429     -294.90039      55284.857     -20477.092      3295.0611     -17182.031      1.0318822    
   2113000   301.99957     -808.60799      55220.406     -20674.667      3378.4632     -17296.204      1.0330865    
   2114000   302.90946      585.83741      54929.058     -20597.37       3388.6421     -17208.728      1.0385661    
   2115000   297.62886     -385.44874      55754.323     -20595.692      3329.5681     -17266.124      1.0231934    
   2116000   300.46571     -281.64743      54691.026     -20396.408      3361.3039     -17035.104      1.0430862    
   2117000   301.23448     -25.964273      55041.346     -20542.777      3369.9041     -17172.873      1.0364474    
   2118000   308.4336       473.23095      55096.499     -20718.106      3450.4406     -17267.666      1.0354098    
   2119000   301.27947     -648.98679      55013.357     -20727.531      3370.4074     -17357.124      1.0369747    
   2120000   299.0498      -412.44771      54382.663     -20732.13       3345.4641     -17386.666      1.0490008    
   2121000   298.09486     -721.10018      55418.476     -20619.979      3334.7812     -17285.198      1.0293942    
   2122000   302.63102      988.14886      54855.728     -20656.336      3385.5272     -17270.809      1.0399544    
   2123000   299.90613      64.304529      54983.488     -20646.566      3355.0439     -17291.522      1.037538     
   2124000   300.37208      707.2668       55175.425     -20595.916      3360.2564     -17235.66       1.0339287    
   2125000   290.69796      599.76178      54614.881     -20591.203      3252.0323     -17339.171      1.0445405    
   2126000   297.08004      50.441806      54689.58      -20636.133      3323.4285     -17312.705      1.0431138    
   2127000   295.60719     -102.64494      54787.116     -20650.214      3306.9518     -17343.262      1.0412568    
   2128000   298.38371      236.50937      54501.827     -20644.95       3338.0126     -17306.938      1.0467073    
   2129000   300.39595      571.39489      54837.136     -20580.425      3360.5235     -17219.902      1.040307     
   2130000   299.53551     -102.44535      54829.765     -20507.299      3350.8978     -17156.401      1.0404469    
   2131000   297.98508      47.477077      55175.58      -20449.691      3333.5532     -17116.138      1.0339258    
   2132000   294.76587     -8.3471965      54591.796     -20612.248      3297.5399     -17314.708      1.0449823    
   2133000   299.7152      -1002.051       55108.163     -20571.519      3352.9079     -17218.611      1.0351907    
   2134000   301.22128      495.01816      54700.937     -20684.8        3369.7565     -17315.043      1.0428973    
   2135000   305.1089      -110.80442      54867.688     -20679.793      3413.2472     -17266.545      1.0397277    
   2136000   307.13988      155.85454      54973.887     -20632.749      3435.9677     -17196.782      1.0377192    
   2137000   302.31747     -111.46622      54772.226     -20641.826      3382.0195     -17259.807      1.0415399    
   2138000   298.20133     -591.24918      54887.469     -20589.714      3335.9724     -17253.741      1.039353     
   2139000   298.78824      554.09511      54653.736     -20613.192      3342.5381     -17270.654      1.043798     
   2140000   303.54696      307.08604      55310.707     -20474.063      3395.7738     -17078.289      1.0313999    
   2141000   302.12683      425.03904      55023.366     -20550.919      3379.8869     -17171.033      1.036786     
   2142000   301.71732     -421.89138      55130.93      -20644.589      3375.3056     -17269.283      1.0347632    
   2143000   304.06099      85.69573       54918.975     -20630.797      3401.5243     -17229.272      1.0387568    
   2144000   304.31118      456.24853      54526.571     -20669.546      3404.3231     -17265.223      1.0462323    
   2145000   298.49188      226.32744      54867.62      -20560.238      3339.2227     -17221.016      1.039729     
   2146000   304.55164     -569.40734      54839.691     -20616.769      3407.0131     -17209.756      1.0402585    
   2147000   305.29522      225.43381      54340.21      -20587.502      3415.3315     -17172.171      1.0498203    
   2148000   296.00925     -501.64299      54955.474     -20529.105      3311.4496     -17217.656      1.0380669    
   2149000   298.36435     -803.67771      55033.689     -20575.536      3337.7961     -17237.74       1.0365916    
   2150000   296.88821     -547.57476      54713.095     -20675.269      3321.2824     -17353.987      1.0426655    
   2151000   297.68445      78.779923      54892.325     -20671.577      3330.19       -17341.387      1.0392611    
   2152000   301.64101      272.81692      55180.269     -20653.767      3374.4519     -17279.315      1.033838     
   2153000   295.63072      973.96376      54286.211     -20487.599      3307.215      -17180.384      1.0508646    
   2154000   296.66001      331.83613      55382.676     -20548.25       3318.7297     -17229.52       1.0300596    
   2155000   305.9415       340.99797      55469.504     -20508.561      3422.5615     -17086          1.0284472    
   2156000   293.61478      440.8735       55241.169     -20655.216      3284.6627     -17370.554      1.0326982    
   2157000   308.99506     -652.14545      54900.397     -20587.794      3456.7216     -17131.073      1.0391083    
   2158000   300.51264     -121.25838      55143.365     -20648.731      3361.8289     -17286.902      1.0345299    
   2159000   294.98802     -349.45192      55408.841     -20542.072      3300.0251     -17242.047      1.0295732    
   2160000   296.85967     -26.228756      54923.465     -20670.675      3320.9632     -17349.712      1.0386719    
   2161000   298.2758       243.34255      54530.096     -20645.924      3336.8055     -17309.119      1.0461646    
   2162000   301.74795     -166.10621      54700.305     -20589.964      3375.6483     -17214.316      1.0429093    
   2163000   290.82435     -353.44967      55266.099     -20461.361      3253.4462     -17207.915      1.0322324    
   2164000   305.79149      587.64864      54460.087     -20622.377      3420.8833     -17201.493      1.0475095    
   2165000   292.4518      -625.26298      55117.228     -20578.574      3271.6524     -17306.922      1.0350204    
   2166000   297.78043      112.87546      54874.208     -20576.325      3331.2637     -17245.062      1.0396042    
   2167000   297.73562     -544.25857      55288.951     -20493.434      3330.7625     -17162.672      1.0318057    
   2168000   304.64894      286.16117      54903.746     -20608.643      3408.1017     -17200.541      1.0390449    
   2169000   300.79082      536.87737      55168.298     -20687.449      3364.9409     -17322.508      1.0340623    
   2170000   309.83897     -652.57399      54989.061     -20678.892      3466.1624     -17212.73       1.0374328    
   2171000   295.73579     -368.66454      55408.555     -20653.727      3308.3905     -17345.337      1.0295785    
   2172000   299.1743       59.769491      55001.643     -20650.686      3346.8569     -17303.83       1.0371955    
   2173000   293.4386       216.79671      55154.746     -20520.553      3282.6918     -17237.861      1.0343164    
   2174000   297.45838     -231.64399      55030.67      -20443.017      3327.6609     -17115.356      1.0366484    
   2175000   291.58341     -117.95708      54516.926     -20595.57       3261.9378     -17333.632      1.0464174    
   2176000   298.91932     -417.11543      55070.302     -20491.967      3344.0045     -17147.963      1.0359024    
   2177000   303.76783      668.19885      54474.499     -20579.226      3398.2446     -17180.981      1.0472323    
   2178000   297.60862     -641.34913      55459.5       -20595.287      3329.3417     -17265.945      1.0286327    
   2179000   299.73704      501.15793      54885.268     -20621.21       3353.1523     -17268.057      1.0393947    
   2180000   301.75688      260.36073      54793.398     -20691.911      3375.7482     -17316.163      1.0411374    
   2181000   304.86532     -24.634495      54689.962     -20662.079      3410.5222     -17251.557      1.0431066    
   2182000   310.81811      346.09553      55035.66      -20572.217      3477.116      -17095.101      1.0365544    
   2183000   299.91755      80.120443      55163.647     -20524.68       3355.1717     -17169.509      1.0341495    
   2184000   302.95558      174.14831      54696.832     -20595.321      3389.1581     -17206.163      1.0429755    
   2185000   299.97307      69.568677      55163.435     -20523.707      3355.7928     -17167.914      1.0341535    
   2186000   299.69483     -0.93606397     54981.188     -20585.525      3352.6801     -17232.845      1.0375814    
   2187000   303.35463     -9.1377362      55419.615     -20578.699      3393.6222     -17185.077      1.029373     
   2188000   296.45346      328.124        55088.947     -20655.656      3316.4189     -17339.237      1.0355518    
   2189000   307.86611     -305.915        55681         -20522.38       3444.0921     -17078.288      1.0245408    
   2190000   302.32947      317.40838      54901.302     -20620.413      3382.1538     -17238.26       1.0390912    
   2191000   299.84883      515.27626      54814.439     -20758.383      3354.4029     -17403.98       1.0407378    
   2192000   290.99699      283.07947      54762.023     -20625.601      3255.3776     -17370.224      1.0417339    
   2193000   295.91463      271.31011      54710.92      -20607.929      3310.3911     -17297.538      1.042707     
   2194000   296.22881      111.60821      55140.609     -20659.912      3313.9058     -17346.007      1.0345816    
   2195000   302.92567     -401.84267      54947.253     -20695.001      3388.8235     -17306.178      1.0382222    
   2196000   296.97554      15.13504       55028.812     -20571.032      3322.2595     -17248.773      1.0366834    
   2197000   302.39564     -210.10008      55279.068     -20496.413      3382.894      -17113.519      1.0319902    
   2198000   301.61439     -43.693224      54914.296     -20574.447      3374.1542     -17200.292      1.0388453    
   2199000   292.19992      239.05585      55271.581     -20528.588      3268.8346     -17259.754      1.03213      
   2200000   305.34312      609.64455      55346.941     -20632.299      3415.8674     -17216.431      1.0307247    
   2201000   297.64955     -243.48647      55098.517     -20594.117      3329.7996     -17264.318      1.0353719    
   2202000   296.17249      362.25005      55424.034     -20616.609      3313.2758     -17303.334      1.029291     
   2203000   304.76843     -456.744        55587.07      -20732.964      3409.4383     -17323.526      1.0262721    
   2204000   305.77874     -453.92471      55078.886     -20554.658      3420.7407     -17133.918      1.0357409    
   2205000   295.18974      200.31349      54962.001     -20515.778      3302.2817     -17213.496      1.0379436    
   2206000   296.20231      314.43506      54470.961     -20697.076      3313.6094     -17383.466      1.0473004    
   2207000   301.29856     -453.84809      55027.499     -20542.01       3370.621      -17171.389      1.0367082    
   2208000   300.66717      324.37944      55150.685     -20560.235      3363.5576     -17196.677      1.0343925    
   2209000   301.5703       54.57208       55037.076     -20601.728      3373.661      -17228.067      1.0365278    
   2210000   301.44102     -636.97683      55255.253     -20781.886      3372.2147     -17409.671      1.032435     
   2211000   301.99251     -615.31061      55502.913     -20666.881      3378.3842     -17288.497      1.0278282    
   2212000   303.6846      -565.33124      55753.835     -20535.446      3397.3136     -17138.132      1.0232024    
   2213000   294.82349      19.749239      54795.842     -20549.666      3298.1845     -17251.481      1.041091     
   2214000   298.88923     -309.44209      55048.23      -20623.545      3343.6679     -17279.877      1.0363178    
   2215000   298.46147      205.38374      55160.452     -20625.948      3338.8825     -17287.066      1.0342094    
   2216000   294.18491      290.78374      55273.057     -20624.972      3291.0407     -17333.931      1.0321025    
   2217000   300.59033     -479.95812      54822.424     -20511.248      3362.698      -17148.55       1.0405862    
   2218000   303.35264      443.04768      54643.384     -20622.759      3393.6        -17229.159      1.0439957    
   2219000   299.72623     -120.13683      54942.733     -20585.634      3353.0314     -17232.603      1.0383076    
   2220000   301.37669      189.16838      54832.162     -20605.049      3371.495      -17233.554      1.0404014    
   2221000   305.13196      711.35772      55144.521     -20639.64       3413.5052     -17226.134      1.0345082    
   2222000   292.37615     -79.72121       55076.685     -20591.311      3270.8062     -17320.505      1.0357823    
   2223000   297.46784      185.13091      55349.094     -20558.137      3327.7668     -17230.37       1.0306846    
   2224000   295.78025     -705.40177      55083.1       -20559.429      3308.8878     -17250.541      1.0356617    
   2225000   294.16208     -377.83537      54722.365     -20716.121      3290.7853     -17425.336      1.0424889    
   2226000   304.35936     -489.90898      54823.773     -20643.623      3404.8622     -17238.761      1.0405606    
   2227000   297.11558     -69.722507      54770.01      -20566.11       3323.8261     -17242.283      1.041582     
   2228000   295.10413      223.08295      54930.257     -20644.018      3301.3241     -17342.694      1.0385434    
   2229000   300.07064      266.9132       54641.954     -20546.889      3356.8843     -17190.005      1.044023     
   2230000   304.9672      -194.39738      54695.03      -20613.736      3411.662      -17202.074      1.0430099    
   2231000   299.37644     -784.3713       54873.649     -20543.971      3349.1183     -17194.853      1.0396148    
   2232000   302.06023     -156.42282      54680.981     -20533.633      3379.1418     -17154.491      1.0432779    
   2233000   297.72143      220.87807      54645.435     -20637.117      3330.6037     -17306.513      1.0439565    
   2234000   296.45562     -271.71528      55306.901     -20504.43       3316.4431     -17187.987      1.0314709    
   2235000   309.36028      186.17866      55249.41      -20651.819      3460.8073     -17191.011      1.0325442    
   2236000   291.42415     -971.81211      55246.313     -20531.051      3260.1562     -17270.894      1.0326021    
   2237000   304.97705      176.85296      54746.81      -20644.403      3411.7722     -17232.631      1.0420234    
   2238000   294.47742     -510.20528      54961.113     -20571.666      3294.313      -17277.353      1.0379604    
   2239000   295.73708     -659.2654       54820.173     -20539.638      3308.4048     -17231.234      1.0406289    
   2240000   300.54262      49.747619      54809.834     -20604.302      3362.1643     -17242.138      1.0408252    
   2241000   306.39857     -299.51737      55164.148     -20427.77       3427.6747     -17000.096      1.0341401    
   2242000   296.81559      140.1614       55515.483     -20563.314      3320.4701     -17242.844      1.0275954    
   2243000   300.53188      227.76794      55576.866     -20487.84       3362.0442     -17125.796      1.0264605    
   2244000   295.69626     -37.900492      55402.703     -20555.555      3307.9482     -17247.607      1.0296873    
   2245000   290.75334     -639.2107       55401.907     -20574.5        3252.6519     -17321.848      1.0297021    
   2246000   300.17539     -487.42745      55316.624     -20399.999      3358.0562     -17041.943      1.0312896    
   2247000   300.50807     -92.156631      54760.843     -20714.601      3361.7778     -17352.824      1.0417564    
   2248000   304.81145     -167.31363      54485.037     -20472.048      3409.9197     -17062.128      1.0470298    
   2249000   300.93893     -475.47607      55282.93      -20503.709      3366.5978     -17137.111      1.0319181    
   2250000   302.15474      13.835904      54938.304     -20549.656      3380.1991     -17169.457      1.0383913    
   2251000   302.88912      29.479703      54933.033     -20614.848      3388.4145     -17226.433      1.0384909    
   2252000   304.08879     -126.51623      55086.604     -20595.722      3401.8353     -17193.887      1.0355958    
   2253000   299.19298     -569.49127      55149.976     -20528.268      3347.0659     -17181.202      1.0344058    
   2254000   295.63639      180.10102      54939.615     -20616.891      3307.2784     -17309.613      1.0383665    
   2255000   293.77371     -601.3488       54872.292     -20650.157      3286.4406     -17363.717      1.0396405    
   2256000   299.11328     -562.25761      55265.377     -20572.375      3346.1744     -17226.201      1.0322459    
   2257000   299.69619      217.60385      54977.988     -20553.97       3352.6953     -17201.275      1.0376418    
   2258000   302.13641     -560.80406      54953.906     -20656.747      3379.994      -17276.753      1.0380965    
   2259000   301.1537       89.948163      55042.133     -20526.855      3369.0004     -17157.855      1.0364325    
   2260000   298.92742      530.67523      54593.754     -20585.541      3344.0951     -17241.446      1.0449448    
   2261000   303.8928       190.1868       54954.245     -20542.287      3399.6427     -17142.644      1.0380901    
   2262000   305.70472      644.91343      55077.573     -20672.612      3419.9126     -17252.7        1.0357656    
   2263000   296.50485     -671.14385      55093.793     -20618.638      3316.9939     -17301.644      1.0354607    
   2264000   301.90508      737.17621      55149.461     -20731.297      3377.4061     -17353.89       1.0344155    
   2265000   302.37638      1214.0843      54718.689     -20658.95       3382.6786     -17276.271      1.0425589    
   2266000   297.31921     -111.43352      54774.736     -20537.084      3326.104      -17210.98       1.0414921    
   2267000   297.0125      -306.65535      55279.853     -20622.873      3322.6729     -17300.2        1.0319756    
   2268000   298.02422     -991.7314       55313.249     -20530.306      3333.991      -17196.315      1.0313525    
   2269000   299.13013      357.92562      55159.858     -20586.124      3346.3628     -17239.762      1.0342205    
   2270000   299.25745      522.73448      54411.593     -20598.167      3347.7872     -17250.38       1.0484431    
   2271000   304.50217     -22.858159      55221.173     -20600.819      3406.4597     -17194.359      1.0330722    
   2272000   298.91228     -419.86591      55284.023     -20562.366      3343.9258     -17218.44       1.0318977    
   2273000   295.95478      56.727024      54861.902     -20693.875      3310.8402     -17383.035      1.0398374    
   2274000   303.33414     -370.15174      54393.256     -20562.351      3393.393      -17168.958      1.0487965    
   2275000   300.87607     -284.17267      54957.251     -20627.739      3365.8947     -17261.844      1.0380333    
   2276000   302.37828     -122.42197      55500.775     -20560.382      3382.6998     -17177.682      1.0278678    
   2277000   297.6108       322.40964      54463.342     -20628.456      3329.3661     -17299.09       1.0474469    
   2278000   299.31728      155.64517      54802.609     -20587.634      3348.4564     -17239.178      1.0409624    
   2279000   305.99523      1244.5444      54679.02      -20583.686      3423.1626     -17160.524      1.0433153    
   2280000   295.28238      162.00978      54414.952     -20519.635      3303.3181     -17216.317      1.0483784    
   2281000   303.4304       411.76327      54130.178     -20524.979      3394.4698     -17130.51       1.0538938    
   2282000   305.52537      261.21901      54235.285     -20596.88       3417.9063     -17178.973      1.0518514    
   2283000   304.2666      -92.524491      54876.131     -20462.98       3403.8244     -17059.156      1.0395678    
   2284000   296.78892     -318.42188      54147.169     -20608.168      3320.1718     -17287.996      1.0535631    
   2285000   297.19465     -59.596021      54859.535     -20567.598      3324.7107     -17242.887      1.0398823    
   2286000   299.09003      268.93873      54566.853     -20555.787      3345.9142     -17209.873      1.0454599    
   2287000   298.03788      60.960042      55005.9       -20552.857      3334.1438     -17218.713      1.0371152    
   2288000   295.95809     -165.19191      55148.988     -20638.373      3310.8772     -17327.496      1.0344244    
   2289000   301.74824      241.52433      55009.646     -20493.304      3375.6515     -17117.652      1.0370446    
   2290000   304.37291      350.4383       55011.954     -20527.436      3405.0137     -17122.422      1.0370011    
   2291000   300.15778      90.8596        55028.485     -20440.663      3357.8591     -17082.804      1.0366896    
   2292000   304.00184      19.983372      55032.85      -20611.838      3400.8626     -17210.976      1.0366074    
   2293000   299.43071      3.9847371      55309.744     -20403.504      3349.7254     -17053.778      1.0314179    
   2294000   298.59322     -146.0002       54893.544     -20552.705      3340.3564     -17212.348      1.039238     
   2295000   305.13095      445.93458      54738.812     -20428.589      3413.4938     -17015.095      1.0421757    
   2296000   300.73132      35.373235      54266.274     -20529.212      3364.2753     -17164.937      1.0512507    
   2297000   301.41751     -250.69315      55000.152     -20626.321      3371.9517     -17254.369      1.0372236    
   2298000   299.57502      1408.6356      55417.722     -20691.921      3351.3398     -17340.581      1.0294082    
   2299000   300.74949     -32.510348      54320.16      -20663.009      3364.4785     -17298.53       1.0502078    
   2300000   301.34809      99.344003      54872.005     -20571.69       3371.175      -17200.515      1.0396459    
   2301000   296.69918      176.93631      54855.92      -20627.154      3319.1679     -17307.987      1.0399508    
   2302000   297.38977     -75.836472      54736.839     -20722.571      3326.8935     -17395.677      1.0422132    
   2303000   295.73697     -621.3456       55507.002     -20670.6        3308.4036     -17362.196      1.0277525    
   2304000   298.0774      -24.944101      54946.48      -20430.319      3334.586      -17095.733      1.0382368    
   2305000   308.26897      659.50846      54994.59      -20618.169      3448.5988     -17169.571      1.0373285    
   2306000   299.94997     -53.697872      54990.243     -20654.427      3355.5343     -17298.893      1.0374105    
   2307000   301.51531     -233.84821      54937.631     -20561.884      3373.0457     -17188.838      1.038404     
   2308000   302.72914      302.01998      55049.708     -20626.625      3386.6249     -17240          1.0362899    
   2309000   294.9725      -944.00142      55004.845     -20548.379      3299.8515     -17248.527      1.0371351    
   2310000   306.72037     -2.3315024      55198.976     -20710.361      3431.2747     -17279.087      1.0334876    
   2311000   303.75902     -495.36164      55368.486     -20605.489      3398.1462     -17207.343      1.0303236    
   2312000   298.50996     -241.66016      55144.405     -20497.827      3339.425      -17158.402      1.0345103    
   2313000   305.29705      372.32627      54829.464     -20550.088      3415.352      -17134.736      1.0404526    
   2314000   305.14787     -2.6548162      55054.199     -20611.226      3413.6832     -17197.543      1.0362054    
   2315000   303.59531      226.08714      55317.599     -20541.633      3396.3147     -17145.318      1.0312714    
   2316000   296.62987      131.41736      54735.805     -20671.833      3318.3925     -17353.441      1.0422329    
   2317000   301.00673     -330.13826      55069.282     -20571.095      3367.3563     -17203.738      1.0359216    
   2318000   303.39797      624.56784      54511.948     -20589.532      3394.1071     -17195.425      1.0465129    
   2319000   303.79344      800.29174      55062.412     -20524.623      3398.5312     -17126.092      1.0360508    
   2320000   299.51473      399.03109      54744.898     -20584.646      3350.6653     -17233.981      1.0420598    
   2321000   298.50605     -631.4659       55750.845     -20474.385      3339.3813     -17135.004      1.0232573    
   2322000   297.38302     -571.29034      54917.584     -20547.578      3326.8179     -17220.76       1.0387831    
   2323000   303.19199     -3.0415543      55322.154     -20624.227      3391.8027     -17232.424      1.0311865    
   2324000   302.443        367.26929      54808.367     -20560.484      3383.4239     -17177.06       1.0408531    
   2325000   297.42324      190.53036      54811.011     -20500.43       3327.2679     -17173.162      1.0408029    
   2326000   298.68273     -159.81094      54967.929     -20612.208      3341.3577     -17270.85       1.0378317    
   2327000   297.30721      137.80785      54965.05      -20756.745      3325.9699     -17430.775      1.037886     
   2328000   302.98521      703.6686       55135.838     -20626.52       3389.4895     -17237.03       1.0346711    
   2329000   296.87927     -722.08044      54977.385     -20602.763      3321.1825     -17281.58       1.0376532    
   2330000   303.0764       784.66551      55183.13      -20615.919      3390.5097     -17225.409      1.0337844    
   2331000   293.05661     -587.50108      54599.002     -20592.784      3278.4185     -17314.366      1.0448443    
   2332000   294.70772      263.87359      54668.19      -20638.577      3296.8894     -17341.688      1.043522     
   2333000   295.27141     -169.55155      54779.497     -20621.892      3303.1954     -17318.697      1.0414016    
   2334000   300.5048      -11.651669      54698.756     -20624.062      3361.7413     -17262.32       1.0429388    
   2335000   294.53393     -345.38295      55042.36      -20618.867      3294.9452     -17323.922      1.0364283    
   2336000   299.72746     -505.18448      55425.789     -20555.743      3353.0451     -17202.697      1.0292584    
   2337000   298.19537      64.847795      54988.103     -20485.455      3335.9057     -17149.549      1.0374509    
   2338000   306.04795      249.05523      54819.149     -20521.456      3423.7523     -17097.704      1.0406484    
   2339000   298.8621       291.20313      54105.993     -20613.84       3343.3644     -17270.476      1.0543649    
   2340000   302.95895     -133.73073      55555.215     -20490.48       3389.1957     -17101.284      1.0268605    
   2341000   308.46765      142.18753      55246.38      -20551.003      3450.8214     -17100.182      1.0326008    
   2342000   309.66431     -687.35455      54871.627     -20450.439      3464.2084     -16986.23       1.0396531    
   2343000   298.18067     -216.32111      54501.697     -20494.503      3335.7413     -17158.762      1.0467097    
   2344000   302.21203      414.45943      54863.782     -20472.877      3380.84       -17092.037      1.0398018    
   2345000   303.39439      647.00937      54933.948     -20550.861      3394.0671     -17156.794      1.0384737    
   2346000   303.62776     -63.114279      54853.349     -20605.904      3396.6777     -17209.226      1.0399995    
   2347000   309.32732     -538.21421      55088.107     -20599.767      3460.4386     -17139.328      1.0355676    
   2348000   300.74119      470.299        54750.832     -20671.737      3364.3858     -17307.351      1.0419469    
   2349000   295.1021       0.23172327     54795.971     -20579.326      3301.3013     -17278.024      1.0410885    
   2350000   301.55512      358.00827      55160.067     -20489.134      3373.4912     -17115.643      1.0342166    
   2351000   294.63392     -1226.0546      55557.531     -20628.429      3296.0639     -17332.365      1.0268177    
   2352000   301.43324     -103.82267      55050.949     -20551.399      3372.1277     -17179.271      1.0362666    
   2353000   300.14288     -230.10021      55184.496     -20687.243      3357.6925     -17329.551      1.0337588    
   2354000   298.89457      199.21847      55253.437     -20540.179      3343.7276     -17196.452      1.032469     
   2355000   301.0538      -503.87472      55771.209     -20539.48       3367.8829     -17171.598      1.0228837    
   2356000   295.70179      185.51409      55139.24      -20607.075      3308.0101     -17299.064      1.0346072    
   2357000   302.8626       181.21367      54738.268     -20544.697      3388.1179     -17156.579      1.042186     
   2358000   306.61993      113.84301      54751.6       -20515.012      3430.1511     -17084.861      1.0419323    
   2359000   295.92681     -244.62306      55656.133     -20570.679      3310.5273     -17260.152      1.0249986    
   2360000   299.67154      309.4927       55239.261     -20467.766      3352.4195     -17115.346      1.0327339    
   2361000   301.92294      940.01341      54552.061     -20556.54       3377.6059     -17178.934      1.0457434    
   2362000   300.62631     -203.44007      54873.507     -20588.615      3363.1005     -17225.515      1.0396175    
   2363000   308.8306       46.677363      55182.893     -20618.192      3454.8818     -17163.31       1.0337888    
   2364000   302.85801      47.598171      55239.451     -20527.5        3388.0665     -17139.434      1.0327304    
   2365000   305.27583     -495.03282      54878.747     -20649.97       3415.1147     -17234.856      1.0395182    
   2366000   302.30789      35.538114      55366.71      -20493.502      3381.9124     -17111.59       1.0303566    
   2367000   300.07374     -646.85368      55491.801     -20588.524      3356.919      -17231.605      1.028034     
   2368000   305.08456     -277.88522      54854.074     -20580.596      3412.9749     -17167.621      1.0399858    
   2369000   301.4173      -418.38997      54741.385     -20563.876      3371.9494     -17191.926      1.0421267    
   2370000   303.07758     -1158.7259      55164.453     -20546.67       3390.5229     -17156.147      1.0341344    
   2371000   300.43032     -287.67661      54979.492     -20709.729      3360.908      -17348.821      1.0376134    
   2372000   304.52521      12.068283      55043.972     -20695.555      3406.7174     -17288.838      1.0363979    
   2373000   306.15817     -80.690937      54859.157     -20581.61       3424.9853     -17156.625      1.0398894    
   2374000   301.6472      -376.91762      54981.617     -20622.737      3374.5212     -17248.216      1.0375733    
   2375000   294.78219     -326.21743      55276.449     -20511.805      3297.7225     -17214.082      1.0320391    
   2376000   297.02303      183.10329      55240.017     -20610.027      3322.7907     -17287.236      1.0327198    
   2377000   298.12227     -669.91609      55186.365     -20504.414      3335.0879     -17169.326      1.0337238    
   2378000   297.42351     -142.47014      55300.543     -20680.642      3327.2709     -17353.371      1.0315895    
   2379000   300.20316     -33.939763      54976.453     -20608.252      3358.3668     -17249.885      1.0376708    
   2380000   298.75387      37.83906       54899.646     -20571.938      3342.1536     -17229.784      1.0391225    
   2381000   304.16782     -326.80569      55351.668     -20581.235      3402.7194     -17178.515      1.0306366    
   2382000   300.51013     -69.677517      54984.266     -20569.494      3361.8008     -17207.693      1.0375233    
   2383000   301.88952      28.203138      55282.803     -20637.627      3377.232      -17260.395      1.0319205    
   2384000   304.08696      295.92718      54412.536     -20622.77       3401.8148     -17220.955      1.0484249    
   2385000   302.0473       574.28651      55230.131     -20603.272      3378.9972     -17224.275      1.0329046    
   2386000   306.67782      497.45855      54709.863     -20593.531      3430.7986     -17162.733      1.0427271    
   2387000   294.9762      -281.48072      54249.572     -20547.438      3299.8929     -17247.546      1.0515743    
   2388000   299.09666     -89.921784      54440.698     -20628.739      3345.9884     -17282.751      1.0478826    
   2389000   294.60338     -94.040282      54538.935     -20666.384      3295.7221     -17370.662      1.0459951    
   2390000   297.4755      -7.4308466      54756.545     -20568.576      3327.8525     -17240.724      1.0418382    
   2391000   297.06659     -663.11771      55321.866     -20584.692      3323.278      -17261.414      1.0311919    
   2392000   300.04214     -125.48174      55015.441     -20702.893      3356.5655     -17346.328      1.0369354    
   2393000   296.59798      192.75104      54758.313     -20616.275      3318.0357     -17298.239      1.0418045    
   2394000   301.54446      727.87591      54679.091     -20600.902      3373.3719     -17227.53       1.0433139    
   2395000   286.58969     -274.78856      54917.891     -20573.542      3206.0732     -17367.469      1.0387773    
   2396000   292.68779     -45.690555      54824.823     -20542.507      3274.2925     -17268.214      1.0405407    
   2397000   295.09625      167.49075      54552.612     -20607.877      3301.2359     -17306.641      1.0457328    
   2398000   297.27943     -520.06446      55153.315     -20497.267      3325.659      -17171.608      1.0343432    
   2399000   299.80481     -489.70571      55568.702     -20587.891      3353.9104     -17233.98       1.0266113    
   2400000   299.89452      15.024825      54897.455     -20729.72       3354.914      -17374.806      1.039164     
   2401000   298.72712     -362.36131      54930.898     -20525.862      3341.8543     -17184.008      1.0385313    
   2402000   307.59756     -387.31758      54525.727     -20672.046      3441.0878     -17230.958      1.0462484    
   2403000   298.69204     -281.11548      55048.335     -20573.531      3341.4619     -17232.069      1.0363158    
   2404000   296.09866      391.3051       54990.331     -20511.104      3312.4498     -17198.654      1.0374089    
   2405000   297.30733     -41.46214       54932.596     -20565.514      3325.9711     -17239.543      1.0384992    
   2406000   301.3921       132.49784      54653.892     -20573.357      3371.6675     -17201.689      1.043795     
   2407000   300.58926      406.22517      54720.206     -20591.934      3362.6861     -17229.248      1.04253      
   2408000   304.44048     -638.92039      55697.289     -20686.942      3405.7695     -17281.172      1.0242412    
   2409000   295.03664     -435.79371      55580.42      -20501.601      3300.569      -17201.032      1.0263949    
   2410000   305.16947     -214.25326      55369.501     -20543.888      3413.9248     -17129.963      1.0303047    
   2411000   305.96636     -313.93676      55229.7       -20539.758      3422.8396     -17116.919      1.0329127    
   2412000   305.76119      484.07956      54657.719     -20701.961      3420.5444     -17281.417      1.0437219    
   2413000   297.57156     -210.51256      55429.058     -20377.175      3328.9271     -17048.248      1.0291977    
   2414000   297.80201      18.238689      55065.83      -20656.925      3331.5052     -17325.42       1.0359865    
   2415000   298.48142     -276.26698      54727.945     -20532.095      3339.1057     -17192.989      1.0423826    
   2416000   308.56145     -132.96273      55125.816     -20597.853      3451.8708     -17145.983      1.0348592    
   2417000   298.48461     -36.106539      54850.62      -20595.715      3339.1414     -17256.574      1.0400513    
   2418000   298.72781     -343.35911      55181.515     -20675.707      3341.8621     -17333.845      1.0338146    
   2419000   300.01813     -312.24932      55471.306     -20545.145      3356.2968     -17188.848      1.0284138    
   2420000   301.15487      247.00722      55145.99      -20588.514      3369.0135     -17219.5        1.0344806    
   2421000   293.01481     -868.37254      54823.533     -20582.097      3277.9508     -17304.146      1.0405652    
   2422000   299.10098     -66.283082      55031.99      -20504.162      3346.0368     -17158.125      1.0366236    
   2423000   300.44258     -190.57608      55429.825     -20591.048      3361.0452     -17230.003      1.0291834    
   2424000   296.30549     -91.789414      54889.157     -20622.091      3314.7636     -17307.327      1.0393211    
   2425000   303.89923     -603.22617      55705.451     -20613.078      3399.7146     -17213.363      1.0240911    
   2426000   304.5301      -67.853359      54945.411     -20521.014      3406.7721     -17114.241      1.038257     
   2427000   298.46777      296.64745      54971.366     -20550.248      3338.953      -17211.295      1.0377668    
   2428000   302.06773      848.50843      55145.532     -20535.94       3379.2256     -17156.715      1.0344892    
   2429000   305.48586     -223.73105      55491.69      -20687.428      3417.4642     -17269.964      1.028036     
   2430000   297.72773     -593.02696      55239.027     -20631.389      3330.6742     -17300.715      1.0327383    
   2431000   298.70658      315.56462      55510.174     -20644.513      3341.6246     -17302.888      1.0276937    
   2432000   291.47062      302.23392      54905.853     -20604.551      3260.676      -17343.875      1.039005     
   2433000   302.90368     -201.41202      54995.261     -20638.812      3388.5775     -17250.234      1.0373159    
   2434000   297.16793     -497.85043      55097.503     -20533.163      3324.4118     -17208.752      1.035391     
   2435000   301.79506     -924.64946      54845.475     -20434.989      3376.1753     -17058.813      1.0401488    
   2436000   298.94865      658.6115       54626.842     -20623.97       3344.3326     -17279.637      1.0443118    
   2437000   302.66595     -114.99147      54968.113     -20568.16       3385.9179     -17182.242      1.0378282    
   2438000   297.93734      249.51297      54935.49      -20527.805      3333.0191     -17194.786      1.0384445    
   2439000   307.99988     -730.80832      55388.428     -20636.554      3445.5885     -17190.965      1.0299526    
   2440000   296.03236     -121.42804      54853.267     -20626.047      3311.7082     -17314.339      1.0400011    
   2441000   301.07333     -353.6178       55118.894     -20544.588      3368.1013     -17176.486      1.0349892    
   2442000   306.84555      403.24606      55113.377     -20654.826      3432.6751     -17222.151      1.0350928    
   2443000   298.15271     -30.286648      55208.56      -20548.11       3335.4285     -17212.682      1.0333082    
   2444000   298.18834      10.969449      54743.091     -20659.728      3335.827      -17323.901      1.0420942    
   2445000   306.77697      274.21883      54392.841     -20496.156      3431.9078     -17064.248      1.0488045    
   2446000   290.83221     -581.61157      54841.919     -20551.45       3253.5342     -17297.916      1.0402163    
   2447000   302.05949      85.642987      54672.093     -20646.285      3379.1335     -17267.151      1.0434475    
   2448000   295.84207     -266.60617      54683.7       -20691.75       3309.5794     -17382.17       1.043226     
   2449000   299.35067      607.79635      55153.818     -20497.868      3348.83       -17149.038      1.0343338    
   2450000   311.07021      1139.7834      54986.002     -20525.898      3479.9362     -17045.961      1.0374905    
   2451000   303.60606      176.14886      55524.821     -20618.833      3396.4349     -17222.398      1.0274226    
   2452000   299.88677     -106.33945      54801.351     -20547.378      3354.8273     -17192.551      1.0409863    
   2453000   309.72746      835.80657      54833.627     -20451.008      3464.915      -16986.093      1.0403736    
   2454000   302.45014      63.203149      54993.149     -20412.104      3383.5037     -17028.6        1.0373557    
   2455000   303.67318      184.26044      54625.161     -20607.634      3397.1858     -17210.448      1.044344     
   2456000   299.21573      68.550338      55326.362     -20569.759      3347.3205     -17222.439      1.0311081    
   2457000   296.9666      -417.66992      54970.559     -20616.406      3322.1595     -17294.246      1.037782     
   2458000   298.3291       711.56766      55028.922     -20623.315      3337.4017     -17285.914      1.0366814    
   2459000   295.41974     -593.97095      55328.478     -20550.435      3304.8547     -17245.581      1.0310686    
   2460000   292.74121     -517.27631      54511.773     -20484.257      3274.8901     -17209.367      1.0465163    
   2461000   294.58503      24.487901      54547.527     -20529.17       3295.5169     -17233.653      1.0458303    
   2462000   297.10931     -901.85093      55314.146     -20501.863      3323.756      -17178.107      1.0313358    
   2463000   296.58751      49.465935      55241.033     -20614.99       3317.9186     -17297.072      1.0327008    
   2464000   304.33092     -249.5727       55095.438     -20628.73       3404.5439     -17224.186      1.0354298    
   2465000   301.6416      -12.413106      54897.17      -20547.519      3374.4586     -17173.061      1.0391694    
   2466000   299.77455     -106.31244      55463.382     -20570.567      3353.572      -17216.995      1.0285607    
   2467000   296.57597     -16.246015      54716.369     -20589.767      3317.7894     -17271.978      1.0426031    
   2468000   305.50401      137.89147      54397.757     -20578.337      3417.6673     -17160.67       1.0487097    
   2469000   303.18909      249.72793      55142.288     -20623.543      3391.7703     -17231.773      1.0345501    
   2470000   303.63835     -532.78824      54936.444     -20606.413      3396.7962     -17209.617      1.0384265    
   2471000   300.12556      539.99466      54962.308     -20583.452      3357.4987     -17225.953      1.0379378    
   2472000   299.18512     -1713.0537      55498.441     -20461.441      3346.978      -17114.463      1.027911     
   2473000   294.89723      250.04559      55068.002     -20673.391      3299.0095     -17374.381      1.0359457    
   2474000   299.97114     -55.419128      54609.963     -20715.192      3355.7712     -17359.421      1.0446346    
   2475000   292.85799     -821.69388      55326.125     -20529.549      3276.1965     -17253.352      1.0311125    
   2476000   294.05953      448.79889      54647.124     -20550.845      3289.6381     -17261.207      1.0439242    
   2477000   295.62639     -162.08002      55322.974     -20626.14       3307.1665     -17318.973      1.0311712    
   2478000   302.01853      190.29314      54938.893     -20558.023      3378.6753     -17179.347      1.0383802    
   2479000   292.71223     -32.666325      55041.314     -20600.602      3274.5659     -17326.036      1.036448     
   2480000   298.60519     -351.08965      55448.457     -20498.505      3340.4903     -17158.014      1.0288376    
   2481000   298.42445      150.22511      55175.358     -20582.348      3338.4684     -17243.879      1.03393      
   2482000   306.00673      553.78836      55263.129     -20547.519      3423.2912     -17124.228      1.0322879    
   2483000   297.23647     -53.192616      54631.994     -20624.338      3325.1785     -17299.159      1.0442133    
   2484000   302.64881      248.77291      54881.839     -20485.277      3385.7262     -17099.551      1.0394596    
   2485000   296.76838      790.07415      54709.771     -20521.997      3319.942      -17202.055      1.0427289    
   2486000   300.92473     -74.041695      55327.417     -20563.413      3366.4389     -17196.974      1.0310884    
   2487000   303.2734      -603.00413      55247.512     -20637.37       3392.7135     -17244.656      1.0325797    
   2488000   296.80149     -455.26035      55338.231     -20627.936      3320.3124     -17307.624      1.0308869    
   2489000   294.39856     -141.96754      54773.253     -20523.743      3293.4308     -17230.312      1.0415203    
   2490000   299.38561     -148.66563      55372.762     -20731.046      3349.2209     -17381.825      1.030244     
   2491000   301.72412      509.516        54975.281     -20465.911      3375.3817     -17090.529      1.0376929    
   2492000   306.06299     -579.80537      54799.413     -20673.82       3423.9206     -17249.899      1.0410232    
   2493000   302.14258     -15.832484      55023.054     -20604.053      3380.0631     -17223.99       1.0367919    
   2494000   301.69308     -260.11045      55479.305     -20684.283      3375.0345     -17309.249      1.0282655    
   2495000   299.75052     -118.47245      55075.997     -20561.048      3353.3031     -17207.745      1.0357953    
   2496000   303.91923     -691.92984      54729.974     -20506.49       3399.9383     -17106.552      1.0423439    
   2497000   301.50228     -154.08602      55182.283     -20489.209      3372.9001     -17116.309      1.0338002    
   2498000   300.63989     -117.02651      54582.793     -20599.449      3363.2524     -17236.197      1.0451546    
   2499000   307.27856      128.64612      55464.671     -20581.113      3437.5192     -17143.594      1.0285368    
   2500000   296.37414     -501.13077      55164.087     -20692.226      3315.5316     -17376.694      1.0341413    
   2501000   300.05601      1038.5445      54628.881     -20658.204      3356.7206     -17301.483      1.0442729    
   2502000   304.89392      723.34435      54714.195     -20628.687      3410.8422     -17217.845      1.0426446    
   2503000   300.24542     -306.78722      54944.461     -20407.003      3358.8395     -17048.164      1.0382749    
   2504000   308.37317      180.77334      54566.386     -20566.972      3449.7645     -17117.208      1.0454689    
   2505000   300.22648      239.06153      54814.228     -20523.173      3358.6277     -17164.545      1.0407418    
   2506000   297.03441      546.33177      54519.232     -20676.585      3322.918      -17353.667      1.0463731    
   2507000   303.91242      504.50055      54545.573     -20573.976      3399.8622     -17174.114      1.0458678    
   2508000   299.05807     -211.11408      55597.898     -20698.284      3345.5567     -17352.728      1.0260722    
   2509000   301.38014      548.83002      54967.094     -20586.692      3371.5336     -17215.158      1.0378474    
   2510000   300.66735     -1197.3881      55398.348     -20472.741      3363.5597     -17109.182      1.0297682    
   2511000   304.50881      5.417874       55010.412     -20455.283      3406.534      -17048.749      1.0370302    
   2512000   296.11807     -655.02917      55288.747     -20369.796      3312.667      -17057.129      1.0318096    
   2513000   301.24907     -352.24484      55345.495     -20501.034      3370.0674     -17130.967      1.0307516    
   2514000   296.41176     -303.90059      55102.013     -20542.437      3315.9525     -17226.485      1.0353062    
   2515000   299.61925      162.6964       55172.499     -20563.138      3351.8346     -17211.304      1.0339836    
   2516000   301.81142     -7.7854706      54536.524     -20616.177      3376.3584     -17239.819      1.0460413    
   2517000   300.34673      36.79303       54641.241     -20588.386      3359.9729     -17228.413      1.0440366    
   2518000   306.73716      114.04876      55451.624     -20587.182      3431.4625     -17155.72       1.0287788    
   2519000   300.91182      367.09308      54760.856     -20592.154      3366.2945     -17225.86       1.0417561    
   2520000   294.8707      -416.33245      54718.375     -20569.899      3298.7126     -17271.186      1.0425649    
   2521000   296.92199      224.54612      54643.792     -20463.618      3321.6604     -17141.958      1.0439879    
   2522000   299.51557      296.64176      55049.652     -20579.174      3350.6747     -17228.499      1.036291     
   2523000   301.83525     -553.62673      55105.582     -20463.453      3376.625      -17086.828      1.0352392    
   2524000   302.59481     -163.95505      55000.311     -20603.73       3385.1221     -17218.608      1.0372206    
   2525000   302.69629     -267.28828      55128.108     -20479.02       3386.2573     -17092.763      1.0348162    
   2526000   300.31112     -151.69048      54753.546     -20576.905      3359.5745     -17217.33       1.0418952    
   2527000   302.61914     -778.0129       54911.719     -20468.004      3385.3943     -17082.609      1.038894     
   2528000   293.88453      351.58687      54807.304     -20473.912      3287.6804     -17186.232      1.0408733    
   2529000   305.33465      80.447924      55347.649     -20613.153      3415.7727     -17197.381      1.0307115    
   2530000   300.54008     -80.49211       55253.27      -20538.47       3362.1359     -17176.334      1.0324721    
   2531000   298.06563      76.188596      54504.241     -20567.579      3334.4542     -17233.125      1.0466609    
   2532000   302.08892      849.58423      54619.446     -20642.06       3379.4628     -17262.597      1.0444532    
   2533000   299.20426      285.07749      54593.486     -20531.522      3347.1921     -17184.33       1.0449499    
   2534000   307.62777      477.59542      54509.085     -20533.195      3441.4258     -17091.769      1.0465679    
   2535000   304.32459      405.11217      54814.572     -20593.807      3404.4731     -17189.334      1.0407352    
   2536000   297.03889      429.33906      55117.173     -20486.635      3322.9681     -17163.667      1.0350215    
   2537000   298.09679     -280.54603      55369.348     -20482.529      3334.8029     -17147.726      1.0303076    
   2538000   292.70934      365.81715      54779.633     -20611.282      3274.5335     -17336.748      1.041399     
   2539000   298.10629     -154.35132      54719.919     -20611.352      3334.9091     -17276.443      1.0425355    
   2540000   298.07872     -59.680555      55309.241     -20603.305      3334.6007     -17268.705      1.0314272    
   2541000   304.88119     -579.30703      54977.334     -20645.746      3410.6999     -17235.046      1.0376541    
   2542000   293.07416      396.25094      54712.708     -20748.351      3278.6148     -17469.736      1.0426729    
   2543000   295.99108      736.80809      54943.212     -20710.276      3311.2463     -17399.03       1.0382986    
   2544000   301.70232      2.9947904      55058.014     -20505.878      3375.1378     -17130.74       1.0361336    
   2545000   300.47086      189.00682      54514.774     -20613.854      3361.3615     -17252.492      1.0464587    
   2546000   298.01757     -146.72012      55363.808     -20616.05       3333.9166     -17282.133      1.0304107    
   2547000   298.55549     -28.250632      55256.293     -20629.507      3339.9344     -17289.572      1.0324156    
   2548000   303.09726     -124.80379      54964.747     -20607.049      3390.743      -17216.306      1.0378917    
   2549000   309.70385     -1059.9799      55886.247     -20541.57       3464.6509     -17076.919      1.0207781    
   2550000   301.76104      364.21078      55277.824     -20429.518      3375.7947     -17053.723      1.0320135    
   2551000   298.02591      33.675585      54631.914     -20531.015      3334.0099     -17197.005      1.0442149    
   2552000   306.73252      821.89427      54481.464     -20598.977      3431.4106     -17167.566      1.0470985    
   2553000   302.21313     -187.44027      54783.225     -20673.211      3380.8523     -17292.359      1.0413308    
   2554000   299.50229     -54.506346      55278.195     -20461.003      3350.5262     -17110.477      1.0320065    
   2555000   295.87411     -378.72294      55113.698     -20497.061      3309.9378     -17187.124      1.0350867    
   2556000   296.33758     -347.47718      55115.746     -20531.45       3315.1226     -17216.327      1.0350483    
   2557000   306.10829     -191.44507      54490.888     -20503.217      3424.4274     -17078.79       1.0469174    
   2558000   305.94699     -442.12135      54778.968     -20550.551      3422.6229     -17127.928      1.0414117    
   2559000   291.2477       850.45761      54829.258     -20553.26       3258.1822     -17295.077      1.0404565    
   2560000   301.32779      94.391332      55417.578     -20505.6        3370.948      -17134.652      1.0294109    
   2561000   299.05652     -23.142718      54673.501     -20501.858      3345.5394     -17156.318      1.0434206    
   2562000   296.3291       20.651876      55181.802     -20539.031      3315.0278     -17224.003      1.0338092    
   2563000   303.28386      321.93861      55929.433     -20536.802      3392.8305     -17143.972      1.0199899    
   2564000   301.89546      481.89968      55282.747     -20583.067      3377.2985     -17205.768      1.0319216    
   2565000   305.83924      283.59243      55041.173     -20648.385      3421.4175     -17226.967      1.0364506    
   2566000   298.34001      313.39366      55125.99      -20498.451      3337.5238     -17160.927      1.0348559    
   2567000   301.50401      800.49943      55079.082     -20607.211      3372.9194     -17234.292      1.0357373    
   2568000   295.33224     -566.93423      55337.929     -20629.712      3303.8758     -17325.836      1.0308925    
   2569000   296.86029     -922.40345      55021.466     -20503.08       3320.9702     -17182.109      1.0368218    
   2570000   298.97298      491.14349      54908.609     -20552.382      3344.6048     -17207.777      1.0389529    
   2571000   301.74675      211.49133      55067.312     -20423.912      3375.6349     -17048.277      1.0359586    
   2572000   305.92638      727.91948      54539.262     -20677.69       3422.3923     -17255.298      1.0459888    
   2573000   300.14747     -75.895236      55314.137     -20687.038      3357.7438     -17329.295      1.0313359    
   2574000   303.43795      708.24222      55280.365     -20644.853      3394.5544     -17250.299      1.031966     
   2575000   293.34479     -524.12295      54927.743     -20637.792      3281.6424     -17356.15       1.038591     
   2576000   301.19433     -129.25144      55132.303     -20645.003      3369.455      -17275.548      1.0347374    
   2577000   304.85637     -413.7549       54407.813     -20566.115      3410.4221     -17155.693      1.0485159    
   2578000   297.2568      -638.51049      54914.187     -20607.377      3325.4059     -17281.971      1.0388474    
   2579000   296.51572     -401.6763       55350.233     -20611.471      3317.1154     -17294.355      1.0306634    
   2580000   298.48346     -14.565306      54692.625     -20614.267      3339.1285     -17275.138      1.0430558    
   2581000   293.33015     -518.45548      55387.737     -20615.679      3281.4786     -17334.2        1.0299655    
   2582000   298.73344     -150.88238      55107.141     -20562.406      3341.925      -17220.481      1.0352099    
   2583000   295.07021      715.47293      55064.535     -20557.539      3300.9446     -17256.595      1.0360109    
   2584000   303.49975      1038.7666      55280.787     -20484.959      3395.2457     -17089.714      1.0319581    
   2585000   287.57187      557.97476      55128.048     -20591.224      3217.0608     -17374.163      1.0348173    
   2586000   305.92981     -512.72814      55724.728     -20603.088      3422.4307     -17180.657      1.0237368    
   2587000   301.85296      267.49256      55150.874     -20687.691      3376.823      -17310.868      1.034389     
   2588000   294.23487     -1226.9933      55367.987     -20395.052      3291.5996     -17103.453      1.0303329    
   2589000   301.61666      114.40584      55045.184     -20539.675      3374.1795     -17165.495      1.0363751    
   2590000   300.39989     -273.65058      55099.681     -20619.508      3360.5676     -17258.941      1.03535      
   2591000   299.72959      599.62208      54956.044     -20588.243      3353.069      -17235.174      1.0380561    
   2592000   306.75593      347.38023      55266.649     -20521.917      3431.6725     -17090.245      1.0322221    
   2593000   304.21732      749.64466      54926.909     -20557.012      3403.2731     -17153.739      1.0386067    
   2594000   303.04815      458.05762      54683.712     -20508.937      3390.1936     -17118.743      1.0432258    
   2595000   298.48023     -625.56713      55159.025     -20664.035      3339.0924     -17324.942      1.0342361    
   2596000   301.97043      814.07767      55080.092     -20605.457      3378.1372     -17227.32       1.0357183    
   2597000   298.90261     -45.855355      55592.745     -20534.188      3343.8176     -17190.371      1.0261673    
   2598000   299.06702      452.78153      54500.15      -20594.704      3345.6568     -17249.047      1.0467395    
   2599000   304.73369     -31.945225      55081.213     -20457.174      3409.0497     -17048.124      1.0356972    
   2600000   290.01982     -399.91119      55392.311     -20568.398      3244.4459     -17323.952      1.0298804    
   2600010   290.7987      -548.55713      55366.212     -20575.269      3253.1592     -17322.11       1.0303659    
Loop time of 57427.4 on 4 procs for 2000000 steps with 5541 atoms

Performance: 6.018 ns/day, 3.988 hours/ns, 34.827 timesteps/s, 192.974 katom-step/s
305.4% CPU use with 1 MPI tasks x 4 OpenMP threads

MPI task timing breakdown:
Section |  min time  |  avg time  |  max time  |%varavg| %total
---------------------------------------------------------------
Pair    | 1261.6     | 1261.6     | 1261.6     |   0.0 |  2.20
Bond    | 21.541     | 21.541     | 21.541     |   0.0 |  0.04
Kspace  | 25861      | 25861      | 25861      |   0.0 | 45.03
Neigh   | 70.487     | 70.487     | 70.487     |   0.0 |  0.12
Comm    | 600.94     | 600.94     | 600.94     |   0.0 |  1.05
Output  | 26.684     | 26.684     | 26.684     |   0.0 |  0.05
Modify  | 29371      | 29371      | 29371      |   0.0 | 51.14
Other   |            | 214.1      |            |       |  0.37

Nlocal:           5541 ave        5541 max        5541 min
Histogram: 1 0 0 0 0 0 0 0 0 0
Nghost:          35053 ave       35053 max       35053 min
Histogram: 1 0 0 0 0 0 0 0 0 0
Neighs:    4.65879e+06 ave 4.65879e+06 max 4.65879e+06 min
Histogram: 1 0 0 0 0 0 0 0 0 0

Total # of neighbors = 4658787
Ave neighs/atom = 840.78452
Ave special neighs/atom = 2.4872767
Neighbor list builds = 186582
Dangerous builds = 0

unfix mynpt
undump prod_traj
undump prod_dcd
undump prod_img
unfix thermo_avg
unfix thermo_detailed
unfix rdf_CO_avg
unfix rdf_CC_avg
unfix rdf_OO_avg
unfix msd_avg
uncompute rdf_CO
uncompute rdf_CC
uncompute rdf_OO
uncompute msd_water

#==============================================================================
# FINAL OUTPUT AND VERIFICATION
#==============================================================================
print ""

print "===== Saving Final Configuration ====="
===== Saving Final Configuration =====

write_data equilibrated_system.data
System init for write_data ...
PPPM initialization ...
  extracting TIP4P info from pair style
  using 12-bit tables for long-range coulomb
  G vector (1/distance) = 0.28797291
  grid = 50 50 50
  stencil order = 5
  estimated absolute RMS force accuracy = 0.0003360849
  estimated relative force accuracy = 1.0121097e-06
  using double precision FFTW3
  3d grid and FFT values/proc = 205379 125000
Generated 0 of 3 mixed pair_coeff terms from geometric mixing rule
WARNING: Not all mixed pair coeffs generated from mixing. Use write_data with 'pair ij' option to store all pair coeffs. (src/write_data.cpp:364)
write_restart equilibrated_system.restart
System init for write_restart ...
PPPM initialization ...
  extracting TIP4P info from pair style
  using 12-bit tables for long-range coulomb
  G vector (1/distance) = 0.28797291
  grid = 50 50 50
  stencil order = 5
  estimated absolute RMS force accuracy = 0.0003360849
  estimated relative force accuracy = 1.0121097e-06
  using double precision FFTW3
  3d grid and FFT values/proc = 205379 125000
Generated 0 of 3 mixed pair_coeff terms from geometric mixing rule

print ""

print "â•â•â•â•â•â•â•â•â•â•â•â•â•â•â•â•â•â•â•â•â•â•â•â•â•â•â•â•â•â•â•â•â•â•â•â•â•â•â•â•â•â•â•â•â•â•â•â•â•â•â•â•â•â•â•â•â•â•â•â•â•â•â•â•â•â•â•â•â•â•â•â•â•â•â•â•"
••••••••••••••••••••••••••••••••••••••••••••••••••••••••••••••••••••••••••••
print "                     EQUILIBRATION COMPLETE - SUCCESS!"
                     EQUILIBRATION COMPLETE - SUCCESS!
print "â•â•â•â•â•â•â•â•â•â•â•â•â•â•â•â•â•â•â•â•â•â•â•â•â•â•â•â•â•â•â•â•â•â•â•â•â•â•â•â•â•â•â•â•â•â•â•â•â•â•â•â•â•â•â•â•â•â•â•â•â•â•â•â•â•â•â•â•â•â•â•â•â•â•â•â•"
••••••••••••••••••••••••••••••••••••••••••••••••••••••••••••••••••••••••••••
print ""

print "Simulation Summary:"
Simulation Summary:
print "  Total simulation time: 5.22 ns"
  Total simulation time: 5.22 ns
print "    - NVT thermalization:     50 ps"
    - NVT thermalization:     50 ps
print "    - Pre-equilibration:      50 ps  (NEW - prevents PPPM artifacts)"
    - Pre-equilibration:      50 ps  (NEW - prevents PPPM artifacts)
print "    - Pressure ramp:         100 ps  (EXTENDED and with drag damping)"
    - Pressure ramp:         100 ps  (EXTENDED and with drag damping)
print "    - NPT equilibration:    1000 ps"
    - NPT equilibration:    1000 ps
print "    - Production run:       4000 ps (4 ns)"
    - Production run:       4000 ps (4 ns)
print ""


# Final measurements
variable final_temp equal temp
variable final_press equal press
variable final_dens equal density
variable final_vol equal vol
variable final_boxsize equal vol^(1.0/3.0)
variable final_pe equal pe
variable final_ke equal ke
variable final_etotal equal etotal

print "Final Thermodynamic State:"
Final Thermodynamic State:
print "  Temperature:    ${final_temp} K      (target: 300K)"
  Temperature:    290.79869688575 K      (target: 300K)
print "  Pressure:       ${final_press} atm   (target: 1 atm)"
  Pressure:       -548.557128449726 atm   (target: 1 atm)
print "  Density:        ${final_dens} g/cmÂ³  (target: 0.95-1.05)"
  Density:        1.03036591838481 g/cm³  (target: 0.95-1.05)
print "  Volume:         ${final_vol} Ã…Â³"
  Volume:         55366.2117489518 …³
print "  Box size:       ${final_boxsize} Ã…    (expected: 58-63)"
  Box size:       38.1137431674677 …    (expected: 58-63)
print ""

print "Final Energies:"
Final Energies:
print "  Potential:      ${final_pe} kcal/mol"
  Potential:      -20575.2693904601 kcal/mol
print "  Kinetic:        ${final_ke} kcal/mol"
  Kinetic:        3253.15924029942 kcal/mol
print "  Total:          ${final_etotal} kcal/mol"
  Total:          -17322.1101501607 kcal/mol
print ""


# Comprehensive validation
if "${final_dens} >= 0.85 && ${final_dens} <= 1.15" then     "print 'âœ… SUCCESS: System equilibrated to LIQUID PHASE!'"     "print ''"     "print 'Quality Indicators:'"     "if '${final_dens} >= 0.95 && ${final_dens} <= 1.05' then 'print \"  âœ“ Density: EXCELLENT (within 5% of water)\"' else 'print \"  âš  Density: ACCEPTABLE (but check TIP4P/2005 reference)\"'"     "if '${final_press} >= -50.0 && ${final_press} <= 50.0' then 'print \"  âœ“ Pressure: EXCELLENT (normal fluctuations)\"' else 'print \"  âš  Pressure: CHECK (may need longer equilibration)\"'"     "if '${final_temp} >= 295.0 && ${final_temp} <= 305.0' then 'print \"  âœ“ Temperature: EXCELLENT\"' else 'print \"  âš  Temperature: CHECK (thermostat may need tuning)\"'" else     "print 'âš ï¸  WARNING: Density ${final_dens} g/cmÂ³ outside normal range'"     "print 'Expected: 0.95-1.05 g/cmÂ³ for TIP4P/2005 water at 300K, 1 atm'"     "print ''"     "print 'Possible explanations:'"     "print '  - System still equilibrating (try longer NPT)'"     "print '  - Force field parameters incorrect'"     "print '  - Nanoparticle affecting bulk water density'"
ERROR: Input line quote not followed by white-space (src/input.cpp:556)
Last input line: if "${final_dens} >= 0.85 && ${final_dens} <= 1.15" then "print 'âœ… SUCCESS: System equilibrated to LIQUID PHASE!'" "print ''" "print 'Quality Indicators:'" "if '${final_dens} >= 0.95 && ${final_dens} <= 1.05' then 'print \" âœ“ Density: EXCELLENT (within 5% of water)\"' else 'print \" âš  Density: ACCEPTABLE (but check TIP4P/2005 reference)\"'" "if '${final_press} >= -50.0 && ${final_press} <= 50.0' then 'print \" âœ“ Pressure: EXCELLENT (normal fluctuations)\"' else 'print \" âš  Pressure: CHECK (may need longer equilibration)\"'" "if '${final_temp} >= 295.0 && ${final_temp} <= 305.0' then 'print \" âœ“ Temperature: EXCELLENT\"' else 'print \" âš  Temperature: CHECK (thermostat may need tuning)\"'" else "print 'âš ï¸ WARNING: Density ${final_dens} g/cmÂ³ outside normal range'" "print 'Expected: 0.95-1.05 g/cmÂ³ for TIP4P/2005 water at 300K, 1 atm'" "print ''" "print 'Possible explanations:'" "print ' - System still equilibrating (try longer NPT)'" "print ' - Force field parameters incorrect'" "print ' - Nanoparticle affecting bulk water density'"
