LAMMPS (10 Sep 2025)
  using 5 OpenMP thread(s) per MPI task
package gpu 1 neigh yes newton off binsize 2.8 split 1.0
# LAMMPS Input Script: FULLY CORRECTED NPT Equilibration
# Purpose: Equilibrate solvated nanoparticle system at 300K, 1 bar
# Water Model: TIP4P/2005 (implicit M-site)
# GPU acceleration: Enabled for MD stages
#
# COMPLETE FIXES APPLIED (2024-11-13):
# 1. âœ… CRITICAL FIX: PPPM grid locked to prevent recalculation artifacts
# 2. âœ… CRITICAL FIX: Pre-equilibration stage to reduce initial pressure
# 3. âœ… FIXED: Gentler pressure ramp (100 atm â†’ 1 atm) with drag damping
# 4. âœ… FIXED: SHAKE verification and proper constraint application
# 5. âœ… EXTENDED: Longer equilibration (1000 ps) and production (4000 ps)
# 6. âœ… ENHANCED: Multiple density checkpoints to catch failures early
# 7. âœ… OPTIMIZED: 2 fs timestep (SHAKE allows this, 2Ã— speedup)
#
# Total time: 5.22 ns (50ps NVT + 50ps pre-equil + 100ps ramp + 1000ps NPT + 4000ps prod)
#
# ROOT CAUSE OF PREVIOUS FAILURE:
# - PPPM grid recalculation at step 51,000 caused 169,712 atm pressure spike
# - Barostat overreacted â†’ box expanded 63Ã— â†’ gas phase (Ï=0.025 g/cmÂ³)
# - All epsilon values failed identically (proves it's numerical, not physical)
#
# SOLUTION: Lock PPPM grid + reduce initial pressure + add checkpoints

# ===== INITIALIZATION =====
units real
atom_style full
boundary p p p
atom_modify map array

# ===== COMMUNICATION =====
# Increased cutoff to handle potential box fluctuations safely
comm_modify cutoff 18.0

# ===== FORCE FIELD (FULLY GPU-accelerated) =====
# CORRECTED: O=type2, H=type3 (C60 carbon is type1)
pair_style lj/cut/tip4p/long/gpu 2 3 2 1 0.1546 12.0

# ğŸ”§ CRITICAL: Use pppm/gpu for FULL GPU acceleration of Coulomb forces
# pppm/tip4p is CPU-based bottleneck (~90% CPU, ~10% GPU)
# pppm/gpu runs Coulomb solver on GPU â†’ 5-10Ã— speedup for long-range forces
kspace_style pppm/gpu 1.0e-4

# ğŸ”§ CRITICAL FIX #1: Lock PPPM grid to prevent recalculation
# This prevents the 169,712 atm pressure spike that caused gas-phase failure
kspace_modify mesh 50 50 50    # Fixed grid (handles boxes up to ~125 Ã…, increased from 40)
kspace_modify order 5           # Higher interpolation order for accuracy
kspace_modify force/disp/real 0.8  # Balance real/k-space work

bond_style harmonic
angle_style harmonic

read_data large_C60_solvated.data
Reading data file ...
  orthogonal box = (-20 -20 -20) to (20 20 20)
  1 by 1 by 1 MPI processor grid
  reading atoms ...
  5541 atoms
  reading velocities ...
  5541 velocities
  scanning bonds ...
  3 = max bonds/atom
  scanning angles ...
  1 = max angles/atom
  orthogonal box = (-20 -20 -20) to (20 20 20)
  1 by 1 by 1 MPI processor grid
  reading bonds ...
  3844 bonds
  reading angles ...
  1787 angles
Finding 1-2 1-3 1-4 neighbors ...
  special bond factors lj:    0        0        0       
  special bond factors coul:  0        0        0       
     3 = max # of 1-2 neighbors
     6 = max # of 1-3 neighbors
    18 = max # of 1-4 neighbors
    17 = max # of special neighbors
  special bonds CPU = 0.002 seconds
  read_data CPU = 0.073 seconds

# ===== PAIR COEFFICIENTS (CORRECTED ATOM TYPE MAPPING) =====
# Type 1: C60 carbon (180 atoms from 3 C60 particles)
# Type 2: Water oxygen (~2000 molecules)
# Type 3: Water hydrogen (~4000 atoms)
# TIP4P/2005 parameters (verified against literature)
pair_coeff 2 2 0.1852 3.1589    # O-O (type 2, Îµ=0.1852 kcal/mol, Ïƒ=3.1589 Ã…)
pair_coeff 3 3 0.0 0.0          # H-H (type 3, no interaction)

# C60 fullerene parameters
pair_coeff 1 1 0.07 3.4         # C-C (type 1, Îµ=0.07 kcal/mol, Ïƒ=3.4 Ã…)

# C60-water cross interactions
# Tunable parameter (passed from bash script via -var)
variable epsilon_co equal ${EPSILON_CO}
variable epsilon_co equal 0.80
pair_coeff 1 2 ${epsilon_co} 3.2   # C-O (hydrophobicity parameter)
pair_coeff 1 2 0.8 3.2   
pair_coeff 1 3 0.0 0.0             # C-H (no interaction)
pair_coeff 2 3 0.0 0.0             # O-H (no LJ, only Coulombic)

# Bond and angle coefficients
bond_coeff 1 938.0 1.42         # C-C bonds in C60 (bond type 1)
bond_coeff 2 0.0 0.9572         # O-H bonds in water (bond type 2, SHAKE controlled)
angle_coeff 1 0.0 104.52        # H-O-H angle in water (angle type 1, SHAKE controlled)

# ===== SETTINGS =====
neighbor 2.0 bin                 # Increased skin for safety
neigh_modify delay 5 every 1 check yes

# Define groups (CORRECTED)
group carbon type 1        # C60 atoms (type 1)
180 atoms in group carbon
group water type 2 3       # All water atoms (O=type2, H=type3)
5361 atoms in group water
group oxygen type 2        # Water oxygen atoms (type 2)
1787 atoms in group oxygen
group hydrogen type 3      # Water hydrogen atoms (type 3)
3574 atoms in group hydrogen

# Define individual C60 molecules (60 atoms each)
# Assuming atoms 1-60 = C60_1, 61-120 = C60_2, 121-180 = C60_3
group c60_1 id 1:60
60 atoms in group c60_1
group c60_2 id 61:120
60 atoms in group c60_2
group c60_3 id 121:180
60 atoms in group c60_3

# Define thermodynamic variables
variable temp equal c_thermo_temp
variable press equal c_thermo_press
variable pe equal pe
variable ke equal ke
variable etotal equal etotal
variable vol equal vol
variable dens equal density

thermo_style custom step temp press vol pe ke etotal density
thermo 1000

# ğŸ”§ CRITICAL FIX #2: Use 2 fs timestep (SHAKE allows this, 2Ã— speedup)
timestep 2.0

# Print system info
print "â•â•â•â•â•â•â•â•â•â•â•â•â•â•â•â•â•â•â•â•â•â•â•â•â•â•â•â•â•â•â•â•â•â•â•â•â•â•â•â•â•â•â•â•â•â•â•â•â•â•â•â•â•â•â•â•â•â•â•â•â•â•â•â•â•â•â•â•â•â•â•â•â•â•â•â•"
WARNING: Detected non-ASCII characters in input. Will try to continue by replacing with ASCII equivalents where known. (src/input.cpp:479)
••••••••••••••••••••••••••••••••••••••••••••••••••••••••••••••••••••••••••••
print "SYSTEM INFORMATION:"
SYSTEM INFORMATION:
print "  Epsilon (O-C): ${epsilon_co} kcal/mol"
  Epsilon (O-C): 0.8 kcal/mol
print "  Random seed:   ${RANDOM_SEED}"
  Random seed:   42
print "  Timestep:      2.0 fs (with SHAKE constraints)"
  Timestep:      2.0 fs (with SHAKE constraints)
print "  PPPM grid:     40Ã—40Ã—40 (LOCKED to prevent artifacts)"
  PPPM grid:     40—40—40 (LOCKED to prevent artifacts)
print "â•â•â•â•â•â•â•â•â•â•â•â•â•â•â•â•â•â•â•â•â•â•â•â•â•â•â•â•â•â•â•â•â•â•â•â•â•â•â•â•â•â•â•â•â•â•â•â•â•â•â•â•â•â•â•â•â•â•â•â•â•â•â•â•â•â•â•â•â•â•â•â•â•â•â•â•"
••••••••••••••••••••••••••••••••••••••••••••••••••••••••••••••••••••••••••••
print ""


#==============================================================================
# STAGE 0: Gentle Minimization (CPU pair style for stability)
#==============================================================================
print "===== STAGE 0: Gentle Minimization (removing any overlaps) ====="
===== STAGE 0: Gentle Minimization (removing any overlaps) =====
print "Using CPU pair style for numerical stability during minimization"
Using CPU pair style for numerical stability during minimization
print ""


# Switch to CPU pair style for minimization (GPU can be unstable)
pair_style lj/cut/tip4p/long 2 3 2 1 0.1546 12.0
kspace_style pppm/tip4p 1.0e-4
kspace_modify mesh 50 50 50
kspace_modify order 5

# Re-apply pair coefficients with current epsilon_co
pair_coeff 1 1 0.07 3.4            # C-C
pair_coeff 2 2 0.1852 3.1589       # O-O
pair_coeff 3 3 0.0 0.0             # H-H
pair_coeff 1 2 ${epsilon_co} 3.2   # C-O (variable)
pair_coeff 1 2 0.8 3.2   
pair_coeff 1 3 0.0 0.0             # C-H
pair_coeff 2 3 0.0 0.0             # O-H

# Very gentle minimization (just remove bad contacts, if any)
# Using very relaxed tolerances and limited steps for speed
thermo 100
minimize 0.0 10.0 10 100  # Ultra-gentle: etol=0, ftol=10, max 10 eval, max 100 iter

CITE-CITE-CITE-CITE-CITE-CITE-CITE-CITE-CITE-CITE-CITE-CITE-CITE

Your simulation uses code contributions which should be cited:

- GPU package (short-range, long-range and three-body potentials): doi:10.1016/j.cpc.2010.12.021, doi:10.1016/j.cpc.2011.10.012, doi:10.1016/j.cpc.2013.08.002, doi:10.1016/j.commatsci.2014.10.068, doi:10.1016/j.cpc.2016.10.020, doi:10.3233/APC200086

@Article{Brown11,
 author = {W. M. Brown and P. Wang and S. J. Plimpton and A. N. Tharrington},
 title = {Implementing Molecular Dynamics on Hybrid High Performance Computers---Short Range Forces},
 journal = {Comput.\ Phys.\ Commun.},
 year =    2011,
 volume =  182,
 pages =   {898--911},
 doi =     {10.1016/j.cpc.2010.12.021}
}

@Article{Brown12,
 author = {W. M. Brown and A. Kohlmeyer and S. J. Plimpton and A. N. Tharrington},
 title = {Implementing Molecular Dynamics on Hybrid High Performance Computers - Particle-Particle Particle-Mesh},
 journal = {Comput.\ Phys.\ Commun.},
 year =    2012,
 volume =  183,
 doi =     {10.1016/j.cpc.2011.10.012},
 pages =   {449--459}
}

@Article{Brown13,
 author = {W. M. Brown and Y. Masako},
 title = {Implementing Molecular Dynamics on Hybrid High Performance Computers---Three-Body Potentials},
 journal = {Comput.\ Phys.\ Commun.},
 year =    2013,
 volume =  184,
 pages =   {2785--2793},
 doi =     {10.1016/j.cpc.2013.08.002},
}

@Article{Trung15,
 author = {T. D. Nguyen and S. J. Plimpton},
 title = {Accelerating Dissipative Particle Dynamics Simulations for Soft Matter Systems},
 journal = {Comput.\ Mater.\ Sci.},
 year =    2015,
 doi =     {10.1016/j.commatsci.2014.10.068},
 volume =  100,
 pages =   {173--180}
}

@Article{Trung17,
 author = {T. D. Nguyen},
 title = {{GPU}-Accelerated {T}ersoff Potentials for Massively Parallel
    Molecular Dynamics Simulations},
 journal = {Comput.\ Phys.\ Commun.},
 year =    2017,
 doi =     {10.1016/j.cpc.2016.10.020},
 volume =  212,
 pages =   {113--122}
}

@inproceedings{Nikolskiy19,
 author = {V. Nikolskiy and V. Stegailov},
 title = {{GPU} Acceleration of Four-Site Water Models in {LAMMPS}},
 booktitle = {Proceedings of the International Conference on Parallel
    Computing (ParCo 2019), Prague, Czech Republic},
 doi =     {10.3233/APC200086},
 year =    2019
}

CITE-CITE-CITE-CITE-CITE-CITE-CITE-CITE-CITE-CITE-CITE-CITE-CITE

Switching to 'neigh_modify every 1 delay 0 check yes' setting during minimization
PPPM initialization ...
  extracting TIP4P info from pair style
  using 12-bit tables for long-range coulomb
  G vector (1/distance) = 0.28512662
  grid = 50 50 50
  stencil order = 5
  estimated absolute RMS force accuracy = 0.00038934319
  estimated relative force accuracy = 1.1724955e-06
  using double precision FFTW3
  3d grid and FFT values/proc = 185193 125000
Generated 0 of 3 mixed pair_coeff terms from geometric mixing rule
Per MPI rank memory allocation (min/avg/max) = 51.83 | 51.83 | 51.83 Mbytes
   Step          Temp          Press          Volume         PotEng         KinEng         TotEng        Density    
         0   36.495381      27194.051      64000         -23246.716      602.67332     -22644.042      0.89136653   
        10   36.495381     -19511.876      64000         -142277.66      602.67332     -141674.99      0.89136653   
Loop time of 0.221899 on 5 procs for 10 steps with 5541 atoms

445.0% CPU use with 1 MPI tasks x 5 OpenMP threads

Minimization stats:
  Stopping criterion = max iterations
  Energy initial, next-to-last, final = 
     -23246.7156648539   -124647.68277787  -142277.663547728
  Force two-norm initial, final = 2152.683 6845.4802
  Force max component initial, final = 49.703487 354.52838
  Final line search alpha, max atom move = 0.00038197753 0.13542188
  Iterations, force evaluations = 10 10

MPI task timing breakdown:
Section |  min time  |  avg time  |  max time  |%varavg| %total
---------------------------------------------------------------
Pair    | 0.011131   | 0.011131   | 0.011131   |   0.0 |  5.02
Bond    | 0.002058   | 0.002058   | 0.002058   |   0.0 |  0.93
Kspace  | 0.20144    | 0.20144    | 0.20144    |   0.0 | 90.78
Neigh   | 0          | 0          | 0          |   0.0 |  0.00
Comm    | 0.0039524  | 0.0039524  | 0.0039524  |   0.0 |  1.78
Output  | 0.00014426 | 0.00014426 | 0.00014426 |   0.0 |  0.07
Modify  | 1.169e-06  | 1.169e-06  | 1.169e-06  |   0.0 |  0.00
Other   |            | 0.003175   |            |       |  1.43

Nlocal:           5541 ave        5541 max        5541 min
Histogram: 1 0 0 0 0 0 0 0 0 0
Nghost:          33839 ave       33839 max       33839 min
Histogram: 1 0 0 0 0 0 0 0 0 0
Neighs:              0 ave           0 max           0 min
Histogram: 1 0 0 0 0 0 0 0 0 0

Total # of neighbors = 0
Ave neighs/atom = 0
Ave special neighs/atom = 2.4872767
Neighbor list builds = 0
Dangerous builds = 0

variable pe_minimized equal pe
print "Minimization complete. PE = ${pe_minimized} kcal/mol (was -23,217)"
Minimization complete. PE = -142277.663547728 kcal/mol (was -23,217)

# Switch back to GPU pair style for MD
pair_style lj/cut/tip4p/long/gpu 2 3 2 1 0.1546 12.0
kspace_style pppm/tip4p 1.0e-4
kspace_modify mesh 50 50 50
kspace_modify order 5

# Re-apply pair coefficients again after style change
pair_coeff 1 1 0.07 3.4            # C-C
pair_coeff 2 2 0.1852 3.1589       # O-O
pair_coeff 3 3 0.0 0.0             # H-H
pair_coeff 1 2 ${epsilon_co} 3.2   # C-O (variable)
pair_coeff 1 2 0.8 3.2   
pair_coeff 1 3 0.0 0.0             # C-H
pair_coeff 2 3 0.0 0.0             # O-H

print ""


#==============================================================================
# STAGE 0.5: Apply SHAKE Constraints
#==============================================================================
thermo 1000

# ğŸ”§ CRITICAL FIX #3: Apply SHAKE with proper verification
print "Applying SHAKE constraints..."
Applying SHAKE constraints...
# CORRECTED: bond type 2 = O-H, angle type 1 = H-O-H
fix myshk water shake 0.0001 20 0 b 2 a 1
Finding SHAKE clusters ...
       0 = # of size 2 clusters
       0 = # of size 3 clusters
       0 = # of size 4 clusters
    1787 = # of frozen angles
  find clusters CPU = 0.002 seconds

# Verify SHAKE is working
print "SHAKE constraint verification:"
SHAKE constraint verification:
print "  Expected: ~2000 water molecules with constrained bonds and angles"
  Expected: ~2000 water molecules with constrained bonds and angles
print "  Check minimization output for cluster sizes"
  Check minimization output for cluster sizes
print ""

print "GPU Acceleration Status:"
GPU Acceleration Status:
print "  âœ“ Pair forces (LJ):      GPU (lj/cut/tip4p/long/gpu)"
  œ“ Pair forces (LJ):      GPU (lj/cut/tip4p/long/gpu)
print "  âœ“ Coulomb (PPPM):        CPU (pppm/tip4p) - GPU suffix not available"
  œ“ Coulomb (PPPM):        CPU (pppm/tip4p) - GPU suffix not available
print "  âœ“ Neighbor lists:        GPU (neigh yes)"
  œ“ Neighbor lists:        GPU (neigh yes)
print "  â†’ Expected speedup:      2-3Ã— vs CPU-only version (pair forces only)"
  †’ Expected speedup:      2-3— vs CPU-only version (pair forces only)

#==============================================================================
# STAGE 1: NVT Thermalization (50 ps)
#==============================================================================
print ""

print "===== STAGE 1: NVT Thermalization (50 ps, GPU) ====="
===== STAGE 1: NVT Thermalization (50 ps, GPU) =====
print "Objective: Reach 300K while maintaining initial density"
Objective: Reach 300K while maintaining initial density

velocity all create 300.0 ${RANDOM_SEED} dist gaussian loop geom
velocity all create 300.0 42 dist gaussian loop geom

fix mynvt all nvt temp 300.0 300.0 100.0

# Trajectory output (every 4 ps) - using wrapped coordinates for proper visualization
dump nvt_traj all custom 2000 nvt_thermalization.lammpstrj id type xu yu zu
dump_modify nvt_traj sort id

dump nvt_dcd all dcd 2000 nvt_thermalization.dcd
dump_modify nvt_dcd unwrap yes

run 25000  # 50 ps at 2 fs timestep
PPPM initialization ...
  extracting TIP4P info from pair style
  using 12-bit tables for long-range coulomb
  G vector (1/distance) = 0.28512662
  grid = 50 50 50
  stencil order = 5
  estimated absolute RMS force accuracy = 0.00038934319
  estimated relative force accuracy = 1.1724955e-06
  using double precision FFTW3
  3d grid and FFT values/proc = 185193 125000
Generated 0 of 3 mixed pair_coeff terms from geometric mixing rule
Per MPI rank memory allocation (min/avg/max) = 51.29 | 51.29 | 51.29 Mbytes
   Step          Temp          Press          Volume         PotEng         KinEng         TotEng        Density    
        10   300           -112578.19      64000         -142277.66      3356.094      -138921.57      0.89136653   
      1000   300.47656     -791.59862      64000         -20728.873      3361.4253     -17367.447      0.89136653   
      2000   305.28267     -1359.8649      64000         -21139.294      3415.1912     -17724.102      0.89136653   
      3000   296.91074     -972.79555      64000         -21173.395      3321.5345     -17851.861      0.89136653   
      4000   294.00484     -1591.4421      64000         -21287.347      3289.0263     -17998.32       0.89136653   
      5000   305.23617     -2008.6327      64000         -21220.93       3414.6709     -17806.26       0.89136653   
      6000   301.44354     -984.79844      64000         -21168.744      3372.2429     -17796.501      0.89136653   
      7000   300.07651     -1062.0413      64000         -21279.877      3356.95       -17922.927      0.89136653   
      8000   301.22058     -996.81478      64000         -21226.092      3369.7487     -17856.343      0.89136653   
      9000   301.84367     -1036.4199      64000         -21216.712      3376.7192     -17839.993      0.89136653   
     10000   294.04604     -1150.8964      64000         -21328.004      3289.4872     -18038.516      0.89136653   
     11000   301.45919     -1581.44        64000         -21326.067      3372.4179     -17953.649      0.89136653   
     12000   301.90587     -300.08871      64000         -21195.872      3377.4149     -17818.457      0.89136653   
     13000   306.67408     -477.18194      64000         -21183.231      3430.7568     -17752.474      0.89136653   
     14000   301.72851     -746.24616      64000         -21251.426      3375.4309     -17875.995      0.89136653   
     15000   301.43512     -1245.5419      64000         -21286.973      3372.1486     -17914.824      0.89136653   
     16000   288.37856     -1102.0452      64000         -21277.083      3226.0852     -18050.998      0.89136653   
     17000   297.69526     -810.58268      64000         -21290.204      3330.3109     -17959.893      0.89136653   
     18000   304.31756     -1131.2874      64000         -21275.929      3404.3945     -17871.535      0.89136653   
     19000   297.19849     -1162.7986      64000         -21331.79       3324.7536     -18007.037      0.89136653   
     20000   296.38257     -1255.8777      64000         -21237.565      3315.626      -17921.939      0.89136653   
     21000   306.31642     -1267.6803      64000         -21216.14       3426.7557     -17789.384      0.89136653   
     22000   290.99482     -1036.5784      64000         -21229.634      3255.3533     -17974.281      0.89136653   
     23000   304.24459     -1256.7575      64000         -21305.158      3403.5782     -17901.58       0.89136653   
     24000   294.0776      -1452.1948      64000         -21318.594      3289.8403     -18028.754      0.89136653   
     25000   299.0841      -975.57849      64000         -21187.157      3345.8479     -17841.309      0.89136653   
     25010   296.87058     -1471.1453      64000         -21171.068      3321.0853     -17849.982      0.89136653   
Loop time of 690.056 on 5 procs for 25000 steps with 5541 atoms

Performance: 6.260 ns/day, 3.834 hours/ns, 36.229 timesteps/s, 200.745 katom-step/s
427.2% CPU use with 1 MPI tasks x 5 OpenMP threads

MPI task timing breakdown:
Section |  min time  |  avg time  |  max time  |%varavg| %total
---------------------------------------------------------------
Pair    | 24.612     | 24.612     | 24.612     |   0.0 |  3.57
Bond    | 0.34796    | 0.34796    | 0.34796    |   0.0 |  0.05
Kspace  | 621.81     | 621.81     | 621.81     |   0.0 | 90.11
Neigh   | 0.086602   | 0.086602   | 0.086602   |   0.0 |  0.01
Comm    | 13.314     | 13.314     | 13.314     |   0.0 |  1.93
Output  | 0.11495    | 0.11495    | 0.11495    |   0.0 |  0.02
Modify  | 26.48      | 26.48      | 26.48      |   0.0 |  3.84
Other   |            | 3.295      |            |       |  0.48

Nlocal:           5541 ave        5541 max        5541 min
Histogram: 1 0 0 0 0 0 0 0 0 0
Nghost:          33335 ave       33335 max       33335 min
Histogram: 1 0 0 0 0 0 0 0 0 0
Neighs:              0 ave           0 max           0 min
Histogram: 1 0 0 0 0 0 0 0 0 0

Total # of neighbors = 0
Ave neighs/atom = 0
Ave special neighs/atom = 2.4872767
Neighbor list builds = 2347
Dangerous builds = 1

unfix mynvt
undump nvt_traj
undump nvt_dcd

write_restart nvt_complete.restart
System init for write_restart ...
PPPM initialization ...
  extracting TIP4P info from pair style
  using 12-bit tables for long-range coulomb
  G vector (1/distance) = 0.28512662
  grid = 50 50 50
  stencil order = 5
  estimated absolute RMS force accuracy = 0.00038934319
  estimated relative force accuracy = 1.1724955e-06
  using double precision FFTW3
  3d grid and FFT values/proc = 185193 125000
Generated 0 of 3 mixed pair_coeff terms from geometric mixing rule

# Check temperature
variable current_temp equal temp
print "NVT complete. Temperature: ${current_temp} K (target: 300K)"
NVT complete. Temperature: 296.870582956808 K (target: 300K)

# ğŸ”§ CHECKPOINT #1: Verify we're still at reasonable density
variable current_dens equal density
if "${current_dens} < 0.7" then     "print 'ERROR: Density dropped during NVT! Current: ${current_dens} g/cmÂ³'"     "print 'This should not happen - check initial configuration'"     "quit 1"

print "âœ“ Checkpoint 1 PASSED: Density = ${current_dens} g/cmÂ³"
œ“ Checkpoint 1 PASSED: Density = 0.89136652525308 g/cm³

#==============================================================================
# STAGE 1.5: Pre-Equilibration at 100 atm (50 ps) - NEW STAGE
#==============================================================================
print ""

print "===== STAGE 1.5: Pre-Equilibration at 100 atm (50 ps, GPU) ====="
===== STAGE 1.5: Pre-Equilibration at 100 atm (50 ps, GPU) =====
print "ğŸ”§ CRITICAL FIX: Reducing initial pressure before main ramp"
Ÿ”§ CRITICAL FIX: Reducing initial pressure before main ramp
print "Objective: Equilibrate volume at moderate pressure to prevent PPPM artifacts"
Objective: Equilibrate volume at moderate pressure to prevent PPPM artifacts
print ""

print "Why this is needed:"
Why this is needed:
print "  - NVT creates high pressure (~800 atm) in fixed volume"
  - NVT creates high pressure (~800 atm) in fixed volume
print "  - Direct ramp from 800â†’1 atm caused 169k atm spike (PPPM grid change)"
  - Direct ramp from 800†’1 atm caused 169k atm spike (PPPM grid change)
print "  - Pre-equilibrating at 100 atm reduces initial pressure safely"
  - Pre-equilibrating at 100 atm reduces initial pressure safely
print "  - Main ramp (100â†’1 atm) will then cause only ~5% box expansion"
  - Main ramp (100†’1 atm) will then cause only ~5% box expansion

# Higher barostat damping for this stage (more conservative)
fix mynpt_pre all npt temp 300.0 300.0 100.0 iso 100.0 100.0 5000.0

dump pre_dcd all dcd 2000 pre_equilibration.dcd
dump_modify pre_dcd unwrap yes

run 25000  # 50 ps at 2 fs timestep
PPPM initialization ...
  extracting TIP4P info from pair style
  using 12-bit tables for long-range coulomb
  G vector (1/distance) = 0.28512662
  grid = 50 50 50
  stencil order = 5
  estimated absolute RMS force accuracy = 0.00038934319
  estimated relative force accuracy = 1.1724955e-06
  using double precision FFTW3
  3d grid and FFT values/proc = 185193 125000
Generated 0 of 3 mixed pair_coeff terms from geometric mixing rule
Per MPI rank memory allocation (min/avg/max) = 51.29 | 51.29 | 51.29 Mbytes
   Step          Temp          Press          Volume         PotEng         KinEng         TotEng        Density    
     25010   296.87058     -1471.0397      64000         -21171.068      3321.0853     -17849.982      0.89136653   
     26000   310.35123     -301.49634      61493.65      -21376.248      3471.8931     -17904.355      0.92769673   
     27000   293.98692     -505.59887      59469.119     -21489.845      3288.8259     -18201.019      0.95927867   
     28000   299.71684     -890.29746      57694.391     -21520.343      3352.9264     -18167.416      0.98878689   
     29000   303.78147     -196.10222      56175.395     -21601.807      3398.3973     -18203.41       1.0155239    
     30000   298.71275     -497.25809      54964.778     -21564.891      3341.6936     -18223.197      1.0378912    
     31000   302.60858     -44.650344      53944.022     -21724.328      3385.2761     -18339.052      1.0575307    
     32000   294.77687      105.28734      53924.357     -21740.647      3297.663      -18442.984      1.0579163    
     33000   303.23495      586.6751       53961.051     -21700.27       3392.2833     -18307.987      1.0571969    
     34000   303.38083      15.007734      53495.812     -21697.749      3393.9154     -18303.834      1.0663911    
     35000   299.38891     -10.478205      53553.803     -21674.607      3349.2578     -18325.349      1.0652364    
     36000   298.53591      664.8717       53577.571     -21840.495      3339.7153     -18500.78       1.0647638    
     37000   293.87088     -497.42483      53591.068     -21760.648      3287.5277     -18473.121      1.0644956    
     38000   301.02617      460.41868      53496.763     -21783.295      3367.5738     -18415.721      1.0663721    
     39000   301.34458      170.37615      53345.124     -21788.488      3371.1358     -18417.352      1.0694034    
     40000   302.68723     -557.92855      53719.181     -21683.385      3386.156      -18297.229      1.0619569    
     41000   296.5304       32.557246      53716.449     -21713.619      3317.2797     -18396.339      1.062011     
     42000   296.17086     -192.95225      53640.123     -21733.037      3313.2575     -18419.779      1.0635221    
     43000   300.40822      417.8334       53674.11      -21739.096      3360.6608     -18378.435      1.0628487    
     44000   300.15475      355.09089      53147.557     -21682.546      3357.8252     -18324.721      1.0733787    
     45000   302.53154     -15.081936      53520.01      -21769.273      3384.4144     -18384.859      1.065909     
     46000   305.2698       381.42026      53888.259     -21744.318      3415.0472     -18329.271      1.058625     
     47000   305.53719     -41.277054      53310.387     -21602.441      3418.0384     -18184.403      1.0701002    
     48000   295.51104     -804.89286      53842.757     -21718          3305.8761     -18412.124      1.0595196    
     49000   297.26633      330.77745      53894.027     -21693.168      3325.5125     -18367.655      1.0585117    
     50000   302.04559     -12.442001      53412.92      -21659.612      3378.978      -18280.634      1.068046     
     50010   297.99184     -184.17756      53408.248     -21604.025      3333.6288     -18270.396      1.0681395    
Loop time of 1094.34 on 5 procs for 25000 steps with 5541 atoms

Performance: 3.948 ns/day, 6.080 hours/ns, 22.845 timesteps/s, 126.583 katom-step/s
340.5% CPU use with 1 MPI tasks x 5 OpenMP threads

MPI task timing breakdown:
Section |  min time  |  avg time  |  max time  |%varavg| %total
---------------------------------------------------------------
Pair    | 41.523     | 41.523     | 41.523     |   0.0 |  3.79
Bond    | 0.46152    | 0.46152    | 0.46152    |   0.0 |  0.04
Kspace  | 565.43     | 565.43     | 565.43     |   0.0 | 51.67
Neigh   | 0.070928   | 0.070928   | 0.070928   |   0.0 |  0.01
Comm    | 13.992     | 13.992     | 13.992     |   0.0 |  1.28
Output  | 0.015633   | 0.015633   | 0.015633   |   0.0 |  0.00
Modify  | 467.97     | 467.97     | 467.97     |   0.0 | 42.76
Other   |            | 4.872      |            |       |  0.45

Nlocal:           5541 ave        5541 max        5541 min
Histogram: 1 0 0 0 0 0 0 0 0 0
Nghost:          35821 ave       35821 max       35821 min
Histogram: 1 0 0 0 0 0 0 0 0 0
Neighs:              0 ave           0 max           0 min
Histogram: 1 0 0 0 0 0 0 0 0 0

Total # of neighbors = 0
Ave neighs/atom = 0
Ave special neighs/atom = 2.4872767
Neighbor list builds = 2329
Dangerous builds = 0

unfix mynpt_pre
undump pre_dcd

write_restart pre_equilibration_complete.restart
System init for write_restart ...
PPPM initialization ...
  extracting TIP4P info from pair style
  using 12-bit tables for long-range coulomb
  G vector (1/distance) = 0.28860768
  grid = 50 50 50
  stencil order = 5
  estimated absolute RMS force accuracy = 0.00032476358
  estimated relative force accuracy = 9.7801587e-07
  using double precision FFTW3
  3d grid and FFT values/proc = 205379 125000
Generated 0 of 3 mixed pair_coeff terms from geometric mixing rule
write_data pre_equilibration_complete.data
System init for write_data ...
PPPM initialization ...
  extracting TIP4P info from pair style
  using 12-bit tables for long-range coulomb
  G vector (1/distance) = 0.28860768
  grid = 50 50 50
  stencil order = 5
  estimated absolute RMS force accuracy = 0.00032476358
  estimated relative force accuracy = 9.7801587e-07
  using double precision FFTW3
  3d grid and FFT values/proc = 205379 125000
Generated 0 of 3 mixed pair_coeff terms from geometric mixing rule
WARNING: Not all mixed pair coeffs generated from mixing. Use write_data with 'pair ij' option to store all pair coeffs. (src/write_data.cpp:364)

# ğŸ”§ CHECKPOINT #2: Verify still in liquid phase after pre-equilibration
variable current_dens equal density
variable current_press equal press
variable current_vol equal vol

print ""

print "Pre-equilibration complete:"
Pre-equilibration complete:
print "  Density:  ${current_dens} g/cmÂ³"
  Density:  1.06813947690352 g/cm³
print "  Pressure: ${current_press} atm"
  Pressure: -184.177558526308 atm
print "  Volume:   ${current_vol} Ã…Â³"
  Volume:   53408.2475647979 …³

if "${current_dens} < 0.85" then     "print 'ERROR: Density dropped to ${current_dens} during pre-equilibration!'"     "print 'Expected: Still ~0.95 g/cmÂ³ (may increase slightly due to compression)'"     "print 'System failed before main pressure ramp even started!'"     "quit 1"

print "âœ“ Checkpoint 2 PASSED: System stable at 100 atm"
œ“ Checkpoint 2 PASSED: System stable at 100 atm

#==============================================================================
# STAGE 2: GENTLE Pressure Ramp (100 â†’ 1 atm, 100 ps) - CORRECTED
#==============================================================================
print ""

print "===== STAGE 2: Gentle Pressure Ramp (100 ps, GPU) ====="
===== STAGE 2: Gentle Pressure Ramp (100 ps, GPU) =====
print "Ramping pressure from 100 atm â†’ 1 atm with drag damping"
Ramping pressure from 100 atm †’ 1 atm with drag damping
print ""

print "COMPARISON TO FAILED VERSION:"
COMPARISON TO FAILED VERSION:
print "  OLD: 50 atm â†’ 1 atm, no pre-equil â†’ 169,712 atm spike at step 51k"
  OLD: 50 atm †’ 1 atm, no pre-equil †’ 169,712 atm spike at step 51k
print "  NEW: 100 atm â†’ 1 atm, with pre-equil â†’ should be smooth (< 500 atm max)"
  NEW: 100 atm †’ 1 atm, with pre-equil †’ should be smooth (< 500 atm max)

# ğŸ”§ CRITICAL FIX #4: Add drag damping to prevent explosive expansion
fix mynpt_ramp all npt temp 300.0 300.0 100.0 iso 100.0 1.0 2000.0 drag 2.0

dump ramp_dcd all dcd 1000 pressure_ramp.dcd
dump_modify ramp_dcd unwrap yes

# Monitor closely during ramp (every 500 steps = 1 ps)
thermo 500

run 50000  # 100 ps at 2 fs timestep
PPPM initialization ...
  extracting TIP4P info from pair style
  using 12-bit tables for long-range coulomb
  G vector (1/distance) = 0.28860768
  grid = 50 50 50
  stencil order = 5
  estimated absolute RMS force accuracy = 0.00032476358
  estimated relative force accuracy = 9.7801587e-07
  using double precision FFTW3
  3d grid and FFT values/proc = 205379 125000
Generated 0 of 3 mixed pair_coeff terms from geometric mixing rule
Per MPI rank memory allocation (min/avg/max) = 52.14 | 52.14 | 52.14 Mbytes
   Step          Temp          Press          Volume         PotEng         KinEng         TotEng        Density    
     50010   297.99184     -188.5533       53408.248     -21603.978      3333.6288     -18270.349      1.0681395    
     50500   295.95353      376.3441       53587.066     -21576.923      3310.8263     -18266.097      1.0645751    
     51000   298.87027     -401.17081      53514.003     -21633.61       3343.4557     -18290.155      1.0660286    
     51500   303.37416     -145.57931      53562.795     -21688.804      3393.8407     -18294.963      1.0650575    
     52000   303.96798      630.18681      53510.452     -21731.822      3400.4837     -18331.338      1.0660993    
     52500   295.11621     -368.25603      53792.794     -21612.681      3301.4592     -18311.221      1.0605037    
     53000   298.07315      279.62866      53741.416     -21623.589      3334.5384     -18289.05       1.0615176    
     53500   302.42938      400.54375      53645.842     -21731.91       3383.2714     -18348.638      1.0634087    
     54000   296.23427     -324.51719      54143.883     -21656.121      3313.9669     -18342.154      1.053627     
     54500   301.77684     -2.3377954      53674.996     -21697.552      3375.9715     -18321.58       1.0628311    
     55000   300.25693      57.963495      53670.464     -21703.392      3358.9683     -18344.424      1.0629209    
     55500   292.86806      609.62763      53721.694     -21608.984      3276.3092     -18332.675      1.0619073    
     56000   302.79665      1.9100614      53858.31      -21714.564      3387.3801     -18327.184      1.0592137    
     56500   299.88137      222.78865      53699.595     -21665.644      3354.7669     -18310.877      1.0623443    
     57000   299.98337      369.02492      53767.444     -21709.75       3355.908      -18353.842      1.0610037    
     57500   298.24406     -375.9797       53665.354     -21685.388      3336.4503     -18348.937      1.0630221    
     58000   298.94776      144.4078       53802.99      -21745.285      3344.3227     -18400.963      1.0603027    
     58500   295.52598      527.13961      53843.372     -21664.272      3306.0433     -18358.228      1.0595075    
     59000   298.62045      95.721327      53713.606     -21688.961      3340.661      -18348.3        1.0620672    
     59500   305.66016     -8.8605968      53439.726     -21791.833      3419.4141     -18372.419      1.0675103    
     60000   294.88021      190.70283      53505.006     -21660.979      3298.8191     -18362.16       1.0662078    
     60500   303.18928      464.76897      53612.134     -21764.387      3391.7724     -18372.614      1.0640774    
     61000   300.48264      173.50294      53719.248     -21708.336      3361.4933     -18346.843      1.0619556    
     61500   299.50795      28.802036      53686.736     -21720.385      3350.5895     -18369.795      1.0625987    
     62000   296.82396     -470.59688      54052.876     -21666.244      3320.5637     -18345.681      1.055401     
     62500   299.28523      197.16979      53897.438     -21666.091      3348.0979     -18317.993      1.0584447    
     63000   298.42205      334.27924      53754.947     -21648.101      3338.4415     -18309.659      1.0612504    
     63500   303.7364       1157.9656      53827.921     -21708.78       3397.8931     -18310.887      1.0598117    
     64000   300.61662      111.64176      53850.633     -21715.016      3362.9921     -18352.024      1.0593647    
     64500   301.40002     -455.7299       54052.608     -21702.126      3371.756      -18330.37       1.0554062    
     65000   301.23487      488.34967      54184.262     -21671.556      3369.9085     -18301.647      1.0528418    
     65500   304.21592      165.06982      53943.408     -21745.48       3403.2575     -18342.223      1.0575427    
     66000   298.80153     -107.1127       53833.146     -21682.158      3342.6868     -18339.471      1.0597088    
     66500   299.54773      740.94408      53753.177     -21648.521      3351.0345     -18297.486      1.0612853    
     67000   304.39311     -503.1515       53821.223     -21737.58       3405.2397     -18332.34       1.0599435    
     67500   298.72161      167.61067      53644.794     -21648.524      3341.7927     -18306.731      1.0634295    
     68000   295.00974      224.52611      53461.883     -21658.531      3300.2681     -18358.263      1.0670679    
     68500   303.3182       252.84308      53391.033     -21746.293      3393.2147     -18353.078      1.0684839    
     69000   296.13584     -338.44766      53667.92      -21629.858      3312.8658     -18316.992      1.0629713    
     69500   302.6774      -298.26418      53669.543     -21739.041      3386.0461     -18352.995      1.0629391    
     70000   305.26947     -11.895293      53574.784     -21777.157      3415.0435     -18362.114      1.0648192    
     70500   301.39184     -253.26741      53692.566     -21733.458      3371.6646     -18361.793      1.0624834    
     71000   298.43525     -521.38199      53562.954     -21669.894      3338.5892     -18331.305      1.0650544    
     71500   300.75244     -835.05722      54018.449     -21744.804      3364.5116     -18380.292      1.0560736    
     72000   301.32315     -291.30684      53735.493     -21767.508      3370.8961     -18396.612      1.0616346    
     72500   296.73174     -120.92795      53419.785     -21679.996      3319.5321     -18360.464      1.0679088    
     73000   296.69425      78.54715       53826.774     -21713.993      3319.1127     -18394.88       1.0598342    
     73500   304.94749      159.89278      53612.535     -21727.444      3411.4415     -18316.003      1.0640694    
     74000   295.83049     -561.76263      53876.102     -21654.626      3309.4498     -18345.176      1.0588639    
     74500   295.60375     -489.34559      53748.289     -21624.735      3306.9133     -18317.822      1.0613818    
     75000   302.3888       152.98863      53794.385     -21680.958      3382.8175     -18298.14       1.0604723    
     75500   301.15759      313.68228      53580.466     -21690.95       3369.044      -18321.906      1.0647063    
     76000   300.42787     -806.60609      53840.903     -21744.129      3360.8807     -18383.249      1.0595561    
     76500   301.24499     -114.47033      53613.873     -21744.124      3370.0217     -18374.102      1.0640428    
     77000   303.89458      297.66888      53752.609     -21769.098      3399.6626     -18369.435      1.0612965    
     77500   296.71197      368.65694      53847.897     -21695.51       3319.3109     -18376.199      1.0594185    
     78000   302.7809       987.74737      53643.903     -21720.72       3387.2039     -18333.516      1.0634472    
     78500   295.20625     -151.30697      53820.075     -21662.707      3302.4665     -18360.241      1.0599662    
     79000   301.14267      121.60417      53485.589     -21704.273      3368.877      -18335.396      1.0665949    
     79500   294.06623      660.6711       53328.028     -21600.806      3289.7131     -18311.093      1.0697463    
     80000   303.49534      599.2774       53730.246     -21672.608      3395.1964     -18277.412      1.0617383    
     80500   301.88152      42.349867      53988.444     -21651.158      3377.1425     -18274.015      1.0566605    
     81000   301.53918     -113.58924      54191.932     -21635.33       3373.3128     -18262.017      1.0526928    
     81500   296.87929     -153.82238      54018.427     -21664.41       3321.1827     -18343.228      1.056074     
     82000   302.98076     -195.65468      53799.433     -21681.579      3389.4397     -18292.139      1.0603728    
     82500   299.07516      779.6555       53622.316     -21684.214      3345.7479     -18338.466      1.0638753    
     83000   303.12056      605.90685      54288.619     -21722.702      3391.0037     -18331.698      1.050818     
     83500   299.53298     -134.88387      53887.151     -21701.624      3350.8695     -18350.755      1.0586468    
     84000   297.55551     -59.381955      53691.85      -21675.368      3328.7476     -18346.621      1.0624975    
     84500   298.91296     -168.11517      53918.547     -21723.736      3343.9333     -18379.802      1.0580303    
     85000   301.28791      7.7935427      53724.824     -21729.072      3370.5018     -18358.57       1.0618454    
     85500   296.65801     -530.25005      53618.81      -21706.697      3318.7072     -18387.99       1.0639449    
     86000   299.48594      82.766239      53501.667     -21712.912      3350.3433     -18362.568      1.0662744    
     86500   299.63827     -803.89003      53586.485     -21677.884      3352.0473     -18325.837      1.0645867    
     87000   304.00801      21.397063      53485.091     -21685.079      3400.9316     -18284.147      1.0666048    
     87500   295.17074      467.96955      53504.455     -21589.913      3302.0692     -18287.844      1.0662188    
     88000   298.3693       99.019225      53493.164     -21650.795      3337.8515     -18312.943      1.0664439    
     88500   302.56559     -24.285726      53385.49      -21733.427      3384.7953     -18348.632      1.0685948    
     89000   299.93585      267.63187      53783.493     -21691.678      3355.3764     -18336.301      1.0606871    
     89500   297.84293      490.48653      53503.465     -21657.986      3331.9629     -18326.023      1.0662386    
     90000   304.46369      524.43399      53513.268     -21781.994      3406.0292     -18375.965      1.0660432    
     90500   299.20665     -261.26305      53618.05      -21746.302      3347.2188     -18399.083      1.0639599    
     91000   305.14464      1159.8843      53618.696     -21741.408      3413.647      -18327.761      1.0639471    
     91500   293.51503     -18.175564      53832.181     -21602.412      3283.5468     -18318.865      1.0597278    
     92000   296.39967      320.83347      53883.628     -21567.861      3315.8172     -18252.044      1.058716     
     92500   301.32762     -32.7267        54017.652     -21674.349      3370.9461     -18303.403      1.0560892    
     93000   302.38881     -116.57328      54156.297     -21669.303      3382.8176     -18286.485      1.0533855    
     93500   308.49662      634.03914      53829.667     -21821.447      3451.1455     -18370.302      1.0597773    
     94000   298.40832     -175.1431       54048.027     -21759.675      3338.288      -18421.387      1.0554957    
     94500   299.74031     -1001.8814      53823.41      -21735.842      3353.1889     -18382.654      1.0599005    
     95000   307.74004     -458.72926      53468.744     -21743.466      3442.6817     -18300.784      1.066931     
     95500   298.63902     -211.59724      53449.093     -21644.053      3340.8688     -18303.184      1.0673232    
     96000   294.45299     -726.18882      53893.225     -21574.581      3294.0398     -18280.541      1.0585274    
     96500   301.99787     -618.80324      53631.119     -21694.044      3378.4442     -18315.6        1.0637007    
     97000   299.58124      271.52786      53612.464     -21702.814      3351.4094     -18351.404      1.0640708    
     97500   300.01185     -414.3425       53550.708     -21685.573      3356.2266     -18329.346      1.0652979    
     98000   300.09537     -476.25353      53922.696     -21648.801      3357.1609     -18291.64       1.0579489    
     98500   301.16076      594.3374       54414.38      -21695.464      3369.0795     -18326.384      1.0483894    
     99000   294.51886     -231.21534      54114.623     -21654.929      3294.7767     -18360.152      1.0541967    
     99500   298.06277     -342.31871      54012.659     -21649.239      3334.4223     -18314.816      1.0561868    
    100000   294.99789     -146.50215      53727.967     -21634.441      3300.1355     -18334.305      1.0617833    
    100010   298.47016     -28.178043      53711.272     -21673.384      3338.9798     -18334.404      1.0621133    
Loop time of 2191.1 on 5 procs for 50000 steps with 5541 atoms

Performance: 3.943 ns/day, 6.086 hours/ns, 22.820 timesteps/s, 126.443 katom-step/s
340.0% CPU use with 1 MPI tasks x 5 OpenMP threads

MPI task timing breakdown:
Section |  min time  |  avg time  |  max time  |%varavg| %total
---------------------------------------------------------------
Pair    | 84.726     | 84.726     | 84.726     |   0.0 |  3.87
Bond    | 0.96557    | 0.96557    | 0.96557    |   0.0 |  0.04
Kspace  | 1137.3     | 1137.3     | 1137.3     |   0.0 | 51.91
Neigh   | 0.13882    | 0.13882    | 0.13882    |   0.0 |  0.01
Comm    | 27.32      | 27.32      | 27.32      |   0.0 |  1.25
Output  | 0.05909    | 0.05909    | 0.05909    |   0.0 |  0.00
Modify  | 930.91     | 930.91     | 930.91     |   0.0 | 42.49
Other   |            | 9.668      |            |       |  0.44

Nlocal:           5541 ave        5541 max        5541 min
Histogram: 1 0 0 0 0 0 0 0 0 0
Nghost:          35669 ave       35669 max       35669 min
Histogram: 1 0 0 0 0 0 0 0 0 0
Neighs:              0 ave           0 max           0 min
Histogram: 1 0 0 0 0 0 0 0 0 0

Total # of neighbors = 0
Ave neighs/atom = 0
Ave special neighs/atom = 2.4872767
Neighbor list builds = 4629
Dangerous builds = 0

thermo 1000  # Return to normal frequency

unfix mynpt_ramp
undump ramp_dcd

write_restart pressure_ramp_complete.restart
System init for write_restart ...
PPPM initialization ...
  extracting TIP4P info from pair style
  using 12-bit tables for long-range coulomb
  G vector (1/distance) = 0.28850806
  grid = 50 50 50
  stencil order = 5
  estimated absolute RMS force accuracy = 0.0003265153
  estimated relative force accuracy = 9.8329111e-07
  using double precision FFTW3
  3d grid and FFT values/proc = 205379 125000
Generated 0 of 3 mixed pair_coeff terms from geometric mixing rule
write_data pressure_ramp_complete.data
System init for write_data ...
PPPM initialization ...
  extracting TIP4P info from pair style
  using 12-bit tables for long-range coulomb
  G vector (1/distance) = 0.28850806
  grid = 50 50 50
  stencil order = 5
  estimated absolute RMS force accuracy = 0.0003265153
  estimated relative force accuracy = 9.8329111e-07
  using double precision FFTW3
  3d grid and FFT values/proc = 205379 125000
Generated 0 of 3 mixed pair_coeff terms from geometric mixing rule
WARNING: Not all mixed pair coeffs generated from mixing. Use write_data with 'pair ij' option to store all pair coeffs. (src/write_data.cpp:364)

# ğŸ”§ CHECKPOINT #3: Critical check after ramp (most likely failure point)
variable current_dens equal density
variable current_press equal press
variable current_vol equal vol
variable current_boxsize equal vol^(1.0/3.0)

print ""

print "Pressure ramp complete:"
Pressure ramp complete:
print "  Density:  ${current_dens} g/cmÂ³"
  Density:  1.06211331802237 g/cm³
print "  Pressure: ${current_press} atm"
  Pressure: -28.1780430254277 atm
print "  Volume:   ${current_vol} Ã…Â³"
  Volume:   53711.2722797018 …³
print "  Box size: ${current_boxsize} Ã…"
  Box size: 37.7301454951916 …

if "${current_dens} < 0.75" then     "print ''"     "print 'ğŸ”´ CRITICAL ERROR: Density collapsed to ${current_dens} g/cmÂ³!'"     "print ''"     "print 'This means the PPPM artifact occurred despite fixes.'"     "print 'Check equilibration.log for pressure spike around step 75,000-85,000'"     "print ''"     "print 'If pressure exceeded 10,000 atm during ramp:'"     "print '  â†’ PPPM grid still recalculating (increase mesh size)'"     "print '  â†’ Try mesh 50 50 50 or mesh 60 60 60'"     "print ''"     "print 'If pressure stayed < 1,000 atm but density still dropped:'"     "print '  â†’ Initial configuration may be problematic'"     "print '  â†’ Check initial_system.data for pre-existing issues'"     "print ''"     "quit 1"

print "âœ“ Checkpoint 3 PASSED: Pressure ramp successful, liquid phase maintained"
œ“ Checkpoint 3 PASSED: Pressure ramp successful, liquid phase maintained

#==============================================================================
# STAGE 3: NPT Equilibration (Complete 1000 ps with 2-phase strategy)
#==============================================================================
print ""

print "===== STAGE 3: NPT Equilibration (1000 ps, GPU) ====="
===== STAGE 3: NPT Equilibration (1000 ps, GPU) =====
print "Equilibrating at 300K, 1 atm with improved pressure control"
Equilibrating at 300K, 1 atm with improved pressure control
print ""

print "Strategy:"
Strategy:
print "  Phase 1 (400 ps): Higher damping for gentle pressure equilibration"
  Phase 1 (400 ps): Higher damping for gentle pressure equilibration
print "  Phase 2 (600 ps): Standard damping for final equilibration"
  Phase 2 (600 ps): Standard damping for final equilibration
print ""


# Phase 1: Gentle NPT with stronger pressure damping (400 ps)
print "Phase 1: Gentle pressure equilibration (400 ps, pdamp=5000)..."
Phase 1: Gentle pressure equilibration (400 ps, pdamp=5000)...
# ğŸ”§ CRITICAL: Using npt/gpu instead of npt for FULL GPU acceleration
fix mynpt_gentle all npt/gpu temp 300.0 300.0 100.0 iso 1.0 1.0 5000.0

dump npt_traj all custom 2000 npt_equilibration.lammpstrj id type xu yu zu
dump_modify npt_traj sort id

dump npt_dcd all dcd 2000 npt_equilibration.dcd
dump_modify npt_dcd unwrap yes

# Thermodynamic averaging during NPT
fix thermo_avg_npt all ave/time 100 10 1000 v_epsilon_co v_temp v_press v_pe v_ke v_etotal v_vol v_dens     file npt_equilibration_thermo.dat

run 200000  # 400 ps at 2 fs timestep
PPPM initialization ...
  extracting TIP4P info from pair style
  using 12-bit tables for long-range coulomb
  G vector (1/distance) = 0.28850806
  grid = 50 50 50
  stencil order = 5
  estimated absolute RMS force accuracy = 0.0003265153
  estimated relative force accuracy = 9.8329111e-07
  using double precision FFTW3
  3d grid and FFT values/proc = 205379 125000
Generated 0 of 3 mixed pair_coeff terms from geometric mixing rule
Per MPI rank memory allocation (min/avg/max) = 52.14 | 52.14 | 52.14 Mbytes
   Step          Temp          Press          Volume         PotEng         KinEng         TotEng        Density    
    100010   298.47016     -44.806067      53711.272     -21673.364      3338.9798     -18334.384      1.0621133    
    101000   299.85944     -644.14689      53397.294     -21916.039      3354.5216     -18561.518      1.0683586    
    102000   294.04162     -530.74538      53859.019     -21713.179      3289.4377     -18423.741      1.0591997    
    103000   303.88539      10.727784      53854.407     -21634.342      3399.5598     -18234.782      1.0592904    
    104000   301.30405      323.24903      53676.078     -21712.156      3370.6825     -18341.474      1.0628097    
    105000   301.75115     -612.0447       53636.049     -21665.467      3375.6841     -18289.783      1.0636029    
    106000   302.14398      443.42592      53083.527     -21822.721      3380.0787     -18442.643      1.0746735    
    107000   302.32826     -10.624725      54294.365     -21706.959      3382.1402     -18324.818      1.0507068    
    108000   296.65256      360.39745      54275.277     -21690.596      3318.6462     -18371.949      1.0510763    
    109000   295.64795      45.055622      54067.474     -21718.974      3307.4077     -18411.567      1.055116     
    110000   298.48608      757.11607      53697.704     -21697.042      3339.1578     -18357.884      1.0623817    
    111000   302.08532     -356.88292      53520.823     -21602.502      3379.4225     -18223.079      1.0658927    
    112000   301.44369     -20.130002      53304.94      -21669.062      3372.2446     -18296.817      1.0702096    
    113000   304.98523     -409.72259      53816.404     -21544.894      3411.8637     -18133.031      1.0600385    
    114000   298.27585      1487.951       53803.81      -21669.35       3336.8061     -18332.544      1.0602866    
    115000   291.77339     -269.26916      54156.247     -21705.989      3264.0631     -18441.926      1.0533865    
    116000   310.93258      586.55818      53871.165     -21716.251      3478.3966     -18237.854      1.0589609    
    117000   300.77663      555.88428      53891.197     -21615.97       3364.7822     -18251.188      1.0585673    
    118000   302.18163     -670.86743      53506.661     -21527.751      3380.4998     -18147.252      1.0661749    
    119000   298.70267      1118.9491      53604.947     -21645.654      3341.5809     -18304.073      1.06422      
    120000   297.99505     -711.41179      54123.238     -21714.209      3333.6647     -18380.545      1.0540289    
    121000   297.88231      354.37036      53561.049     -21821.867      3332.4035     -18489.464      1.0650922    
    122000   300.39703     -132.68066      53658.62      -21756.529      3360.5356     -18395.993      1.0631555    
    123000   296.49767      308.36343      54067.016     -21650.215      3316.9136     -18333.302      1.055125     
    124000   300.04563     -26.5893        53983.238     -21708.765      3356.6045     -18352.16       1.0567624    
    125000   301.50848      908.75767      53781.226     -21714.175      3372.9693     -18341.206      1.0607318    
    126000   299.42962     -87.998129      53400.626     -21696.626      3349.7132     -18346.913      1.0682919    
    127000   301.99651      364.73506      53482.787     -21701.837      3378.4289     -18323.408      1.0666508    
    128000   301.41923     -203.50604      53886.659     -21672.963      3371.971      -18300.992      1.0586564    
    129000   295.36434     -43.874759      53441.214     -21702.934      3304.235      -18398.699      1.0674806    
    130000   306.2483       352.24325      53974.346     -21502.608      3425.9937     -18076.614      1.0569365    
    131000   300.95549      524.75504      53956.367     -21726.237      3366.7831     -18359.453      1.0572887    
    132000   300.80669     -198.20342      53785.919     -21801.721      3365.1185     -18436.603      1.0606393    
    133000   298.90607      196.63395      53910.506     -21709.643      3343.8562     -18365.787      1.0581881    
    134000   302.65153     -254.89233      54348.435     -21595.257      3385.7566     -18209.501      1.0496615    
    135000   293.21284      129.92295      53436.072     -21604.072      3280.1663     -18323.906      1.0675833    
    136000   295.89444     -778.46875      53588.61      -21673.109      3310.1652     -18362.943      1.0645445    
    137000   303.30256     -519.533        53972.002     -21698.398      3393.0397     -18305.359      1.0569824    
    138000   302.09082      245.70472      54134.659     -21639.492      3379.484      -18260.008      1.0538065    
    139000   291.95216     -480.34137      54062.976     -21781.76       3266.0631     -18515.697      1.0552038    
    140000   294.3197       435.79757      53503.927     -21705.158      3292.5487     -18412.61       1.0662293    
    141000   304.45448      593.86292      53326.74      -21627.635      3405.9262     -18221.709      1.0697721    
    142000   299.25458      1123.8464      53541.6       -21716.587      3347.755      -18368.832      1.0654791    
    143000   308.07759      45.278863      53889.808     -21704.971      3446.4579     -18258.513      1.0585946    
    144000   300.46251      1000.3335      53595.609     -21676.947      3361.2682     -18315.679      1.0644054    
    145000   291.00734      734.22503      53809.616     -21654.676      3255.4933     -18399.183      1.0601722    
    146000   302.56017      47.920432      54064.203     -21749.028      3384.7346     -18364.294      1.0551798    
    147000   305.03552     -439.8831       53961.823     -21708.842      3412.4263     -18296.415      1.0571818    
    148000   293.44575     -441.57387      53536.449     -21808.179      3282.7718     -18525.407      1.0655816    
    149000   295.85534     -469.92095      53359.539     -21654.068      3309.7278     -18344.34       1.0691145    
    150000   296.91133     -1165.8612      54008.512     -21695.187      3321.5411     -18373.646      1.0562679    
    151000   304.61433      444.68212      53936.943     -21618.423      3407.7145     -18210.709      1.0576695    
    152000   296.59863      82.071219      54013.459     -21566.368      3318.043      -18248.325      1.0561712    
    153000   298.11027      54.824977      53889.606     -21580.81       3334.9536     -18245.856      1.0585985    
    154000   299.07902     -538.27704      53704.039     -21598.877      3345.791      -18253.086      1.0622564    
    155000   300.98883      531.21523      53432.325     -21632.794      3367.156      -18265.638      1.0676582    
    156000   299.16477     -722.67421      53938.867     -21675.636      3346.7503     -18328.885      1.0576317    
    157000   304.72477      120.53741      53470.578     -21621.8        3408.9499     -18212.85       1.0668943    
    158000   307.24744     -103.63422      53529.191     -21686.687      3437.171      -18249.516      1.0657261    
    159000   296.46538      75.470311      53849.704     -21719.484      3316.5523     -18402.932      1.0593829    
    160000   294.69694      462.01305      53980.75      -21769.07       3296.7688     -18472.301      1.0568111    
    161000   290.30367     -97.745971      53794.941     -21608.19       3247.6214     -18360.569      1.0604614    
    162000   306.26617      567.28769      53246.406     -21711.221      3426.1935     -18285.027      1.0713861    
    163000   293.31904     -630.73801      53904.584     -21506.119      3281.3543     -18224.765      1.0583044    
    164000   302.55333      497.85793      54090.116     -21663.729      3384.658      -18279.071      1.0546743    
    165000   300.19456      152.08817      53693.55      -21659.025      3358.2706     -18300.754      1.0624639    
    166000   300.84212      183.8434       53666.017     -21829.975      3365.5149     -18464.46       1.063009     
    167000   302.69531     -76.938559      53762.936     -21813.654      3386.2464     -18427.407      1.0610927    
    168000   299.00751     -534.44678      53788.475     -21830.345      3344.9911     -18485.354      1.0605889    
    169000   294.5027      -248.49098      54308.258     -21658.765      3294.5958     -18364.169      1.050438     
    170000   299.5532      -73.871269      53679.454     -21771.543      3351.0957     -18420.447      1.0627429    
    171000   298.98062     -91.34962       53590.295     -21704.55       3344.6902     -18359.859      1.064511     
    172000   302.88747     -924.37526      53598.189     -21794.296      3388.3961     -18405.9        1.0643542    
    173000   300.75929      491.69963      53661.774     -21617.062      3364.5882     -18252.473      1.063093     
    174000   295.68788      991.51365      53615.546     -21700.768      3307.8545     -18392.913      1.0640096    
    175000   303.49995     -1022.2346      54446.131     -21632.657      3395.2479     -18237.409      1.047778     
    176000   305.1934      -88.534391      53980.826     -21568.953      3414.1925     -18154.761      1.0568097    
    177000   298.4412      -244.80003      53789.639     -21565.993      3338.6557     -18227.338      1.0605659    
    178000   307.62001     -532.627        53899.457     -21664.998      3441.339      -18223.659      1.0584051    
    179000   303.44247      210.48822      53533.01      -21803.157      3394.6048     -18408.552      1.0656501    
    180000   307.73897     -395.48421      53758.934     -21658.197      3442.6698     -18215.527      1.0611717    
    181000   304.90132      333.45219      53437.371     -21636.097      3410.925      -18225.172      1.0675573    
    182000   299.89749     -285.48089      53867.367     -21724.645      3354.9472     -18369.698      1.0590356    
    183000   295.3821       555.1838       54213.572     -21671.653      3304.4336     -18367.219      1.0522726    
    184000   300.24346     -383.09128      53756.08      -21716.188      3358.8176     -18357.371      1.061228     
    185000   301.41435     -497.54273      53918.651     -21715.25       3371.9163     -18343.333      1.0580283    
    186000   299.46904      526.17634      53453.659     -21670.965      3350.1542     -18320.811      1.067232     
    187000   303.0172      -305.50313      53906.624     -21538.03       3389.8474     -18148.182      1.0582643    
    188000   304.03945     -15.204767      54076.573     -21683.418      3401.2832     -18282.135      1.0549385    
    189000   302.4994       250.69729      53487.516     -21858.196      3384.0548     -18474.141      1.0665565    
    190000   298.85481     -459.29824      54194.619     -21659.475      3343.2828     -18316.192      1.0526406    
    191000   303.3298      -109.50303      53689.04      -21663.798      3393.3444     -18270.453      1.0625531    
    192000   291.97455      684.74374      53816.147     -21741.439      3266.3135     -18475.125      1.0600435    
    193000   300.02404     -150.22098      54119.121     -21735.59       3356.363      -18379.227      1.0541091    
    194000   293.44316      304.80993      53530.984     -21685.244      3282.7428     -18402.501      1.0656904    
    195000   300.71555      381.16477      53744.474     -21766.866      3364.0988     -18402.767      1.0614572    
    196000   297.1492      -574.89192      53974.313     -21678.801      3324.2022     -18354.599      1.0569372    
    197000   296.58276      136.10389      53612.492     -21808.166      3317.8654     -18490.3        1.0640702    
    198000   296.29628      249.78941      54093.505     -21728.748      3314.6606     -18414.088      1.0546083    
    199000   299.72396      507.44124      54349.414     -21660.613      3353.006      -18307.607      1.0496426    
    200000   302.4537       204.49398      54112.213     -21747.274      3383.5435     -18363.731      1.0542437    
    201000   301.70219      62.247003      53661.988     -21818.374      3375.1364     -18443.238      1.0630888    
    202000   303.7946      -322.52801      54050.992     -21701.179      3398.5442     -18302.635      1.0554378    
    203000   299.17545      659.69317      54143.329     -21802.499      3346.8698     -18455.629      1.0536378    
    204000   298.54147      441.78994      53082.476     -21717.06       3339.7775     -18377.283      1.0746947    
    205000   300.10265     -262.02617      53326.773     -21864.007      3357.2424     -18506.764      1.0697714    
    206000   298.45302      130.05033      53844.525     -21667.123      3338.788      -18328.335      1.0594848    
    207000   306.26261      147.18635      53809.177     -21757.835      3426.1537     -18331.682      1.0601808    
    208000   299.9081       136.12246      53554.496     -21722.589      3355.066      -18367.523      1.0652226    
    209000   298.55996      251.54008      53857.181     -21700.991      3339.9844     -18361.007      1.0592359    
    210000   303.58088     -230.03705      53417.124     -21778.102      3396.1532     -18381.949      1.067962     
    211000   303.32557      481.5869       53366.311     -21735.18       3393.2971     -18341.883      1.0689789    
    212000   304.20045     -21.785228      54088.432     -21632.416      3403.0844     -18229.332      1.0547072    
    213000   307.46972      565.32424      53698.292     -21764.446      3439.6576     -18324.788      1.06237      
    214000   298.10173      346.78493      53650.032     -21501.727      3334.8581     -18166.869      1.0633257    
    215000   300.96054      508.47705      53845.265     -21667.503      3366.8396     -18300.664      1.0594703    
    216000   304.54189     -629.60509      54168.546     -21652.814      3406.9041     -18245.909      1.0531473    
    217000   305.54116      117.47557      53537.418     -21657.771      3418.0829     -18239.688      1.0655624    
    218000   292.97576     -577.03596      53798.99      -21768.322      3277.514      -18490.808      1.0603816    
    219000   296.32968      43.547772      53978.284     -21620.53       3315.0342     -18305.495      1.0568594    
    220000   297.60613      391.6359       53864.633     -21749.145      3329.3139     -18419.831      1.0590893    
    221000   299.01954     -196.98682      54014.624     -21833.567      3345.1257     -18488.441      1.0561484    
    222000   298.51037      237.14313      54292.369     -21640.075      3339.4296     -18300.645      1.0507454    
    223000   299.04763      154.10311      53774.685     -21758.179      3345.4399     -18412.739      1.0608608    
    224000   297.52532      21.777957      53875.045     -21588.404      3328.4098     -18259.994      1.0588846    
    225000   300.04136      0.60237546     53786.641     -21598.749      3356.5568     -18242.192      1.060625     
    226000   301.8919       840.50677      53601.729     -21538.935      3377.2587     -18161.677      1.0642839    
    227000   299.67657      128.75387      53803.868     -21732.203      3352.4758     -18379.727      1.0602854    
    228000   295.44266      176.15535      54084.693     -21650.592      3305.1111     -18345.481      1.0547801    
    229000   306.64071     -391.2614       53779.345     -21692.787      3430.3836     -18262.404      1.0607689    
    230000   305.53504     -629.34522      53620.193     -21726.032      3418.0144     -18308.017      1.0639174    
    231000   302.00601      258.7041       54164.127     -21739.337      3378.5353     -18360.801      1.0532332    
    232000   298.77889     -238.7001       54257.704     -21694.851      3342.4335     -18352.418      1.0514167    
    233000   302.35973      1255.7343      53269.539     -21723.576      3382.4923     -18341.084      1.0709208    
    234000   300.01512     -29.335291      53313.019     -21764.875      3356.2631     -18408.612      1.0700474    
    235000   298.83567      812.69221      53762.409     -21583.086      3343.0687     -18240.017      1.0611031    
    236000   300.58773     -540.08013      54040.205     -21714.85       3362.669      -18352.181      1.0556484    
    237000   310.61017     -655.43647      54184.981     -21706.575      3474.7898     -18231.786      1.0528279    
    238000   301.48026      208.98327      53563.826     -21600.426      3372.6536     -18227.772      1.065037     
    239000   294.49403     -143.44251      53594.699     -21798.859      3294.4989     -18504.36       1.0644235    
    240000   298.64114     -937.18623      53998.578     -21759.505      3340.8925     -18418.613      1.0564622    
    241000   304.76787     -533.87972      54200.848     -21688.893      3409.4321     -18279.461      1.0525196    
    242000   300.92962     -411.16311      54250.611     -21788.054      3366.4937     -18421.561      1.0515542    
    243000   303.15961      566.25722      53747.465     -21738.63       3391.4405     -18347.19       1.0613981    
    244000   306.49442      41.474537      53537.046     -21693.603      3428.7469     -18264.856      1.0655698    
    245000   301.78458      35.758846      53848.92      -21603.831      3376.0581     -18227.773      1.0593984    
    246000   294.25974      1024.7825      53540.243     -21625.193      3291.8779     -18333.315      1.0655061    
    247000   309.14509     -178.44785      54053.706     -21711.324      3458.4        -18252.924      1.0553848    
    248000   292.09498     -661.47758      54121.496     -21797.674      3267.6608     -18530.014      1.0540628    
    249000   291.8903       558.75797      53697.06      -21608.417      3265.3709     -18343.046      1.0623944    
    250000   296.55404     -186.73944      54242.611     -21600.342      3317.5442     -18282.797      1.0517093    
    251000   297.45879      216.59995      53893.964     -21782.072      3327.6655     -18454.406      1.0585129    
    252000   298.17449     -451.38894      53747.802     -21679.995      3335.6721     -18344.323      1.0613914    
    253000   307.1765      -84.672991      54134.488     -21756.774      3436.3774     -18320.397      1.0538099    
    254000   297.63319      519.42201      53838.692     -21695.01       3329.6166     -18365.393      1.0595996    
    255000   298.72727      873.84795      53384.144     -21779.94       3341.8561     -18438.084      1.0686218    
    256000   297.06472     -117.37914      54234.97      -21618.971      3323.2571     -18295.714      1.0518575    
    257000   304.34502     -270.91044      53910.852     -21627.45       3404.7017     -18222.748      1.0581813    
    258000   300.00921      364.40957      53367.673     -21693.612      3356.1971     -18337.415      1.0689516    
    259000   295.87417      222.88583      53235.833     -21742.824      3309.9385     -18432.886      1.0715989    
    260000   298.7024      -408.22736      53933.316     -21717.647      3341.5779     -18376.069      1.0577406    
    261000   294.78861     -868.98672      53769.864     -21688.299      3297.7943     -18390.505      1.060956     
    262000   297.64711      89.480416      53453.949     -21718.548      3329.7723     -18388.775      1.0672263    
    263000   296.69989     -24.013928      53899.761     -21712.568      3319.1758     -18393.392      1.0583991    
    264000   304.3881      -31.207368      54014.971     -21660.046      3405.1836     -18254.862      1.0561416    
    265000   297.09785     -38.409707      54251.945     -21680.628      3323.6277     -18357          1.0515283    
    266000   295.25473      374.77065      53761.512     -21699.807      3303.0088     -18396.798      1.0611208    
    267000   295.96618     -5.4261771      53701.481     -21648.628      3310.9677     -18337.66       1.062307     
    268000   293.31613     -219.62743      54604.213     -21694.149      3281.3218     -18412.828      1.0447446    
    269000   303.0513       335.96658      54364.519     -21707.57       3390.2289     -18317.341      1.0493509    
    270000   303.62292      600.05395      53535.1       -21670.705      3396.6236     -18274.081      1.0656085    
    271000   307.61147     -141.15419      53610.521     -21733.348      3441.2434     -18292.105      1.0641094    
    272000   296.75741     -220.58727      53819.674     -21769.009      3319.8192     -18449.19       1.059974     
    273000   299.73682     -722.61912      53545.786     -21684.745      3353.1498     -18331.595      1.0653958    
    274000   300.71163     -322.90383      53650.597     -21677.344      3364.055      -18313.289      1.0633145    
    275000   301.99634      23.991322      53928.316     -21666.257      3378.4271     -18287.83       1.0578387    
    276000   292.65821      391.27065      53678.086     -21694.037      3273.9616     -18420.075      1.06277      
    277000   291.58018     -51.395253      53817.77      -21594.187      3261.9017     -18332.285      1.0600115    
    278000   297.41953     -127.38849      54023.39      -21710.014      3327.2263     -18382.787      1.055977     
    279000   302.45269     -133.67882      54133.651     -21737.356      3383.5322     -18353.824      1.0538262    
    280000   301.13625      328.52478      54227.683     -21631.941      3368.8052     -18263.136      1.0519988    
    281000   301.19187     -22.63892       53896.225     -21850.203      3369.4274     -18480.776      1.0584685    
    282000   298.1846      -12.098098      53980.649     -21728.295      3335.7852     -18392.51       1.0568131    
    283000   300.44327     -490.7941       54015.159     -21662.905      3361.0529     -18301.852      1.0561379    
    284000   298.19162     -766.18693      53391.231     -21788.815      3335.8637     -18452.951      1.0684799    
    285000   301.68186     -316.68003      53714.338     -21780.337      3374.9089     -18405.428      1.0620527    
    286000   302.01511     -1051.2365      53902.257     -21662.09       3378.637      -18283.453      1.0583501    
    287000   300.98567     -71.957937      53467.201     -21625.129      3367.1208     -18258.009      1.0669617    
    288000   301.31496      151.27206      53885.417     -21702.149      3370.8045     -18331.344      1.0586808    
    289000   297.93581      525.0547       53963.994     -21673.141      3333.0019     -18340.139      1.0571393    
    290000   297.56724      25.813839      54140.312     -21647.631      3328.8788     -18318.752      1.0536965    
    291000   300.08118      233.22758      53744.553     -21837.418      3357.0021     -18480.416      1.0614556    
    292000   305.0984      -997.64632      54038.366     -21735.88       3413.1298     -18322.75       1.0556844    
    293000   310.1819       338.20778      53707.828     -21709.387      3469.9988     -18239.389      1.0621814    
    294000   311.41947     -320.51275      53835.18      -21666.861      3483.8434     -18183.018      1.0596687    
    295000   304.14169      329.85335      53581.071     -21709.621      3402.4271     -18307.193      1.0646942    
    296000   299.03432     -653.43765      53677.619     -21826.745      3345.2909     -18481.454      1.0627792    
    297000   301.65437     -411.02179      54190.564     -21601.901      3374.6014     -18227.3        1.0527194    
    298000   294.69448      431.86954      53471.182     -21656.478      3296.7413     -18359.736      1.0668823    
    299000   298.15778     -144.47893      53405.232     -21744.081      3335.4851     -18408.595      1.0681998    
    300000   301.949       -314.89596      53991.344     -21635.144      3377.8974     -18257.247      1.0566038    
    300010   301.30881      453.74854      53996.398     -21608.931      3370.7356     -18238.195      1.0565049    
Loop time of 8687.3 on 5 procs for 200000 steps with 5541 atoms

Performance: 3.978 ns/day, 6.033 hours/ns, 23.022 timesteps/s, 127.566 katom-step/s
338.9% CPU use with 1 MPI tasks x 5 OpenMP threads

MPI task timing breakdown:
Section |  min time  |  avg time  |  max time  |%varavg| %total
---------------------------------------------------------------
Pair    | 338.97     | 338.97     | 338.97     |   0.0 |  3.90
Bond    | 3.7872     | 3.7872     | 3.7872     |   0.0 |  0.04
Kspace  | 4451.7     | 4451.7     | 4451.7     |   0.0 | 51.24
Neigh   | 0.53931    | 0.53931    | 0.53931    |   0.0 |  0.01
Comm    | 107.9      | 107.9      | 107.9      |   0.0 |  1.24
Output  | 0.91399    | 0.91399    | 0.91399    |   0.0 |  0.01
Modify  | 3745       | 3745       | 3745       |   0.0 | 43.11
Other   |            | 38.55      |            |       |  0.44

Nlocal:           5541 ave        5541 max        5541 min
Histogram: 1 0 0 0 0 0 0 0 0 0
Nghost:          35701 ave       35701 max       35701 min
Histogram: 1 0 0 0 0 0 0 0 0 0
Neighs:              0 ave           0 max           0 min
Histogram: 1 0 0 0 0 0 0 0 0 0

Total # of neighbors = 0
Ave neighs/atom = 0
Ave special neighs/atom = 2.4872767
Neighbor list builds = 18504
Dangerous builds = 0

unfix mynpt_gentle

variable phase1_dens equal density
variable phase1_press equal press
print ""

print "Phase 1 complete:"
Phase 1 complete:
print "  Density:  ${phase1_dens} g/cmÂ³"
  Density:  1.05650487793723 g/cm³
print "  Pressure: ${phase1_press} atm"
  Pressure: 453.748541988903 atm
print ""


# Phase 2: Standard NPT damping (600 ps)
print "Phase 2: Final equilibration (600 ps, pdamp=2000)..."
Phase 2: Final equilibration (600 ps, pdamp=2000)...
# ğŸ”§ CRITICAL: Using npt/gpu instead of npt for FULL GPU acceleration
fix mynpt_standard all npt/gpu temp 300.0 300.0 100.0 iso 1.0 1.0 2000.0

run 300000  # 600 ps at 2 fs timestep
PPPM initialization ...
  extracting TIP4P info from pair style
  using 12-bit tables for long-range coulomb
  G vector (1/distance) = 0.28841479
  grid = 50 50 50
  stencil order = 5
  estimated absolute RMS force accuracy = 0.00032816369
  estimated relative force accuracy = 9.8825522e-07
  using double precision FFTW3
  3d grid and FFT values/proc = 205379 125000
Generated 0 of 3 mixed pair_coeff terms from geometric mixing rule
Per MPI rank memory allocation (min/avg/max) = 54.69 | 54.69 | 54.69 Mbytes
   Step          Temp          Press          Volume         PotEng         KinEng         TotEng        Density    
    300010   301.30881      459.39563      53996.398     -21608.895      3370.7356     -18238.159      1.0565049    
    301000   306.0296       632.11746      53931.488     -21621.107      3423.5471     -18197.56       1.0577764    
    302000   299.80897      61.744764      53218.762     -21707.177      3353.9569     -18353.22       1.0719426    
    303000   297.85694     -24.597501      53905.217     -21730.381      3332.1196     -18398.261      1.058292     
    304000   292.51547     -401.04393      53861.01      -21715.029      3272.3647     -18442.664      1.0591606    
    305000   300.06284     -103.42914      53679.594     -21678.152      3356.797      -18321.355      1.0627401    
    306000   296.99777     -468.8125       53584.273     -21705.433      3322.5081     -18382.924      1.0646306    
    307000   292.32304     -127.96799      53920.862     -21791.65       3270.212      -18521.438      1.0579849    
    308000   296.00624      626.42135      53288.251     -21711.513      3311.4159     -18400.097      1.0705448    
    309000   301.8765       419.63274      54289.576     -21701.109      3377.0865     -18324.022      1.0507995    
    310000   301.36759      101.14371      53861.877     -21722.081      3371.3933     -18350.687      1.0591435    
    311000   305.12553      54.911702      53539.514     -21652.925      3413.4332     -18239.492      1.0655206    
    312000   297.8531      -211.83218      53810.185     -21697.409      3332.0767     -18365.332      1.060161     
    313000   301.99711      226.50417      54021.695     -21639.628      3378.4356     -18261.192      1.0560101    
    314000   298.16233     -298.43361      53688.294     -21635.82       3335.5361     -18300.284      1.0625679    
    315000   296.75652     -647.0807       54030.148     -21601.714      3319.8093     -18281.905      1.0558449    
    316000   299.17651      117.71559      54429.956     -21635.572      3346.8817     -18288.691      1.0480893    
    317000   295.79224      347.79905      53800.18      -21859.995      3309.0219     -18550.973      1.0603581    
    318000   289.35824     -738.04752      53599.363     -21720.824      3237.0448     -18483.779      1.0643309    
    319000   304.25223      189.95143      53458.666     -21676.543      3403.6637     -18272.88       1.0671321    
    320000   301.14695      280.33048      53519.854     -21828.73       3368.9249     -18459.805      1.065912     
    321000   303.82552     -137.60152      54079.804     -21635.628      3398.8901     -18236.738      1.0548755    
    322000   308.49816     -76.69959       54572.606     -21664.43       3451.1627     -18213.268      1.0453497    
    323000   296.13216      594.84029      53676.946     -21753.988      3312.8246     -18441.163      1.0627925    
    324000   302.64392     -83.074046      52964.92      -21717.444      3385.6715     -18331.773      1.07708      
    325000   296.25325     -729.06764      54009.398     -21626.366      3314.1792     -18312.187      1.0562506    
    326000   302.96282      232.79577      53704.705     -21662.979      3389.239      -18273.74       1.0622432    
    327000   302.76255      186.92079      53412.684     -21847.023      3386.9986     -18460.024      1.0680507    
    328000   300.57459      580.98805      53847.462     -21799.939      3362.5219     -18437.417      1.059427     
    329000   294.6943      -304.15102      53698.386     -21688.426      3296.7393     -18391.686      1.0623682    
    330000   296.3686      -602.32404      54182.083     -21641.263      3315.4696     -18325.793      1.0528842    
    331000   298.86875     -48.096166      53319.241     -21631.146      3343.4387     -18287.707      1.0699225    
    332000   299.45582      424.08049      53912.354     -21574.214      3350.0064     -18224.207      1.0581519    
    333000   306.36377      49.208832      53737.51      -21677.372      3427.2854     -18250.087      1.0615947    
    334000   306.15383      465.64838      53752.738     -21627.944      3424.9368     -18203.007      1.061294     
    335000   300.94924      1347.3274      53572.404     -21609.26       3366.7132     -18242.547      1.0648665    
    336000   304.62994     -149.75662      53549.971     -21675.495      3407.8891     -18267.606      1.0653126    
    337000   303.32883     -644.62755      54075.319     -21733.207      3393.3336     -18339.874      1.054963     
    338000   299.83618      425.95416      53735.219     -21725.512      3354.2613     -18371.251      1.06164      
    339000   305.58456      266.02596      53718.983     -21622.898      3418.5684     -18204.33       1.0619609    
    340000   301.10487      175.62864      53413.776     -21719.905      3368.4542     -18351.451      1.0680289    
    341000   294.48959      188.42574      53782.48      -21619.18       3294.4492     -18324.73       1.0607071    
    342000   301.20999     -562.61293      54083.468     -21649.688      3369.6302     -18280.058      1.054804     
    343000   304.58464     -196.40473      53775.511     -21614.855      3407.3823     -18207.473      1.0608446    
    344000   298.75896      608.59496      53814.246     -21628.163      3342.2106     -18285.952      1.060081     
    345000   304.5678       134.43327      53468.242     -21688.974      3407.1939     -18281.78       1.066941     
    346000   301.63401      904.31488      53907.104     -21651.274      3374.3737     -18276.9        1.0582549    
    347000   307.24972     -113.05305      54074.326     -21684.744      3437.1965     -18247.548      1.0549823    
    348000   305.3593       358.91247      53601.473     -21690.072      3416.0484     -18274.023      1.064289     
    349000   300.83016      17.747631      53469.025     -21636.125      3365.381      -18270.744      1.0669253    
    350000   304.53706     -154.97979      53422.219     -21798.213      3406.85       -18391.363      1.0678601    
    351000   304.96979      570.56585      53492.67      -21699.508      3411.691      -18287.817      1.0664537    
    352000   299.85513      257.37602      53517.2       -21702.363      3354.4733     -18347.89       1.0659649    
    353000   301.1973       775.86704      53710.429     -21692.545      3369.4882     -18323.057      1.06213      
    354000   313.53671      417.69695      53494.792     -21720.757      3507.5289     -18213.228      1.0664114    
    355000   303.65428      535.02506      53515.497     -21716.839      3396.9744     -18319.864      1.0659988    
    356000   295.8517       170.0446       53683.869     -21848.37       3309.687      -18538.683      1.0626555    
    357000   296.67482      736.23687      53887.312     -21642.907      3318.8953     -18324.012      1.0586436    
    358000   299.33802     -581.49162      53691.102     -21701.439      3348.6885     -18352.75       1.0625123    
    359000   299.27548      203.7644       54036.055     -21711.607      3347.9888     -18363.619      1.0557295    
    360000   300.82776     -376.88536      54048.806     -21649.617      3365.3542     -18284.263      1.0554804    
    361000   303.59226      42.567601      53951.449     -21585.805      3396.2806     -18189.524      1.0573851    
    362000   304.88892     -209.02906      53998.728     -21726.896      3410.7863     -18316.11       1.0564593    
    363000   302.92942     -13.265799      53714.811     -21758.932      3388.8654     -18370.066      1.0620433    
    364000   297.08306      367.00436      53776.145     -21674.85       3323.4623     -18351.388      1.060832     
    365000   296.49551     -645.48558      53830.138     -21696.487      3316.8894     -18379.597      1.059768     
    366000   302.51128      227.83395      54097.931     -21481.12       3384.1877     -18096.932      1.054522     
    367000   306.45828     -699.01646      53776.976     -21723.247      3428.3427     -18294.904      1.0608157    
    368000   298.24134     -672.53935      53682.693     -21653.664      3336.42       -18317.244      1.0626788    
    369000   306.64749     -148.63786      53793.777     -21696.083      3430.4594     -18265.624      1.0604843    
    370000   298.96039      29.173734      53243.988     -21770.183      3344.464      -18425.719      1.0714347    
    371000   295.15369      522.5765       53457.957     -21682.062      3301.8785     -18380.184      1.0671462    
    372000   299.85094     -958.99905      54163.842     -21860.135      3354.4265     -18505.709      1.0532388    
    373000   305.88574      12.343128      53992.276     -21658.245      3421.9377     -18236.307      1.0565855    
    374000   288.50975     -781.11939      54217.762     -21684.288      3227.5528     -18456.735      1.0521913    
    375000   294.31594     -433.68487      54033.922     -21594.339      3292.5066     -18301.833      1.0557712    
    376000   294.57171     -100.78773      53717.895     -21662.82       3295.3678     -18367.452      1.0619824    
    377000   304.05815     -238.64554      54446.922     -21680.637      3401.4924     -18279.145      1.0477628    
    378000   300.74856      450.73872      54090.196     -21440.384      3364.4681     -18075.916      1.0546728    
    379000   303.15191     -485.55446      53422.97      -21602.236      3391.3544     -18210.881      1.0678451    
    380000   305.12213     -157.22061      53008.564     -21654.547      3413.3952     -18241.152      1.0761932    
    381000   294.68249     -318.18475      53623.423     -21686.373      3296.6071     -18389.766      1.0638533    
    382000   298.08823      257.63917      53950.607     -21700.419      3334.7072     -18365.712      1.0574016    
    383000   299.59024     -630.34342      54260.52      -21575.473      3351.5101     -18223.963      1.0513622    
    384000   299.13567     -154.3069       53764.503     -21762.653      3346.4248     -18416.228      1.0610617    
    385000   303.49072      1213.3535      53992.663     -21780.051      3395.1446     -18384.906      1.056578     
    386000   301.94969     -157.89479      53640.269     -21775.01       3377.9051     -18397.105      1.0635192    
    387000   294.8607      -302.47876      53682.578     -21566.993      3298.6008     -18268.393      1.062681     
    388000   306.90812      437.86476      53491.904     -21658.406      3433.3751     -18225.031      1.066469     
    389000   293.28171     -443.61355      53584.264     -21702.68       3280.9367     -18421.744      1.0646308    
    390000   298.05546      212.72127      53713.889     -21652.204      3334.3405     -18317.864      1.0620616    
    391000   302.44435      217.67885      53310.544     -21686.124      3383.4389     -18302.685      1.0700971    
    392000   298.34506     -335.38141      53781.41      -21671.368      3337.5803     -18333.787      1.0607282    
    393000   297.7069       930.00666      53546.142     -21800.143      3330.4412     -18469.702      1.0653888    
    394000   294.84619     -132.39878      53471.464     -21652.283      3298.4384     -18353.844      1.0668767    
    395000   297.24514     -740.23885      53996.788     -21674.697      3325.2754     -18349.422      1.0564972    
    396000   297.74376      156.89312      53788.274     -21742.874      3330.8535     -18412.021      1.0605928    
    397000   296.3386      -185.37595      53893.037     -21521.076      3315.134      -18205.942      1.0585311    
    398000   302.71011     -1155.4641      53965.113     -21512.822      3386.412      -18126.41       1.0571173    
    399000   302.18843     -309.06833      54130.989     -21672.819      3380.576      -18292.243      1.053878     
    400000   299.32948     -156.52476      54433.277     -21667.28       3348.593      -18318.687      1.0480254    
    401000   292.68473      345.87347      53924.729     -21636.928      3274.2582     -18362.669      1.057909     
    402000   300.20777      192.08102      53945.319     -21647.691      3358.4184     -18289.273      1.0575052    
    403000   296.2984      -668.95697      53822.195     -21639.467      3314.6843     -18324.782      1.0599244    
    404000   306.60041     -191.1481       53894.819     -21600.269      3429.9327     -18170.336      1.0584961    
    405000   301.80964     -188.27877      54381.777     -21675.123      3376.3384     -18298.785      1.0490179    
    406000   295.13615     -505.54807      54593.878     -21634.148      3301.6823     -18332.466      1.0449424    
    407000   301.09091      81.050411      54159.408     -21803.088      3368.298      -18434.79       1.053325     
    408000   302.5517       86.924795      54444.37      -21679.389      3384.6399     -18294.749      1.0478119    
    409000   300.66061     -982.12559      53895.144     -21703.38       3363.4842     -18339.896      1.0584898    
    410000   298.79447      236.67083      53687.511     -21704.439      3342.6077     -18361.832      1.0625834    
    411000   298.9821       294.6692       53947.677     -21723.86       3344.7068     -18379.153      1.057459     
    412000   300.43846      794.79083      53857.846     -21850.492      3360.9991     -18489.493      1.0592228    
    413000   303.85171     -40.237563      53661.968     -21762.682      3399.1831     -18363.499      1.0630892    
    414000   299.67139      222.94341      53655.91      -21734.874      3352.4179     -18382.456      1.0632092    
    415000   291.30799      850.30679      53398.803     -21706.72       3258.8567     -18447.863      1.0683284    
    416000   299.463        754.97024      53690.478     -21747.95       3350.0866     -18397.863      1.0625247    
    417000   299.20033     -601.04223      53873.328     -21752.558      3347.1482     -18405.41       1.0589184    
    418000   298.66799     -756.69168      54272.882     -21637.751      3341.1929     -18296.558      1.0511227    
    419000   300.11677      339.03818      53538.89      -21666.861      3357.4004     -18309.46       1.0655331    
    420000   304.32526     -533.63139      53988.013     -21653.245      3404.4806     -18248.765      1.056669     
    421000   304.3864       400.01218      53997.542     -21759.606      3405.1646     -18354.441      1.0564825    
    422000   309.95517      647.18265      53762.567     -21583.185      3467.4624     -18115.723      1.0611       
    423000   298.39477      542.7645       53464.789     -21824.292      3338.1364     -18486.155      1.0670099    
    424000   296.76299     -304.34188      53569.612     -21721.429      3319.8816     -18401.547      1.064922     
    425000   300.77966     -829.9294       53852.012     -21700.754      3364.8161     -18335.938      1.0593375    
    426000   302.69187     -389.2076       54056.355     -21570.241      3386.208      -18184.033      1.0553331    
    427000   304.0534      -395.93251      53620.622     -21619.055      3401.4393     -18217.615      1.0639089    
    428000   305.69262     -165.07319      54373.706     -21666.788      3419.7772     -18247.011      1.0491736    
    429000   304.82757     -149.50857      54184.842     -21633.467      3410.1        -18223.367      1.0528306    
    430000   294.83769     -51.979802      54245.559     -21683.722      3298.3434     -18385.378      1.0516521    
    431000   294.52978     -297.19467      53749.872     -21589.872      3294.8988     -18294.973      1.0613506    
    432000   307.73733      321.25566      53664.811     -21638.225      3442.6514     -18195.573      1.0630329    
    433000   298.58516     -493.87744      53858.516     -21688.495      3340.2662     -18348.228      1.0592096    
    434000   301.49819      395.0317       53644.464     -21761.342      3372.8542     -18388.487      1.0634361    
    435000   297.6073      -507.20619      54173.341     -21747.147      3329.327      -18417.82       1.0530541    
    436000   299.56692     -312.38147      54286.372     -21701.189      3351.2492     -18349.94       1.0508615    
    437000   298.86308      296.51475      54063.046     -21740.786      3343.3753     -18397.411      1.0552024    
    438000   302.43122     -331.36067      54275.762     -21649.561      3383.2921     -18266.269      1.0510669    
    439000   298.97729     -41.75188       53888.394     -21714.977      3344.653      -18370.324      1.0586223    
    440000   298.87042     -636.43318      53981.311     -21743.402      3343.4574     -18399.945      1.0568002    
    441000   298.1929       187.98928      53555.285     -21717.444      3335.878      -18381.566      1.0652069    
    442000   299.90284     -63.702373      53840.495     -21721.412      3355.0071     -18366.405      1.0595641    
    443000   298.72978      453.60074      53253.409     -21693.025      3341.8841     -18351.141      1.0712452    
    444000   299.19692     -323.61743      53971.721     -21639.918      3347.11       -18292.808      1.0569879    
    445000   300.22817      255.38875      54089.395     -21646.993      3358.6465     -18288.346      1.0546884    
    446000   299.77309     -5.5603905      53982.58      -21675.76       3353.5556     -18322.205      1.0567753    
    447000   296.23315      324.97361      54096.144     -21614.546      3313.9544     -18300.592      1.0545568    
    448000   301.28473      388.0238       53455.737     -21752.675      3370.4663     -18382.209      1.0671906    
    449000   300.5743       953.75179      53372.828     -21659.784      3362.5187     -18297.265      1.0688483    
    450000   302.3879       459.49991      53336.574     -21557.065      3382.8074     -18174.257      1.0695748    
    451000   303.57872     -439.10537      53894.32      -21664.096      3396.1291     -18267.967      1.0585059    
    452000   299.51212     -422.88439      53786.069     -21720.446      3350.6361     -18369.81       1.0606363    
    453000   303.50654     -627.30093      53338.63      -21657.055      3395.3216     -18261.733      1.0695336    
    454000   299.78218      333.73441      53965.247     -21596.896      3353.6573     -18243.238      1.0571147    
    455000   298.34596      614.90194      53626.5       -21626.934      3337.5903     -18289.344      1.0637923    
    456000   303.49514     -57.134196      53582.102     -21756.989      3395.1941     -18361.794      1.0646738    
    457000   299.89758      62.54117       53397.303     -21691.917      3354.9482     -18336.969      1.0683584    
    458000   294.65134     -835.50264      53876.693     -21710.824      3296.2587     -18414.566      1.0588523    
    459000   301.3682       221.1678       53520.451     -21632.628      3371.4001     -18261.228      1.0659002    
    460000   295.13582      621.10167      53051.543     -21819.885      3301.6785     -18518.206      1.0753214    
    461000   301.66383      224.02177      53694.31      -21763.598      3374.7073     -18388.89       1.0624489    
    462000   301.90521      207.28699      53568.315     -21713.017      3377.4076     -18335.609      1.0649478    
    463000   300.49837     -830.64652      53320.064     -21802.042      3361.6693     -18440.372      1.069906     
    464000   296.05422     -1038.9496      53849.175     -21736.909      3311.9527     -18424.956      1.0593933    
    465000   297.43379      598.80201      53681.657     -21692.038      3327.3859     -18364.652      1.0626993    
    466000   297.40893     -914.4          53511.712     -21714.885      3327.1078     -18387.777      1.0660742    
    467000   302.4314      -264.80851      53976.988     -21706.534      3383.294      -18323.24       1.0568848    
    468000   293.44259     -53.501743      53477.047     -21762.188      3282.7365     -18479.452      1.0667653    
    469000   305.69636      301.26333      54013.377     -21745.68       3419.8191     -18325.861      1.0561728    
    470000   297.64153     -574.33042      53576.568     -21650.857      3329.7099     -18321.147      1.0647837    
    471000   309.00606     -47.52409       54125.75      -21676.632      3456.8447     -18219.787      1.05398      
    472000   302.65511      248.0817       53400.873     -21739.26       3385.7967     -18353.463      1.068287     
    473000   304.22063     -421.56783      54121.282     -21745.271      3403.3101     -18341.961      1.054067     
    474000   293.70381     -93.615398      53808.252     -21680.218      3285.6587     -18394.559      1.0601991    
    475000   298.09032     -36.321002      54165.764     -21655.382      3334.7305     -18320.651      1.0532014    
    476000   296.62393     -411.13504      54039.273     -21706.55       3318.326      -18388.224      1.0556666    
    477000   298.62119     -315.18275      54101.855     -21637.612      3340.6693     -18296.943      1.0544455    
    478000   299.17544     -220.00077      53651.835     -21761.633      3346.8697     -18414.764      1.06329      
    479000   293.56913      48.822366      53912.159     -21649.993      3284.152      -18365.841      1.0581557    
    480000   292.05975      801.63983      54180.547     -21665.357      3267.2666     -18398.091      1.052914     
    481000   295.97324     -197.5773       53854.83      -21625.123      3311.0467     -18314.076      1.0592821    
    482000   297.39603      363.1422       54017.461     -21599.323      3326.9634     -18272.359      1.0560929    
    483000   295.89562      235.31594      53891.342     -21717.127      3310.1784     -18406.949      1.0585644    
    484000   297.00039     -1008.2374      54418.95      -21673.99       3322.5374     -18351.453      1.0483013    
    485000   300.49626     -118.0677       53483.118     -21787.258      3361.6457     -18425.613      1.0666442    
    486000   298.52514     -304.67662      54011.717     -21800.942      3339.5948     -18461.347      1.0562052    
    487000   301.69128     -201.02417      53914.493     -21630.367      3375.0143     -18255.353      1.0581099    
    488000   296.52484      656.55767      54118.038     -21588.249      3317.2175     -18271.032      1.0541302    
    489000   300.99409     -136.18792      54024.911     -21758.282      3367.2149     -18391.068      1.0559473    
    490000   299.05066      469.66037      53894.41      -21647.554      3345.4738     -18302.08       1.0585042    
    491000   294.41842     -266.64757      54153.044     -21794.505      3293.653      -18500.852      1.0534488    
    492000   299.66064      1618.587       53749.594     -21566.277      3352.2977     -18213.979      1.0613561    
    493000   293.61632      58.235635      53691.053     -21640.513      3284.6799     -18355.833      1.0625133    
    494000   304.44488     -247.62455      53388.226     -21571.971      3405.8188     -18166.152      1.0685401    
    495000   301.5499       849.26818      53560.659     -21661.627      3373.4327     -18288.194      1.0651       
    496000   300.77364      155.05967      53640.175     -21663.467      3364.7487     -18298.718      1.0635211    
    497000   299.37331      93.033851      53965.222     -21788.25       3349.0833     -18439.167      1.0571152    
    498000   298.68558     -814.21185      53753.935     -21690.354      3341.3896     -18348.964      1.0612704    
    499000   306.16161      210.57327      53362.244     -21827.154      3425.0239     -18402.13       1.0690603    
    500000   299.97391     -788.08386      53951.025     -21708.843      3355.8022     -18353.041      1.0573934    
    501000   293.60114     -305.28589      53538.151     -21697.063      3284.5101     -18412.553      1.0655478    
    502000   294.64852     -319.13546      53730.703     -21745.04       3296.2271     -18448.813      1.0617292    
    503000   301.41699      90.367121      53874.72      -21665.926      3371.9459     -18293.98       1.058891     
    504000   300.98039     -467.30189      53434.215     -21837.281      3367.0616     -18470.219      1.0676204    
    505000   304.4575      -222.6601       53319.261     -21740.348      3405.96       -18334.388      1.0699221    
    506000   298.12497      393.20965      53202.551     -21627.995      3335.1182     -18292.877      1.0722692    
    507000   306.04666     -920.48887      54349.3       -21672.564      3423.7379     -18248.826      1.0496447    
    508000   294.84068     -329.60665      53777.36      -21610.861      3298.3769     -18312.484      1.0608081    
    509000   304.14554     -234.22165      53456.377     -21709.482      3402.4701     -18307.012      1.0671778    
    510000   295.96042     -569.2507       53856.055     -21679.679      3310.9033     -18368.776      1.059258     
    511000   295.74453      201.60094      53757.829     -21827.442      3308.4882     -18518.954      1.0611935    
    512000   295.52068      544.90533      54158.276     -21636.265      3305.984      -18330.281      1.053347     
    513000   297.37055     -92.678157      53846.071     -21747.7        3326.6785     -18421.022      1.0594544    
    514000   294.73711      86.204713      54216.398     -21759.493      3297.2182     -18462.275      1.0522178    
    515000   299.9096      -156.73607      54052.525     -21785.517      3355.0828     -18430.435      1.0554078    
    516000   301.97252      968.66461      53066.632     -21650.128      3378.1606     -18271.968      1.0750156    
    517000   306.77328     -130.18987      53216.827     -21655.487      3431.8665     -18223.621      1.0719816    
    518000   312.19798      362.45375      54004.132     -21688.213      3492.5526     -18195.661      1.0563536    
    519000   302.81803      340.20129      53927.639     -21629.431      3387.6193     -18241.811      1.0578519    
    520000   302.33943      225.94852      53767.624     -21653.708      3382.2652     -18271.443      1.0610002    
    521000   305.62958     -370.03919      53886.137     -21728.886      3419.072      -18309.814      1.0586667    
    522000   302.31519     -222.28524      53934.537     -21787.849      3381.994      -18405.855      1.0577166    
    523000   306.57694     -282.77089      53464         -21651.4        3429.6701     -18221.73       1.0670256    
    524000   295.4428       67.218857      53614.75      -21635.761      3305.1127     -18330.648      1.0640254    
    525000   305.1693       323.05423      53476.653     -21651.684      3413.9229     -18237.761      1.0667732    
    526000   297.08643     -88.711074      54004.324     -21644.6        3323.5        -18321.1        1.0563498    
    527000   301.09822     -40.651607      54240.425     -21781.53       3368.3798     -18413.15       1.0517517    
    528000   302.97597     -867.44071      53885.82      -21722.249      3389.3861     -18332.863      1.0586729    
    529000   297.18311     -483.59149      53749.55      -21599.979      3324.5815     -18275.397      1.0613569    
    530000   300.48383     -149.2627       53359.502     -21591.688      3361.5066     -18230.181      1.0691153    
    531000   301.22259      282.82294      54140.378     -21735.42       3369.7711     -18365.649      1.0536952    
    532000   303.84216     -483.88411      53634.786     -21824.677      3399.0762     -18425.601      1.063628     
    533000   301.31432     -58.555955      53770.877     -21685.695      3370.7973     -18314.898      1.060936     
    534000   301.92186      588.11683      53856.217     -21739.493      3377.5939     -18361.899      1.0592548    
    535000   304.79433      760.89974      53655.463     -21761.208      3409.7282     -18351.48       1.0632181    
    536000   293.46015      9.5266543      53748.302     -21611.123      3282.9329     -18328.19       1.0613816    
    537000   297.86435      710.53043      53822.988     -21560.449      3332.2026     -18228.246      1.0599088    
    538000   301.02534     -308.98018      53877.192     -21669.407      3367.5645     -18301.843      1.0588425    
    539000   288.89526      550.45153      53152.006     -21791.33       3231.8655     -18559.464      1.0732889    
    540000   295.88927     -494.92821      53566.791     -21747.106      3310.1074     -18436.998      1.0649781    
    541000   300.83886     -119.16569      53669.316     -21713.582      3365.4783     -18348.104      1.0629436    
    542000   298.56262      771.59738      53260.032     -21574.803      3340.0141     -18234.789      1.071112     
    543000   299.82179      1482.3906      53320.486     -21650.392      3354.1004     -18296.292      1.0698976    
    544000   303.44402     -315.4414       54055.826     -21738.309      3394.6222     -18343.687      1.0553434    
    545000   291.18864      130.87897      53939.816     -21683.696      3257.5215     -18426.174      1.0576131    
    546000   297.56635      445.73759      53930.892     -21570.449      3328.8688     -18241.58       1.0577881    
    547000   298.2441      -239.42859      53984.322     -21704.76       3336.4508     -18368.309      1.0567412    
    548000   298.50316      572.06434      53884.216     -21633.005      3339.3489     -18293.656      1.0587044    
    549000   296.48109      531.85654      53582.765     -21681.383      3316.7281     -18364.655      1.0646606    
    550000   297.31052     -356.84741      53672.521     -21720.498      3326.0069     -18394.491      1.0628802    
    551000   305.13088      17.249032      53961.445     -21715.577      3413.4931     -18302.084      1.0571892    
    552000   303.93461     -309.4297       54277.302     -21727.265      3400.1104     -18327.155      1.0510371    
    553000   301.00348      474.35882      54158.584     -21692.143      3367.3199     -18324.823      1.053341     
    554000   296.18645     -92.166679      53909.577     -21756.119      3313.4319     -18442.687      1.0582064    
    555000   302.69373      492.20074      53595.556     -21697.777      3386.2288     -18311.548      1.0644065    
    556000   294.46704     -70.511062      53747.71      -21740.873      3294.1969     -18446.676      1.0613933    
    557000   298.46334     -562.67903      53880.661     -21642.514      3338.9034     -18303.611      1.0587743    
    558000   297.40912      91.885907      53865.293     -21479.663      3327.1099     -18152.553      1.0590763    
    559000   310.92514     -617.28228      53658.697     -21678.514      3478.3134     -18200.201      1.063154     
    560000   303.70668     -372.35147      53293.473     -21648.082      3397.5605     -18250.522      1.0704399    
    561000   293.73698      568.71302      52981.471     -21721.787      3286.0297     -18435.757      1.0767436    
    562000   304.74689     -742.75846      53617.543     -21683.695      3409.1974     -18274.498      1.06397      
    563000   303.69133     -37.53132       53784.494     -21712.676      3397.3889     -18315.287      1.0606674    
    564000   302.35323      956.25297      53680.968     -21648.424      3382.4195     -18266.004      1.0627129    
    565000   299.80626     -333.48579      53597.445     -21636.609      3353.9267     -18282.683      1.064369     
    566000   300.29335     -32.69051       53544.9       -21724.524      3359.3758     -18365.148      1.0654135    
    567000   300.30172     -54.942999      54129.935     -21821.89       3359.4693     -18462.42       1.0538985    
    568000   297.38548      439.14783      53643.204     -21694.163      3326.8455     -18367.318      1.063461     
    569000   299.08333      644.67469      53807.929     -21761.797      3345.8393     -18415.958      1.0602054    
    570000   306.20774      495.12093      53890.936     -21740.606      3425.5399     -18315.066      1.0585724    
    571000   296.55418     -319.25863      54153.267     -21777.97       3317.5458     -18460.424      1.0534444    
    572000   304.02914      99.010588      54205.368     -21714.365      3401.168      -18313.197      1.0524319    
    573000   298.67594     -260.16019      53649.574     -21765.577      3341.2818     -18424.295      1.0633348    
    574000   301.51063      1076.5178      53414.699     -21727.271      3372.9935     -18354.277      1.0680105    
    575000   296.97734     -594.88769      54018.886     -21713.609      3322.2796     -18391.33       1.0560651    
    576000   302.89542      393.40787      53846.455     -21712.47       3388.4851     -18323.984      1.0594469    
    577000   296.04569     -137.19734      54056.863     -21705.489      3311.8573     -18393.632      1.0553231    
    578000   300.54867      568.13699      53924.308     -21737.412      3362.232      -18375.18       1.0579173    
    579000   298.03898      88.630928      53270.317     -21796.052      3334.1562     -18461.896      1.0709052    
    580000   299.37321      476.38912      53741.989     -21656.217      3349.0822     -18307.135      1.0615063    
    581000   297.57303      103.45594      53891.406     -21706.119      3328.9435     -18377.175      1.0585632    
    582000   303.9461      -24.219547      54029.048     -21612.307      3400.239      -18212.068      1.0558664    
    583000   303.23487     -53.272095      53671.7       -21603.056      3392.2825     -18210.773      1.0628964    
    584000   300.70807     -361.05892      53207.937     -21588.128      3364.0152     -18224.113      1.0721607    
    585000   302.19644     -521.03388      53490.785     -21547.982      3380.6656     -18167.317      1.0664913    
    586000   300.6617      -79.980443      53372.973     -21677.196      3363.4964     -18313.7        1.0688454    
    587000   300.8795       4.307952       53036.661     -21708.233      3365.933      -18342.3        1.0756231    
    588000   301.34762      1119.8323      53559.083     -21613.296      3371.1699     -18242.127      1.0651313    
    589000   301.76605     -741.64099      53870.666     -21628.376      3375.8509     -18252.525      1.0589707    
    590000   299.40783      405.85556      53653.776     -21581.129      3349.4695     -18231.66       1.0632515    
    591000   295.81774     -503.36903      53917.823     -21651.276      3309.3071     -18341.969      1.0580445    
    592000   293.82858     -750.07265      53641.872     -21510.576      3287.0545     -18223.522      1.0634875    
    593000   305.22289      1204.2884      53900.393     -21602.928      3414.5224     -18188.406      1.0583867    
    594000   302.29023     -325.86944      53334.679     -21630.396      3381.7148     -18248.681      1.0696128    
    595000   299.00316      179.09791      53045.529     -21767.361      3344.9424     -18422.418      1.0754433    
    596000   297.47278     -256.03564      54192.13      -21835.401      3327.822      -18507.579      1.052689     
    597000   302.54715      230.29891      54331.48      -21665.243      3384.5889     -18280.654      1.049989     
    598000   303.06704     -87.118906      53876.871     -21807.463      3390.4049     -18417.058      1.0588488    
    599000   303.88615      644.36631      54042.915     -21735.446      3399.5683     -18335.878      1.0555955    
    600000   300.93942      420.22279      53736.645     -21544.137      3366.6033     -18177.534      1.0616118    
    600010   299.29834      374.86816      53741.478     -21542.973      3348.2445     -18194.728      1.0615164    
Loop time of 13049.8 on 5 procs for 300000 steps with 5541 atoms

Performance: 3.972 ns/day, 6.042 hours/ns, 22.989 timesteps/s, 127.381 katom-step/s
339.6% CPU use with 1 MPI tasks x 5 OpenMP threads

MPI task timing breakdown:
Section |  min time  |  avg time  |  max time  |%varavg| %total
---------------------------------------------------------------
Pair    | 514.52     | 514.52     | 514.52     |   0.0 |  3.94
Bond    | 4.9562     | 4.9562     | 4.9562     |   0.0 |  0.04
Kspace  | 6723.4     | 6723.4     | 6723.4     |   0.0 | 51.52
Neigh   | 0.8184     | 0.8184     | 0.8184     |   0.0 |  0.01
Comm    | 162.29     | 162.29     | 162.29     |   0.0 |  1.24
Output  | 1.3991     | 1.3991     | 1.3991     |   0.0 |  0.01
Modify  | 5584.5     | 5584.5     | 5584.5     |   0.0 | 42.79
Other   |            | 57.86      |            |       |  0.44

Nlocal:           5541 ave        5541 max        5541 min
Histogram: 1 0 0 0 0 0 0 0 0 0
Nghost:          35765 ave       35765 max       35765 min
Histogram: 1 0 0 0 0 0 0 0 0 0
Neighs:              0 ave           0 max           0 min
Histogram: 1 0 0 0 0 0 0 0 0 0

Total # of neighbors = 0
Ave neighs/atom = 0
Ave special neighs/atom = 2.4872767
Neighbor list builds = 27836
Dangerous builds = 0

undump npt_traj
undump npt_dcd
unfix mynpt_standard
unfix thermo_avg_npt

write_restart npt_complete.restart
System init for write_restart ...
PPPM initialization ...
  extracting TIP4P info from pair style
  using 12-bit tables for long-range coulomb
  G vector (1/distance) = 0.28849815
  grid = 50 50 50
  stencil order = 5
  estimated absolute RMS force accuracy = 0.00032668992
  estimated relative force accuracy = 9.8381698e-07
  using double precision FFTW3
  3d grid and FFT values/proc = 205379 125000
Generated 0 of 3 mixed pair_coeff terms from geometric mixing rule
write_data npt_complete.data
System init for write_data ...
PPPM initialization ...
  extracting TIP4P info from pair style
  using 12-bit tables for long-range coulomb
  G vector (1/distance) = 0.28849815
  grid = 50 50 50
  stencil order = 5
  estimated absolute RMS force accuracy = 0.00032668992
  estimated relative force accuracy = 9.8381698e-07
  using double precision FFTW3
  3d grid and FFT values/proc = 205379 125000
Generated 0 of 3 mixed pair_coeff terms from geometric mixing rule
WARNING: Not all mixed pair coeffs generated from mixing. Use write_data with 'pair ij' option to store all pair coeffs. (src/write_data.cpp:364)

# CRITICAL: Save NPT checkpoint for production restart capability
write_restart npt_equilibration_complete.restart
System init for write_restart ...
PPPM initialization ...
  extracting TIP4P info from pair style
  using 12-bit tables for long-range coulomb
  G vector (1/distance) = 0.28849815
  grid = 50 50 50
  stencil order = 5
  estimated absolute RMS force accuracy = 0.00032668992
  estimated relative force accuracy = 9.8381698e-07
  using double precision FFTW3
  3d grid and FFT values/proc = 205379 125000
Generated 0 of 3 mixed pair_coeff terms from geometric mixing rule
write_data npt_equilibration_complete.data
System init for write_data ...
PPPM initialization ...
  extracting TIP4P info from pair style
  using 12-bit tables for long-range coulomb
  G vector (1/distance) = 0.28849815
  grid = 50 50 50
  stencil order = 5
  estimated absolute RMS force accuracy = 0.00032668992
  estimated relative force accuracy = 9.8381698e-07
  using double precision FFTW3
  3d grid and FFT values/proc = 205379 125000
Generated 0 of 3 mixed pair_coeff terms from geometric mixing rule
WARNING: Not all mixed pair coeffs generated from mixing. Use write_data with 'pair ij' option to store all pair coeffs. (src/write_data.cpp:364)

variable current_dens equal density
variable current_vol equal vol
variable current_press equal press
variable current_temp equal temp
print ""

print "NPT equilibration complete (1000 ps total):"
NPT equilibration complete (1000 ps total):
print "  Temperature: ${current_temp} K"
  Temperature: 299.298336147455 K
print "  Density:     ${current_dens} g/cmÂ³"
  Density:     1.06151635659859 g/cm³
print "  Pressure:    ${current_press} atm"
  Pressure:    374.86816317346 atm
print "  Volume:      ${current_vol} Ã…Â³"
  Volume:      53741.4777092969 …³
print ""

print "âœ… CHECKPOINT: NPT equilibration complete"
œ… CHECKPOINT: NPT equilibration complete
print "   Files saved:"
   Files saved:
print "     - npt_complete.restart (legacy name)"
     - npt_complete.restart (legacy name)
print "     - npt_equilibration_complete.restart (for production restart)"
     - npt_equilibration_complete.restart (for production restart)
print "     - npt_equilibration_complete.data (structure file)"
     - npt_equilibration_complete.data (structure file)
print "     - npt_equilibration_thermo.dat (thermodynamics)"
     - npt_equilibration_thermo.dat (thermodynamics)
print ""


# Checkpoint: Verify density
if "${current_dens} < 0.85 || ${current_dens} > 1.15" then     "print 'ERROR: Density outside expected range (0.85-1.15 g/cmÂ³)'"     "print 'Current density: ${current_dens} g/cmÂ³'"     "quit 1"

print "âœ“ Density validation PASSED: ${current_dens} g/cmÂ³"
œ“ Density validation PASSED: 1.06151635659859 g/cm³

print ""


# ğŸ”§ CHECKPOINT #4: Final validation before production
variable current_dens equal density
variable current_press equal press
variable current_vol equal vol
variable current_boxsize equal vol^(1.0/3.0)

print ""

print "NPT equilibration complete. FINAL VALIDATION:"
NPT equilibration complete. FINAL VALIDATION:
print "  Density:  ${current_dens} g/cmÂ³"
  Density:  1.06151635659859 g/cm³
print "  Pressure: ${current_press} atm"
  Pressure: 374.86816317346 atm
print "  Volume:   ${current_vol} Ã…Â³"
  Volume:   53741.4777092969 …³
print "  Box size: ${current_boxsize} Ã…"
  Box size: 37.7372168952721 …
print ""

print "âœ… CHECKPOINT: NPT equilibration complete (1000 ps)"
œ… CHECKPOINT: NPT equilibration complete (1000 ps)
print "   Creating restart file: npt_equilibration_complete.restart"
   Creating restart file: npt_equilibration_complete.restart
print "   This checkpoint allows restarting from production stage if needed"
   This checkpoint allows restarting from production stage if needed
print ""


# Save NPT checkpoint for production restart capability
write_restart npt_equilibration_complete.restart
System init for write_restart ...
PPPM initialization ...
  extracting TIP4P info from pair style
  using 12-bit tables for long-range coulomb
  G vector (1/distance) = 0.28849815
  grid = 50 50 50
  stencil order = 5
  estimated absolute RMS force accuracy = 0.00032668992
  estimated relative force accuracy = 9.8381698e-07
  using double precision FFTW3
  3d grid and FFT values/proc = 205379 125000
Generated 0 of 3 mixed pair_coeff terms from geometric mixing rule
write_data npt_equilibration_complete.data
System init for write_data ...
PPPM initialization ...
  extracting TIP4P info from pair style
  using 12-bit tables for long-range coulomb
  G vector (1/distance) = 0.28849815
  grid = 50 50 50
  stencil order = 5
  estimated absolute RMS force accuracy = 0.00032668992
  estimated relative force accuracy = 9.8381698e-07
  using double precision FFTW3
  3d grid and FFT values/proc = 205379 125000
Generated 0 of 3 mixed pair_coeff terms from geometric mixing rule
WARNING: Not all mixed pair coeffs generated from mixing. Use write_data with 'pair ij' option to store all pair coeffs. (src/write_data.cpp:364)

print "âœ… NPT checkpoint saved successfully"
œ… NPT checkpoint saved successfully
print "   Files created:"
   Files created:
print "     - npt_equilibration_complete.restart (for continuation)"
     - npt_equilibration_complete.restart (for continuation)
print "     - npt_equilibration_complete.data (structure file)"
     - npt_equilibration_complete.data (structure file)
print ""


if "${current_dens} < 0.80" then     "print 'ğŸ”´ ERROR: Density ${current_dens} g/cmÂ³ is TOO LOW (gas phase)!'"     "print 'Expected: 0.95-1.05 g/cmÂ³ for liquid water'"     "print ''"     "print 'Possible causes:'"     "print '  1. System escaped to gas phase during equilibration'"     "print '  2. PPPM grid artifacts occurred later in simulation'"     "print '  3. Initial system was not properly solvated'"     "quit 1"

if "${current_dens} > 1.20" then     "print 'ğŸ”´ ERROR: Density ${current_dens} g/cmÂ³ is TOO HIGH (over-compressed)!'"     "print 'Expected: 0.95-1.05 g/cmÂ³ for liquid water'"     "print ''"     "print 'Possible causes:'"     "print '  1. Barostat not converging properly'"     "print '  2. System trapped in metastable compressed state'"     "quit 1"

print "âœ… Density validation PASSED: ${current_dens} g/cmÂ³"
œ… Density validation PASSED: 1.06151635659859 g/cm³
print "Current density: ${current_dens} g/cmÂ³"
Current density: 1.06151635659859 g/cm³

#==============================================================================
# STAGE 4: Production MD (4000 ps = 4 ns)
#==============================================================================
print ""

print "===== STAGE 4: Production MD (4000 ps = 4 ns, GPU) ====="
===== STAGE 4: Production MD (4000 ps = 4 ns, GPU) =====
print "Main data collection phase - RDF, MSD, trajectories"
Main data collection phase - RDF, MSD, trajectories
print ""

print "Pressure control strategy:"
Pressure control strategy:
print "  â€¢ Using MTK barostat for better ensemble accuracy"
  €¢ Using MTK barostat for better ensemble accuracy
print "  â€¢ Tdamp = 100 fs (standard for NosÃ©-Hoover)"
  €¢ Tdamp = 100 fs (standard for Nos©-Hoover)
print "  â€¢ Pdamp = 1000 fs (tighter control for stable production)"
  €¢ Pdamp = 1000 fs (tighter control for stable production)
print ""


# Production NPT with MTK barostat and tighter pressure control
# Using smaller pdamp (1000 fs vs 2000 fs) for more stable pressure
# ğŸ”§ CRITICAL: Using npt/gpu instead of npt for FULL GPU acceleration
fix mynpt all npt/gpu temp 300.0 300.0 100.0 iso 1.0 1.0 1000.0 mtk yes

# Main trajectory dump (every 1 ps for analysis)
# Trajectory output (every 1 ps) - using wrapped coordinates for proper visualization
dump prod_traj all custom 1000 production.lammpstrj id type xu yu zu
dump_modify prod_traj sort id

# DCD dump (every 0.5 ps for smooth visualization)
dump prod_dcd all dcd 500 production.dcd
dump_modify prod_dcd unwrap yes

# Detailed thermodynamics (every 1 ps)
fix thermo_avg all ave/time 100 10 1000 v_epsilon_co v_temp v_press v_pe v_ke v_etotal v_vol v_dens     file production_thermo.dat

# Very detailed thermodynamics (every 0.1 ps for fluctuation analysis)
fix thermo_detailed all ave/time 10 10 100 v_temp v_press v_pe v_ke v_vol v_dens     file production_detailed_thermo.dat

# Compute RDFs on-the-fly (Global)
# Type 1=C, Type 2=O, Type 3=H
compute rdf_CO all rdf 150 1 2  # Global C-O pairs
compute rdf_CC all rdf 150 1 1  # Global C-C pairs
compute rdf_OO all rdf 150 2 2  # Global O-O pairs

# Individual C60 molecule RDFs with water (CORRECTED)
# "For atoms in group c60_1, find Type 2 (Oxygen) distribution"
compute rdf_C60_1_O c60_1 rdf 150 1 2
compute rdf_C60_2_O c60_2 rdf 150 1 2
compute rdf_C60_3_O c60_3 rdf 150 1 2

# (Deleted impossible Inter-C60 computations - calculate these in Python/OVITO)

# Average Global RDFs
fix rdf_CO_avg all ave/time 1000 10 10000 c_rdf_CO[1] c_rdf_CO[2] c_rdf_CO[3] file rdf_CO.dat mode vector
fix rdf_CC_avg all ave/time 1000 10 10000 c_rdf_CC[1] c_rdf_CC[2] c_rdf_CC[3] file rdf_CC.dat mode vector
fix rdf_OO_avg all ave/time 1000 10 10000 c_rdf_OO[1] c_rdf_OO[2] c_rdf_OO[3] file rdf_OO.dat mode vector

# Average Individual C60-Water RDFs
fix rdf_C60_1_O_avg all ave/time 1000 10 10000 c_rdf_C60_1_O[1] c_rdf_C60_1_O[2] c_rdf_C60_1_O[3] file rdf_C60_1_water.dat mode vector
fix rdf_C60_2_O_avg all ave/time 1000 10 10000 c_rdf_C60_2_O[1] c_rdf_C60_2_O[2] c_rdf_C60_2_O[3] file rdf_C60_2_water.dat mode vector
fix rdf_C60_3_O_avg all ave/time 1000 10 10000 c_rdf_C60_3_O[1] c_rdf_C60_3_O[2] c_rdf_C60_3_O[3] file rdf_C60_3_water.dat mode vector

# Compute MSD for water oxygen (diffusion analysis)
# Need to use the oxygen group defined earlier
compute msd_water oxygen msd
# MSD compute outputs: [1]=dxÂ², [2]=dyÂ², [3]=dzÂ², [4]=total rÂ²
fix msd_avg all ave/time 100 10 1000 c_msd_water[1] c_msd_water[2] c_msd_water[3] c_msd_water[4] file msd_water.dat

# Dump images every 20 ps for visualization
dump prod_img all image 10000 production_*.ppm type type     axes yes 0.8 0.02 view 60 30 zoom 1.5     box no 0.01 shiny 0.5
dump_modify prod_img pad 6 backcolor white

run 1000000  # 2000 ps = 2 ns at 2 fs timestep
PPPM initialization ...
  extracting TIP4P info from pair style
  using 12-bit tables for long-range coulomb
  G vector (1/distance) = 0.28849815
  grid = 50 50 50
  stencil order = 5
  estimated absolute RMS force accuracy = 0.00032668992
  estimated relative force accuracy = 9.8381698e-07
  using double precision FFTW3
  3d grid and FFT values/proc = 205379 125000
Generated 0 of 3 mixed pair_coeff terms from geometric mixing rule
Neighbor list info ...
  update: every = 1 steps, delay = 5 steps, check = yes
  max neighbors/atom: 2000, page size: 100000
  master list distance cutoff = 14.3092
  ghost atom cutoff = 18
  binsize = 7.1546, bins = 6 6 6
  6 neighbor lists, perpetual/occasional/extra = 0 6 0
  (1) compute rdf, occasional
      attributes: half, newton off
      pair build: half/bin/newtoff
      stencil: full/bin/3d
      bin: standard
  (2) compute rdf, occasional
      attributes: half, newton off
      pair build: half/bin/newtoff
      stencil: full/bin/3d
      bin: standard
  (3) compute rdf, occasional
      attributes: half, newton off
      pair build: half/bin/newtoff
      stencil: full/bin/3d
      bin: standard
  (4) compute rdf, occasional
      attributes: half, newton off
      pair build: half/bin/newtoff
      stencil: full/bin/3d
      bin: standard
  (5) compute rdf, occasional
      attributes: half, newton off
      pair build: half/bin/newtoff
      stencil: full/bin/3d
      bin: standard
  (6) compute rdf, occasional
      attributes: half, newton off
      pair build: half/bin/newtoff
      stencil: full/bin/3d
      bin: standard
Per MPI rank memory allocation (min/avg/max) = 69.53 | 69.53 | 69.53 Mbytes
   Step          Temp          Press          Volume         PotEng         KinEng         TotEng        Density    
    600010   299.29834      379.80457      53741.478     -21542.96       3348.2445     -18194.715      1.0615164    
    601000   298.1009       626.42015      53538.37      -21560.547      3334.8488     -18225.698      1.0655434    
    602000   298.94247     -90.272323      54083.487     -21635.984      3344.2635     -18291.72       1.0548036    
    603000   302.77926     -117.97981      53870.647     -21774.492      3387.1856     -18387.307      1.0589711    
    604000   302.17429     -427.06534      54624.753     -21514.704      3380.4177     -18134.287      1.0443518    
    605000   298.11014     -164.87611      53528.242     -21765.909      3334.9522     -18430.957      1.065745     
    606000   299.48263      1015.5098      53490.034     -21630.384      3350.3062     -18280.078      1.0665063    
    607000   295.15058     -42.991596      53642.832     -21716.378      3301.8437     -18414.534      1.0634684    
    608000   301.23744     -191.16275      53564.411     -21754.996      3369.9372     -18385.059      1.0650254    
    609000   288.49623      206.2313       53131.335     -21767.452      3227.4016     -18540.05       1.0737065    
    610000   295.71274      34.715283      53919.85      -21668.982      3308.1325     -18360.85       1.0580048    
    611000   305.10722      687.75782      53799.503     -21644.053      3413.2285     -18230.825      1.0603715    
    612000   300.90773      595.21185      53766.903     -21672.761      3366.2488     -18306.512      1.0610144    
    613000   302.82975     -243.38569      53736.574     -21709.975      3387.7504     -18322.225      1.0616132    
    614000   302.31177      287.80517      54031.263     -21574.975      3381.9558     -18193.019      1.0558231    
    615000   297.02223     -1194.1654      54056.187     -21693.568      3322.7818     -18370.786      1.0553363    
    616000   296.34151      11.294567      54095.007     -21713.497      3315.1666     -18398.331      1.054579     
    617000   303.89242     -408.83499      54029.716     -21650.444      3399.6385     -18250.806      1.0558534    
    618000   302.88824     -371.13271      54359.41      -21836.78       3388.4048     -18448.375      1.0494495    
    619000   296.91223      467.79503      54045.968     -21610.735      3321.5513     -18289.184      1.0555359    
    620000   306.25166     -490.63907      54348.425     -21802.178      3426.0312     -18376.147      1.0496617    
    621000   294.36685     -458.77908      54369.536     -21604.353      3293.0761     -18311.277      1.0492541    
    622000   295.63969      409.30938      54271.366     -21556.86       3307.3153     -18249.545      1.051152     
    623000   304.42647      624.45397      53871.811     -21706.593      3405.6128     -18300.98       1.0589482    
    624000   298.86444     -1145.8206      54307.344     -21722.578      3343.3905     -18379.187      1.0504557    
    625000   298.80301      196.87684      53995.53      -21691.025      3342.7033     -18348.322      1.0565219    
    626000   302.11054     -326.43121      54015.924     -21753.933      3379.7046     -18374.228      1.056123     
    627000   297.08253      360.35596      53649.887     -21806.716      3323.4563     -18483.26       1.0633286    
    628000   295.31423      122.98511      54118.958     -21683.223      3303.6744     -18379.549      1.0541123    
    629000   299.04059     -426.86818      54354.145     -21752.968      3345.3611     -18407.607      1.0495512    
    630000   294.34835     -199.33011      53988.508     -21680.096      3292.8691     -18387.227      1.0566593    
    631000   303.57151      517.39267      53736.731     -21697.974      3396.0484     -18301.926      1.0616101    
    632000   305.47339     -847.67559      53921.165     -21692.478      3417.3248     -18275.153      1.0579789    
    633000   304.92789     -17.74586       53216.048     -21733.799      3411.2223     -18322.576      1.0719972    
    634000   301.45529     -82.681277      53816.701     -21712.898      3372.3743     -18340.524      1.0600326    
    635000   298.06685      55.787568      53855.224     -21739.514      3334.468      -18405.046      1.0592743    
    636000   298.49996      121.63634      54000.339     -21695.568      3339.3131     -18356.255      1.0564278    
    637000   295.25942     -587.49201      54309.183     -21777.642      3303.0613     -18474.581      1.0504201    
    638000   301.31511     -477.60151      54193.579     -21590.979      3370.8061     -18220.173      1.0526608    
    639000   297.37847      773.93774      53879.827     -21597.824      3326.767      -18271.057      1.0587907    
    640000   302.22727     -185.237        53519.219     -21742.667      3381.0104     -18361.656      1.0659247    
    641000   298.90446     -270.2974       54010.268     -21729.324      3343.8383     -18385.485      1.0562336    
    642000   294.70369     -151.29692      54031.963     -21690.063      3296.8443     -18393.219      1.0558095    
    643000   300.84755      445.35677      54316.824     -21782.968      3365.5756     -18417.392      1.0502723    
    644000   309.94693     -7.6146333      53839.604     -21901.386      3467.3702     -18434.016      1.0595817    
    645000   299.31773      273.1692       53536.692     -21754.015      3348.4614     -18405.554      1.0655768    
    646000   294.32218     -606.78239      53736.243     -21691.948      3292.5764     -18399.371      1.0616198    
    647000   301.25153     -54.21209       53873.228     -21656.101      3370.0948     -18286.006      1.0589204    
    648000   301.57234      412.70982      53540.619     -21626.647      3373.6838     -18252.963      1.0654987    
    649000   304.92051      546.51239      53208.538     -21598.361      3411.1397     -18187.221      1.0721486    
    650000   300.03029     -600.38935      54109.031     -21709.605      3356.4329     -18353.172      1.0543057    
    651000   294.8645      -83.810257      53827.772     -21623.497      3298.6433     -18324.854      1.0598146    
    652000   300.57214      308.65001      54291.321     -21585.345      3362.4945     -18222.851      1.0507657    
    653000   305.3145       1359.2654      53700.994     -21671.799      3415.5472     -18256.252      1.0623166    
    654000   300.10906     -86.124409      54462.064     -21687.309      3357.314      -18329.995      1.0474715    
    655000   303.82727      56.146852      54297.985     -21588.011      3398.9097     -18189.102      1.0506367    
    656000   311.21551      1475.7838      53633.329     -21693.913      3481.5617     -18212.351      1.0636569    
    657000   301.7195       598.22085      53595.585     -21734.286      3375.3301     -18358.956      1.0644059    
    658000   296.62646      329.65901      53509.339     -21716.607      3318.3543     -18398.253      1.0661215    
    659000   298.629        459.12038      53422.25      -21786.536      3340.7567     -18445.779      1.0678595    
    660000   306.20485      1122.3341      53541.832     -21676.645      3425.5075     -18251.138      1.0654745    
    661000   299.3389      -475.4536       54049.312     -21658.908      3348.6983     -18310.21       1.0554706    
    662000   303.82741      505.17609      53710.245     -21769.139      3398.9112     -18370.228      1.0621336    
    663000   301.53577     -122.02846      53781.088     -21758.771      3373.2747     -18385.497      1.0607345    
    664000   293.48693      380.98082      53930.581     -21692.579      3283.2325     -18409.346      1.0577942    
    665000   296.33551      1073.4839      53546.891     -21549.19       3315.0995     -18234.091      1.0653739    
    666000   304.91712      13.365547      53492.855     -21645.498      3411.1018     -18234.397      1.06645      
    667000   302.06968     -287.75716      54325.736     -21678.875      3379.2475     -18299.627      1.0501       
    668000   299.95231      387.61253      53769.552     -21652.953      3355.5605     -18297.392      1.0609621    
    669000   303.27354     -611.82171      54214.858     -21659.723      3392.7151     -18267.008      1.0522477    
    670000   301.04638      448.68525      54116.304     -21640.776      3367.7998     -18272.976      1.054164     
    671000   297.2039       224.80106      53696.336     -21655.857      3324.8141     -18331.043      1.0624088    
    672000   297.43998      465.40134      54042.16      -21873.444      3327.4552     -18545.989      1.0556102    
    673000   296.90057      167.62635      53518.147     -21610.547      3321.4207     -18289.126      1.0659461    
    674000   298.25534      113.15111      53507.878     -21731.267      3336.5766     -18394.69       1.0661506    
    675000   294.51667     -253.0327       53904.564     -21606.115      3294.7521     -18311.363      1.0583048    
    676000   297.83954     -130.55771      53974.49      -21666.735      3331.925      -18334.81       1.0569337    
    677000   300.55564      681.62637      53888.318     -21623.635      3362.31       -18261.325      1.0586238    
    678000   298.78354      91.482556      53506.385     -21741.386      3342.4855     -18398.9        1.0661804    
    679000   298.21612     -681.07424      53953.856     -21654.385      3336.1378     -18318.247      1.0573379    
    680000   300.3806       774.7258       53856.77      -21686.781      3360.3518     -18326.429      1.059244     
    681000   298.8599       305.99194      53599.69      -21569.342      3343.3398     -18226.002      1.0643244    
    682000   298.24893     -373.18338      53160.119     -21598.844      3336.5049     -18262.339      1.0731251    
    683000   292.67976      820.54813      53852.903     -21596.559      3274.2027     -18322.356      1.05932      
    684000   301.54898     -49.904941      53844.026     -21523.321      3373.4224     -18149.898      1.0594947    
    685000   307.50927     -359.30531      53346.489     -21774.209      3440.1001     -18334.109      1.0693761    
    686000   293.97325     -293.78373      53451.237     -21741.617      3288.6729     -18452.944      1.0672804    
    687000   299.4732       150.49517      53347.569     -21686.638      3350.2008     -18336.437      1.0693544    
    688000   305.06353      384.28079      53837.906     -21694.275      3412.7397     -18281.535      1.0596151    
    689000   294.008       -217.91506      53537.873     -21651.646      3289.0616     -18362.584      1.0655533    
    690000   295.02084      408.41958      54042.127     -21682.722      3300.3923     -18382.329      1.0556109    
    691000   301.02894      244.38673      53339.4       -21713.153      3367.6048     -18345.549      1.0695182    
    692000   299.95898      530.45393      53367.795     -21776.286      3355.6352     -18420.651      1.0689491    
    693000   297.98679     -3.7025217      53838.299     -21665.37       3333.5723     -18331.798      1.0596074    
    694000   299.36999      631.19457      53596.944     -21643.391      3349.0461     -18294.345      1.0643789    
    695000   296.94364     -370.05757      53835.734     -21789.407      3321.9026     -18467.504      1.0596578    
    696000   302.57807      13.080519      53981.879     -21688.487      3384.9348     -18303.552      1.056789     
    697000   302.10092      99.063584      53274.166     -21817.048      3379.597      -18437.451      1.0708278    
    698000   292.34194     -557.79166      54058.168     -21696.47       3270.4235     -18426.047      1.0552977    
    699000   297.90073     -125.89101      53907.591     -21673.83       3332.6095     -18341.221      1.0582454    
    700000   299.67108      526.73481      53609.559     -21768.064      3352.4145     -18415.649      1.0641285    
    701000   300.98941     -476.6911       54033.219     -21711.061      3367.1626     -18343.899      1.0557849    
    702000   297.99046     -39.87877       53829.986     -21687.803      3333.6134     -18354.19       1.059771     
    703000   301.81363     -1028.6377      54044.109     -21577.189      3376.383      -18200.806      1.0555722    
    704000   304.67304      503.33058      53638.126     -21729.458      3408.3713     -18321.087      1.0635617    
    705000   293.45174      297.60812      54096.087     -21688.067      3282.8388     -18405.228      1.0545579    
    706000   300.36874     -302.25071      54317.948     -21654.421      3360.2191     -18294.202      1.0502506    
    707000   303.13344     -289.05945      53746.637     -21675.158      3391.1477     -18284.01       1.0614145    
    708000   301.76023     -587.01749      53713.784     -21880.998      3375.7857     -18505.212      1.0620637    
    709000   295.67113     -838.64657      53705.149     -21643.205      3307.6671     -18335.538      1.0622344    
    710000   298.50029      675.91527      53565.132     -21644.414      3339.3168     -18305.097      1.065011     
    711000   299.32833      291.3456       53660.558     -21657.122      3348.5801     -18308.542      1.0631171    
    712000   297.36657     -52.627464      53786.176     -21646.209      3326.6339     -18319.575      1.0606342    
    713000   301.70397      56.959725      53560.424     -21642.825      3375.1563     -18267.669      1.0651047    
    714000   300.93254     -262.42001      53459.263     -21751.537      3366.5263     -18385.01       1.0671202    
    715000   297.97036     -20.623503      53419.104     -21627.764      3333.3885     -18294.376      1.0679224    
    716000   306.27189      555.9246       53917.123     -21746.589      3426.2575     -18320.332      1.0580583    
    717000   298.27956      442.82015      53826.351     -21695.145      3336.8475     -18358.298      1.0598426    
    718000   295.92085     -95.54829       53710.028     -21681.574      3310.4607     -18371.113      1.0621379    
    719000   297.69068      270.07764      53976.502     -21595.456      3330.2597     -18265.196      1.0568943    
    720000   295.04975      263.27576      53900.984     -21745.751      3300.7157     -18445.036      1.0583751    
    721000   299.33622     -330.38936      53998.612     -21593.276      3348.6683     -18244.607      1.0564616    
    722000   292.96597      214.66171      53654.601     -21719.878      3277.4045     -18442.474      1.0632351    
    723000   306.77362     -1030.4084      53760.68      -21630.279      3431.8703     -18198.408      1.0611372    
    724000   301.4422       50.356657      53457.699     -21612.808      3372.2279     -18240.58       1.0671514    
    725000   298.82589      157.94767      54099.208     -21729.692      3342.9593     -18386.733      1.0544971    
    726000   297.77777     -1004.0519      53675.9       -21550.451      3331.234      -18219.217      1.0628132    
    727000   300.59426     -441.52767      54000.738     -21584.313      3362.742      -18221.571      1.05642      
    728000   302.53001      315.9176       53585.481     -21640.014      3384.3972     -18255.617      1.0646066    
    729000   301.28358      455.08037      53712.471     -21539.873      3370.4534     -18169.419      1.0620896    
    730000   302.27155     -177.13441      53792.024     -21761.112      3381.5059     -18379.606      1.0605189    
    731000   296.2975       306.63347      53825.975     -21649.335      3314.6742     -18334.661      1.05985      
    732000   297.43453     -448.69248      53860.894     -21791.871      3327.3941     -18464.477      1.0591628    
    733000   295.97987     -109.49695      53829.592     -21741.246      3311.1209     -18430.125      1.0597788    
    734000   305.88077      236.47518      53501.213     -21684.234      3421.8821     -18262.352      1.0662835    
    735000   305.87082      566.56646      53029.985     -21677.874      3421.7708     -18256.103      1.0757585    
    736000   298.83734     -688.33403      53796.132     -21807.329      3343.0873     -18464.242      1.0604379    
    737000   303.94382     -418.77698      53832.56      -21809.576      3400.2135     -18409.363      1.0597203    
    738000   301.86525      956.9488       54023.797     -21513.631      3376.9606     -18136.67       1.0559691    
    739000   290.95872      215.44881      53626.274     -21648.086      3254.9495     -18393.137      1.0637968    
    740000   300.60392     -622.76715      53307.687     -21727.254      3362.8501     -18364.404      1.0701544    
    741000   298.00901      369.87634      53707.705     -21805.367      3333.8208     -18471.546      1.0621839    
    742000   300.49503      286.71484      54052.118     -21612.716      3361.6319     -18251.084      1.0554158    
    743000   300.95672      657.18304      53239.627     -21759.456      3366.7968     -18392.66       1.0715225    
    744000   299.09462     -98.002933      54025.684     -21662.745      3345.9656     -18316.78       1.0559322    
    745000   302.57158      10.356067      54026.009     -21712.16       3384.8622     -18327.298      1.0559258    
    746000   291.16882      419.88925      54031.043     -21829.013      3257.2998     -18571.713      1.0558274    
    747000   303.4639      -362.48589      53808.663     -21793.245      3394.8446     -18398.401      1.0601909    
    748000   296.28613     -123.79578      53850.882     -21711.536      3314.547      -18396.989      1.0593598    
    749000   302.93274      117.49861      53582.633     -21643.414      3388.9025     -18254.511      1.0646632    
    750000   299.70468      472.61892      53603.575     -21674.118      3352.7904     -18321.328      1.0642473    
    751000   301.17932      602.95735      53740.731     -21641.046      3369.287      -18271.759      1.0615311    
    752000   291.54756      1028.4019      54027.689     -21749.832      3261.5367     -18488.295      1.055893     
    753000   301.74314      231.58863      54673.164     -21597.381      3375.5945     -18221.787      1.043427     
    754000   298.72377     -505.72848      54450.488     -21681.869      3341.8169     -18340.052      1.0476942    
    755000   300.46615      286.08716      53855.952     -21787.172      3361.3088     -18425.863      1.05926      
    756000   299.83992     -498.55141      54102.255     -21701.843      3354.3032     -18347.54       1.0544377    
    757000   294.777       -189.63366      54178.888     -21625.837      3297.6645     -18328.172      1.0529463    
    758000   303.79283     -0.35495302     53649.915     -21622.448      3398.5244     -18223.924      1.063328     
    759000   305.09891      838.96662      53445.132     -21777.521      3413.1355     -18364.385      1.0674023    
    760000   298.22374     -522.03538      53889.849     -21802.463      3336.223      -18466.24       1.0585938    
    761000   299.8443      -87.274217      53656.633     -21750.152      3354.3522     -18395.8        1.0631949    
    762000   294.24003      338.24509      53735.109     -21791.196      3291.6574     -18499.539      1.0616422    
    763000   298.47747     -368.60259      53582.222     -21557.133      3339.0616     -18218.072      1.0646714    
    764000   302.96587      256.8114       53844.492     -21659.455      3389.2731     -18270.182      1.0594855    
    765000   294.61806      610.38369      53043.197     -21803.939      3295.8864     -18508.053      1.0754906    
    766000   297.77637     -257.81729      53238.688     -21618.11       3331.2184     -18286.891      1.0715414    
    767000   298.77725      385.56747      53884.391     -21618.461      3342.4151     -18276.046      1.058701     
    768000   299.93666     -336.11185      53813.715     -21661.697      3355.3855     -18306.311      1.0600914    
    769000   299.43515      218.80955      53524.829     -21778.549      3349.775      -18428.774      1.065813     
    770000   303.62401      1220.5927      53299.758     -21672.737      3396.6358     -18276.101      1.0703136    
    771000   306.16637     -847.06184      53792.765     -21653.183      3425.0771     -18228.106      1.0605043    
    772000   301.47926      199.1916       53533.04      -21709.734      3372.6425     -18337.092      1.0656495    
    773000   305.47317     -370.58026      53918.69      -21726.001      3417.3223     -18308.678      1.0580275    
    774000   302.00132      181.50135      53847.282     -21709.837      3378.4828     -18331.354      1.0594306    
    775000   301.1416      -177.68358      54031.977     -21633.252      3368.8651     -18264.387      1.0558092    
    776000   298.08964      25.200376      53556.029     -21676.537      3334.7229     -18341.814      1.0651921    
    777000   298.86286      448.02088      53741.973     -21777.653      3343.3729     -18434.28       1.0615066    
    778000   301.5258       1397.9131      53601.25      -21673.343      3373.1632     -18300.18       1.0642934    
    779000   299.90387     -63.995255      53810.325     -21650.852      3355.0187     -18295.833      1.0601582    
    780000   307.1352       92.768769      53865.263     -21563.702      3435.9153     -18127.787      1.0590769    
    781000   300.32223      255.38781      53749.796     -21713.796      3359.6988     -18354.098      1.0613521    
    782000   295.94286      670.98526      53815.929     -21633.152      3310.7069     -18322.445      1.0600478    
    783000   295.42255      136.95488      54033.489     -21702.22       3304.8862     -18397.334      1.0557796    
    784000   298.794       -390.25766      53859.207     -21734.147      3342.6025     -18391.544      1.059196     
    785000   298.45912     -27.4918        53654.76      -21745.79       3338.8563     -18406.934      1.063232     
    786000   302.72555     -313.10409      53660.661     -21716.1        3386.5847     -18329.515      1.0631151    
    787000   306.64112      362.11922      54092.871     -21687.451      3430.3882     -18257.063      1.0546206    
    788000   302.26873      735.7722       53387.422     -21673.413      3381.4743     -18291.939      1.0685562    
    789000   297.29151     -173.59001      53616.215     -21628.432      3325.7942     -18302.638      1.0639964    
    790000   296.63775      852.35121      53877.373     -21676.228      3318.4806     -18357.747      1.0588389    
    791000   305.2995      -725.08193      53856.049     -21743.81       3415.3794     -18328.431      1.0592581    
    792000   302.55732      144.53785      53399.048     -21691.596      3384.7027     -18306.894      1.0683235    
    793000   296.63267     -286.45478      53775.409     -21676.919      3318.4238     -18358.495      1.0608466    
    794000   297.23247     -434.89021      53306.875     -21746.923      3325.1337     -18421.79       1.0701707    
    795000   297.10437      99.611785      53479.514     -21630.84       3323.7007     -18307.139      1.0667161    
    796000   294.16488     -224.89111      53946.679     -21715.992      3290.8167     -18425.176      1.0574786    
    797000   307.35955     -185.057        53824.519     -21525.84       3438.4252     -18087.415      1.0598786    
    798000   306.06548     -329.15083      53547.284     -21663.5        3423.9485     -18239.551      1.065366     
    799000   299.27526      77.772675      53424.188     -21771.449      3347.9864     -18423.462      1.0678208    
    800000   302.31138     -427.5978       54195.433     -21568.591      3381.9514     -18186.64       1.0526248    
    801000   307.39384      296.96132      54181.287     -21682.83       3438.8087     -18244.021      1.0528996    
    802000   298.72747     -435.8018       53984.071     -21658.695      3341.8583     -18316.837      1.0567461    
    803000   307.92222      557.09489      53507.374     -21771.629      3444.7198     -18326.909      1.0661607    
    804000   302.87239     -908.30289      54139.717     -21690.476      3388.2274     -18302.248      1.0537081    
    805000   297.84704     -214.34255      53871.483     -21694.602      3332.0089     -18362.593      1.0589547    
    806000   302.71631      232.4122       53642.065     -21648.862      3386.4813     -18262.381      1.0634836    
    807000   307.2025      -163.76302      54056.794     -21641.974      3436.6682     -18205.305      1.0553245    
    808000   306.27073      382.28684      53911.989     -21768.68       3426.2446     -18342.435      1.058159     
    809000   297.93195      710.33427      53764.146     -21749.929      3332.9588     -18416.97       1.0610688    
    810000   299.12843      315.72807      53366.564     -21664.323      3346.3438     -18317.979      1.0689738    
    811000   303.99138      92.316667      53653.053     -21646.651      3400.7455     -18245.905      1.0632658    
    812000   298.80553     -541.73862      53720.473     -21663.718      3342.7315     -18320.986      1.0619314    
    813000   305.86607     -794.35931      54166.252     -21804.188      3421.7176     -18382.47       1.0531919    
    814000   305.42682      304.03711      53566.293     -21706.067      3416.8038     -18289.263      1.064988     
    815000   297.92818      105.01551      54184.729     -21756.57       3332.9166     -18423.654      1.0528328    
    816000   299.99192     -65.686349      53592.919     -21740.7        3356.0037     -18384.696      1.0644589    
    817000   299.20172      131.66019      53709.692     -21693.81       3347.1637     -18346.646      1.0621446    
    818000   294.73949      886.75071      53268.55      -21675.117      3297.2448     -18377.872      1.0709407    
    819000   306.79165      400.53774      53658.874     -21678.946      3432.0721     -18246.874      1.0631505    
    820000   300.00912     -382.46862      53609.026     -21724.552      3356.1961     -18368.356      1.064139     
    821000   297.5012      -639.38762      53953.021     -21720.097      3328.14       -18391.957      1.0573543    
    822000   295.42346      387.0634       53497.256     -21689.691      3304.8964     -18384.795      1.0663623    
    823000   299.39192     -397.61417      53795.087     -21616.382      3349.2914     -18267.091      1.0604585    
    824000   298.86506     -377.56618      53879.283     -21604.372      3343.3975     -18260.975      1.0588014    
    825000   298.53817      1193.2078      53799.386     -21667.747      3339.7406     -18328.006      1.0603738    
    826000   309.02097      851.93713      53593.304     -21673.45       3457.0115     -18216.439      1.0644512    
    827000   297.31597      789.41062      54164.996     -21730.005      3326.0679     -18403.937      1.0532163    
    828000   296.64872      390.77072      53329.234     -21802.496      3318.6034     -18483.892      1.0697221    
    829000   297.8607       300.23212      53983.341     -21606.706      3332.1617     -18274.545      1.0567604    
    830000   292.72421     -151.77206      53797.418     -21625.578      3274.6999     -18350.878      1.0604126    
    831000   301.20465      713.48905      53091.457     -21654.119      3369.5704     -18284.548      1.0745129    
    832000   304.32191      182.94843      53745.689     -21846.316      3404.4431     -18441.873      1.0614332    
    833000   300.68703      601.3293       53710.7       -21733.991      3363.7798     -18370.211      1.0621246    
    834000   302.14        -556.31002      53904.836     -21600.997      3380.0342     -18220.963      1.0582994    
    835000   303.65875      350.99761      54062.388     -21642.521      3397.0243     -18245.497      1.0552153    
    836000   291.00691     -530.63563      53854.927     -21579.951      3255.4885     -18324.462      1.0592802    
    837000   296.97729     -168.04125      53765.243     -21711.113      3322.279      -18388.834      1.0610472    
    838000   307.86462     -261.31568      54233.751     -21802.423      3444.0754     -18358.347      1.0518811    
    839000   300.15279      87.628313      54499.698     -21712.181      3357.8033     -18354.378      1.0467481    
    840000   298.96166      439.90899      53937.916     -21612.795      3344.4781     -18268.317      1.0576504    
    841000   297.98303      349.54161      53665.673     -21597.751      3333.5303     -18264.221      1.0630158    
    842000   300.09847     -508.55473      53668.251     -21675.717      3357.1956     -18318.521      1.0629647    
    843000   301.16868      157.23889      53737.519     -21694.415      3369.1681     -18325.246      1.0615945    
    844000   294.88205     -24.907366      54034.689     -21643.031      3298.8396     -18344.191      1.0557562    
    845000   301.79131      249.55337      53694.014     -21718.365      3376.1334     -18342.232      1.0624547    
    846000   303.43865      393.55814      53177.696     -21669.534      3394.5621     -18274.972      1.0727704    
    847000   301.92718     -104.49133      53871.276     -21679.313      3377.6534     -18301.659      1.0589587    
    848000   300.07879     -917.19199      53724.501     -21706.396      3356.9755     -18349.421      1.0618518    
    849000   297.9432       145.67984      53464.329     -21830.369      3333.0847     -18497.284      1.067019     
    850000   305.24538     -629.57852      53699.823     -21621.522      3414.774      -18206.748      1.0623398    
    851000   299.62786     -325.27338      53632.732     -21755.537      3351.9309     -18403.606      1.0636687    
    852000   293.87694      12.55376       54395.235     -21708.557      3287.5955     -18420.961      1.0487584    
    853000   293.75249     -257.95755      54079.996     -21642.173      3286.2033     -18355.97       1.0548717    
    854000   302.59592      517.87083      54053.859     -21639.892      3385.1346     -18254.758      1.0553818    
    855000   295.56828      134.98665      53925.836     -21758.001      3306.5165     -18451.485      1.0578873    
    856000   295.79443      920.1509       53474.409     -21701.023      3309.0464     -18391.977      1.0668179    
    857000   295.47278      303.43008      53754.929     -21653.945      3305.4481     -18348.497      1.0612507    
    858000   294.9906       383.87522      53555.251     -21626.405      3300.0539     -18326.351      1.0652075    
    859000   299.02106      353.17929      53613.38      -21758.136      3345.1427     -18412.993      1.0640526    
    860000   303.45654     -351.99485      53549.193     -21718.891      3394.7623     -18324.129      1.0653281    
    861000   300.35702      923.30533      53763.366     -21623.455      3360.088      -18263.367      1.0610842    
    862000   301.75549     -145.78632      53288.815     -21636.995      3375.7326     -18261.262      1.0705334    
    863000   304.31133      326.24268      53589.935     -21641.059      3404.3248     -18236.734      1.0645181    
    864000   303.83653      405.91676      53493.464     -21652.727      3399.0132     -18253.714      1.0664379    
    865000   304.03425      542.65428      53290.311     -21631.703      3401.2251     -18230.478      1.0705034    
    866000   304.54163     -367.12593      54148.304     -21680.108      3406.9012     -18273.207      1.053541     
    867000   300.53323     -191.05976      53612.415     -21673.171      3362.0593     -18311.112      1.0640718    
    868000   304.99096     -185.78117      53859.686     -21675.473      3411.9278     -18263.546      1.0591866    
    869000   298.66882      40.644275      53520.2       -21686.119      3341.2022     -18344.917      1.0659052    
    870000   303.28286      293.10455      54108.261     -21849.09       3392.8193     -18456.27       1.0543207    
    871000   300.34157      376.95967      54013.256     -21689.195      3359.9151     -18329.279      1.0561751    
    872000   300.28855     -125.84465      54175.888     -21649.503      3359.322      -18290.18       1.0530046    
    873000   304.93841     -237.78714      53996.918     -21746.8        3411.34       -18335.46       1.0564947    
    874000   304.08085     -1210.4139      54216.99      -21631.829      3401.7464     -18230.083      1.0522063    
    875000   298.07306     -408.5022       53552.865     -21638.709      3334.5374     -18304.171      1.065255     
    876000   302.97803     -531.97404      53945.954     -21759.202      3389.4092     -18369.793      1.0574928    
    877000   298.18933     -342.63746      53563.929     -21711.106      3335.8381     -18375.267      1.065035     
    878000   295.73097     -175.47895      54080.142     -21559.809      3308.3365     -18251.472      1.0548689    
    879000   305.5944      -144.55542      54293.714     -21689.29       3418.6785     -18270.612      1.0507194    
    880000   305.08095      296.28167      54161.972     -21581.309      3412.9346     -18168.374      1.0532751    
    881000   300.74151      603.11384      53285.262     -21776.485      3364.3892     -18412.096      1.0706048    
    882000   299.64893      160.05355      53607.555     -21704.647      3352.1666     -18352.481      1.0641682    
    883000   297.84789     -286.16593      54456.009     -21672.399      3332.0184     -18340.38       1.0475879    
    884000   302.14817      323.37826      54009.974     -21786.785      3380.1255     -18406.659      1.0562393    
    885000   301.81909      1219.2742      54150.216     -21819.654      3376.4442     -18443.209      1.0535038    
    886000   304.46305     -60.621206      54189.716     -21804.435      3406.0221     -18398.413      1.0527359    
    887000   297.62246      747.66262      53413.985     -21568.14       3329.4966     -18238.644      1.0680247    
    888000   308.15524      288.18697      53891.464     -21724.563      3447.3266     -18277.237      1.058562     
    889000   301.2472       540.08197      53918.956     -21738.721      3370.0464     -18368.675      1.0580223    
    890000   299.79817     -374.28344      54103.898     -21631.216      3353.8362     -18277.38       1.0544057    
    891000   299.92953      37.868263      53805.041     -21770.708      3355.3057     -18415.402      1.0602623    
    892000   293.83079      299.63346      53756.793     -21634.298      3287.0792     -18347.219      1.0612139    
    893000   294.77761     -454.16719      54470.239     -21675.037      3297.6712     -18377.365      1.0473143    
    894000   300.56209     -85.498539      54238.15      -21636.57       3362.3821     -18274.188      1.0517958    
    895000   301.08535      265.52585      53772.593     -21772.808      3368.2358     -18404.573      1.0609021    
    896000   299.2118       21.968913      54046.883     -21717.661      3347.2764     -18370.385      1.055518     
    897000   298.98081     -413.32864      54752.756     -21648.552      3344.6923     -18303.86       1.0419102    
    898000   305.57721     -490.93133      54118.462     -21724.449      3418.4862     -18305.962      1.0541219    
    899000   302.02029      185.9512       53669.646     -21801.711      3378.6949     -18423.016      1.0629371    
    900000   300.38121      496.8154       53496.587     -21705.965      3360.3586     -18345.607      1.0663757    
    901000   302.04588      20.864235      53971.748     -21729.045      3378.9813     -18350.064      1.0569874    
    902000   294.88419     -569.40885      53953.322     -21855.225      3298.8636     -18556.361      1.0573484    
    903000   300.36975      897.01048      53869.763     -21610.657      3360.2304     -18250.427      1.0589885    
    904000   294.09596     -242.93224      53486.258     -21716.901      3290.0456     -18426.855      1.0665816    
    905000   298.84073     -683.46561      53151.388     -21726.088      3343.1253     -18382.963      1.0733014    
    906000   298.85255      938.33864      53882.118     -21671.896      3343.2575     -18328.639      1.0587456    
    907000   294.1747      -464.26043      54016.548     -21698.063      3290.9265     -18407.137      1.0561108    
    908000   300.44022     -92.322525      54204.586     -21674.399      3361.0188     -18313.38       1.0524471    
    909000   302.89784      243.90386      54108.11      -21859.829      3388.5122     -18471.316      1.0543236    
    910000   299.01164     -463.11075      54252.691     -21678.42       3345.0373     -18333.383      1.0515139    
    911000   296.10584      524.10373      54090.367     -21659.222      3312.5302     -18346.692      1.0546695    
    912000   302.83795      292.48317      53782.211     -21631.649      3387.8421     -18243.807      1.0607124    
    913000   295.86087      479.50397      53833.466     -21703.213      3309.7897     -18393.424      1.0597025    
    914000   298.82977      252.66217      53299.034     -21778.026      3343.0027     -18435.023      1.0703282    
    915000   295.37208     -196.84483      53642.295     -21656.814      3304.3216     -18352.493      1.0634791    
    916000   299.42873     -853.91215      54289.715     -21641.756      3349.7033     -18292.053      1.0507968    
    917000   301.94009     -123.37157      54099.375     -21705.223      3377.7978     -18327.425      1.0544938    
    918000   300.60276      360.46254      53339.431     -21686.38       3362.8371     -18323.543      1.0695176    
    919000   305.96334      125.18874      53419.611     -21776.171      3422.8058     -18353.365      1.0679123    
    920000   303.66991     -299.16689      53388.986     -21737.197      3397.1493     -18340.048      1.0685248    
    921000   297.44404      447.77243      53705.61      -21703.043      3327.5005     -18375.543      1.0622253    
    922000   302.55488      582.67193      54210.259     -21635.354      3384.6754     -18250.679      1.0523369    
    923000   298.49132     -522.90853      54411.561     -21751.017      3339.2165     -18411.801      1.0484437    
    924000   297.16925      339.51274      53491.364     -21709.829      3324.4265     -18385.402      1.0664798    
    925000   304.98076      225.08784      53570.166     -21786.034      3411.8137     -18374.22       1.064911     
    926000   301.03045      272.42212      53329.992     -21722.877      3367.6217     -18355.255      1.0697068    
    927000   302.62883      393.9112       53968.677     -21666.946      3385.5028     -18281.443      1.0570475    
    928000   300.98815      363.85852      53517.819     -21744.673      3367.1485     -18377.525      1.0659526    
    929000   298.38822      390.3225       54707.218     -21518.892      3338.0631     -18180.829      1.0427775    
    930000   301.20041     -200.46829      53751.782     -21764.297      3369.523      -18394.774      1.0613129    
    931000   307.75032      512.57883      53882.235     -21705.734      3442.7967     -18262.937      1.0587433    
    932000   298.33259      360.23024      54093.25      -21710.797      3337.4408     -18373.357      1.0546132    
    933000   292.3015      -229.95812      53660.222     -21691.049      3269.9711     -18421.078      1.0631238    
    934000   305.98497     -613.84396      53509.601     -21636.162      3423.0478     -18213.114      1.0661163    
    935000   302.80212     -458.61007      53127.078     -21681.075      3387.4413     -18293.633      1.0737925    
    936000   297.14161      182.63066      53858.539     -21571.05       3324.1173     -18246.932      1.0592092    
    937000   292.4506       477.29696      53663.388     -21570.147      3271.639      -18298.508      1.063061     
    938000   300.0074      -10.597948      54179.104     -21725.127      3356.1768     -18368.95       1.0529421    
    939000   301.07615      23.586381      53431.043     -21619.601      3368.1329     -18251.468      1.0676838    
    940000   293.66587     -263.97533      54168.103     -21733.943      3285.2342     -18448.709      1.0531559    
    941000   300.64049     -292.85031      53955.013     -21683.718      3363.2592     -18320.458      1.0573152    
    942000   293.13022      411.38014      53498.989     -21665.298      3279.2419     -18386.056      1.0663278    
    943000   302.5823      -25.130035      53923.327     -21648.513      3384.9821     -18263.531      1.0579365    
    944000   301.74644      415.83595      53864.703     -21789.651      3375.6315     -18414.019      1.0590879    
    945000   299.52034     -271.30309      53761.224     -21818.621      3350.7281     -18467.893      1.0611265    
    946000   305.2941       765.22185      53201.597     -21729.851      3415.319      -18314.532      1.0722884    
    947000   305.12223      517.99816      53160.931     -21638.561      3413.3963     -18225.165      1.0731087    
    948000   298.59527     -360.90258      53887.987     -21689.131      3340.3793     -18348.752      1.0586303    
    949000   301.5568      -149.80555      54138.995     -21686.659      3373.5099     -18313.149      1.0537221    
    950000   293.55354     -585.56152      54654.037     -21547.023      3283.9776     -18263.045      1.0437922    
    951000   305.80115      38.328049      53507.812     -21657.851      3420.9914     -18236.859      1.0661519    
    952000   296.93658      573.43691      53400.562     -21586.003      3321.8236     -18264.179      1.0682932    
    953000   299.89692      596.93562      53145.913     -21680.941      3354.9409     -18326          1.0734119    
    954000   300.88902      587.55185      53760.524     -21626.783      3366.0395     -18260.743      1.0611403    
    955000   299.07273      239.71822      53681.205     -21561.559      3345.7207     -18215.838      1.0627082    
    956000   301.27508     -368.47217      53824.262     -21788.573      3370.3584     -18418.215      1.0598837    
    957000   294.34288      540.91247      53951.274     -21796.482      3292.808      -18503.674      1.0573885    
    958000   297.11843     -340.22623      54069.154     -21603.139      3323.858      -18279.281      1.0550832    
    959000   299.74264     -624.39083      53613.98      -21741.713      3353.215      -18388.498      1.0640407    
    960000   304.87408      417.20188      53507.605     -21642.114      3410.6203     -18231.494      1.0661561    
    961000   303.03845     -770.74442      53799.098     -21679.137      3390.0851     -18289.052      1.0603794    
    962000   303.63523     -348.64305      53462.685     -21794.946      3396.7613     -18398.185      1.0670519    
    963000   302.98619     -506.18874      54152.449     -21713.52       3389.5005     -18324.019      1.0534604    
    964000   305.30121      300.33785      53716.374     -21609.762      3415.3986     -18194.363      1.0620125    
    965000   300.69888      291.68081      53716.601     -21729.954      3363.9124     -18366.041      1.062008     
    966000   302.93668     -451.67349      54293.423     -21629.312      3388.9466     -18240.365      1.050725     
    967000   294.87571     -678.22422      54127.872     -21653.461      3298.7688     -18354.692      1.0539387    
    968000   296.4255       172.89975      53673.118     -21666.06       3316.1062     -18349.953      1.0628683    
    969000   299.77603      457.15484      53618.06      -21700.786      3353.5885     -18347.198      1.0639597    
    970000   301.82357      569.5397       53510.484     -21741.922      3376.4943     -18365.428      1.0660987    
    971000   292.83639     -88.035412      53648.761     -21670.871      3275.9549     -18394.916      1.0633509    
    972000   302.20896      520.98541      53356.189     -21596.964      3380.8056     -18216.159      1.0691816    
    973000   294.91326     -393.37984      54012.169     -21715.689      3299.1888     -18416.501      1.0561964    
    974000   297.79728      1318.4744      53181.378     -21730.289      3331.4522     -18398.837      1.0726961    
    975000   296.16364     -657.92995      54282.489     -21705.87       3313.1768     -18392.693      1.0509367    
    976000   303.604        209.79576      53715.686     -21637.848      3396.4119     -18241.437      1.062026     
    977000   306.80853      263.81731      54040.649     -21590.302      3432.261      -18158.041      1.0556398    
    978000   299.62111     -526.08587      53605.295     -21775.754      3351.8554     -18423.898      1.0642131    
    979000   295.69232     -928.72753      54200.995     -21756.773      3307.9041     -18448.869      1.0525168    
    980000   299.88487      28.790358      54155.266     -21662.153      3354.8061     -18307.346      1.0534055    
    981000   297.73598     -142.56067      53531.91      -21801.179      3330.7665     -18470.412      1.065672     
    982000   306.96179      80.405583      54093.761     -21579.715      3433.9755     -18145.74       1.0546033    
    983000   306.95592      820.43135      53604.201     -21594.689      3433.9097     -18160.78       1.0642348    
    984000   304.95899      652.0908       54123.444     -21535.159      3411.5701     -18123.589      1.0540249    
    985000   302.48476      4.8436079      53545.571     -21644.06       3383.891      -18260.169      1.0654001    
    986000   295.95914      198.14918      53487.331     -21524.488      3310.889      -18213.599      1.0665602    
    987000   310.76878     -91.863199      53553.503     -21794.017      3476.5641     -18317.453      1.0652423    
    988000   302.37014     -486.20838      53623.084     -21606.917      3382.6088     -18224.308      1.0638601    
    989000   308.04319      175.28692      53452.284     -21613.041      3446.073      -18166.968      1.0672595    
    990000   302.5393       324.56045      53823.714     -21765.084      3384.5011     -18380.583      1.0598945    
    991000   304.94237      414.25547      53523.241     -21573.815      3411.3843     -18162.43       1.0658446    
    992000   304.03676      1255.1935      53463.436     -21719.495      3401.2532     -18318.242      1.0670369    
    993000   303.43196     -8.1375395      53539.271     -21692.667      3394.4873     -18298.18       1.0655255    
    994000   297.1683       455.88832      53576.222     -21436.034      3324.4158     -18111.618      1.0647906    
    995000   297.08232      201.92464      53592.681     -21659.463      3323.454      -18336.009      1.0644636    
    996000   299.36496     -156.38975      53647.346     -21646.714      3348.9899     -18297.724      1.0633789    
    997000   297.58623      29.112613      54057.294     -21723.021      3329.0913     -18393.93       1.0553147    
    998000   300.45092     -133.51717      53754.608     -21797.299      3361.1385     -18436.161      1.0612571    
    999000   307.40176      300.34046      53929.586     -21716.012      3438.8974     -18277.115      1.0578138    
   1000000   300.67853     -250.65496      53887.871     -21655.488      3363.6848     -18291.803      1.0586326    
   1001000   291.60264      334.20582      53211.036     -21676.555      3262.153      -18414.402      1.0720982    
   1002000   304.773       -275.16445      53660.866     -21770.407      3409.4895     -18360.917      1.063111     
   1003000   303.51496      802.51563      53877.917     -21668.729      3395.4158     -18273.313      1.0588282    
   1004000   307.40818      480.36572      53649.171     -21795.719      3438.9691     -18356.75       1.0633428    
   1005000   301.08223     -163.65024      54162.237     -21647.009      3368.2009     -18278.808      1.05327      
   1006000   295.57567      163.31171      54202.09      -21648.418      3306.5992     -18341.819      1.0524955    
   1007000   301.83494     -83.52582       54226.826     -21653.752      3376.6214     -18277.131      1.0520154    
   1008000   296.38501      454.05389      53634.495     -21698.927      3315.6532     -18383.273      1.0636337    
   1009000   308.11147      383.97497      53779.713     -21729.997      3446.8369     -18283.16       1.0607617    
   1010000   298.15559      171.25676      53706.798     -21713.489      3335.4606     -18378.028      1.0622018    
   1011000   304.52931      75.622407      53285.359     -21830.557      3406.7634     -18423.793      1.0706029    
   1012000   303.02777      239.60082      53928.761     -21722.3        3389.9657     -18332.334      1.0578299    
   1013000   295.47823      92.138567      53863.901     -21504.346      3305.5091     -18198.837      1.0591037    
   1014000   299.94816     -426.04777      53821.536     -21454.901      3355.5141     -18099.387      1.0599374    
   1015000   300.43272     -210.02828      53846.839     -21676.94       3360.9348     -18316.006      1.0594393    
   1016000   298.97167      817.55483      53588.781     -21543.604      3344.5901     -18199.014      1.0645411    
   1017000   296.16447      362.20837      53505.434     -21783.632      3313.1861     -18470.446      1.0661993    
   1018000   312.03783      476.32828      53057.907     -21637.066      3490.761      -18146.305      1.0751924    
   1019000   302.51596      162.73358      53530.526     -21779.97       3384.24       -18395.73       1.0656996    
   1020000   300.69914      644.56881      53724.254     -21766.104      3363.9152     -18402.189      1.0618567    
   1021000   296.57383     -87.884255      53846.12      -21726.025      3317.7656     -18408.26       1.0594534    
   1022000   298.0779       393.6065       54037.005     -21560.55       3334.5915     -18225.958      1.0557109    
   1023000   294.21938      517.27644      54314.008     -21754.714      3291.4263     -18463.287      1.0503268    
   1024000   295.89617     -1177.4369      54487.57      -21653.442      3310.1846     -18343.257      1.0469811    
   1025000   299.64281      120.46199      53465.12      -21752.656      3352.0982     -18400.558      1.0670033    
   1026000   301.11757      404.65304      53840.457     -21623.917      3368.5962     -18255.321      1.0595649    
   1027000   301.92572      968.25774      53407.741     -21665.8        3377.637      -18288.163      1.0681496    
   1028000   303.70385     -75.563443      53879.889     -21735.183      3397.5289     -18337.654      1.0587894    
   1029000   307.74236      184.47346      53781.918     -21805.279      3442.7077     -18362.571      1.0607182    
   1030000   308.96094     -515.37842      53674.969     -21732.203      3456.3398     -18275.863      1.0628317    
   1031000   294.91975     -443.25373      54303.997     -21690.826      3299.2614     -18391.565      1.0505204    
   1032000   296.6498       27.173802      54002.985     -21633.76       3318.6154     -18315.144      1.056376     
   1033000   295.37943      313.39808      53816.379     -21599.307      3304.4038     -18294.903      1.0600389    
   1034000   301.30517      437.68612      53987.467     -21684.943      3370.6949     -18314.248      1.0566797    
   1035000   293.64147      331.11587      53699.727     -21830.056      3284.9613     -18545.094      1.0623417    
   1036000   304.73426      417.79149      53772.086     -21743.782      3409.0561     -18334.726      1.0609121    
   1037000   302.35642     -759.75619      54038.396     -21652.816      3382.4553     -18270.361      1.0556838    
   1038000   297.51058      180.69129      53652.045     -21661.308      3328.2449     -18333.063      1.0632858    
   1039000   300.55179     -367.69522      54387.065     -21549.632      3362.267      -18187.365      1.0489159    
   1040000   301.10693      753.8375       53928.089     -21559.026      3368.4773     -18190.548      1.0578431    
   1041000   299.96735     -582.21025      53819.602     -21598.32       3355.7288     -18242.591      1.0599755    
   1042000   301.23235      1561.2254      53325.708     -21590.21       3369.8803     -18220.33       1.0697928    
   1043000   305.88689      181.52469      53548.265     -21618.431      3421.9506     -18196.48       1.0653465    
   1044000   300.25245      716.96637      53422.001     -21620.43       3358.9182     -18261.512      1.0678645    
   1045000   299.53366      11.826669      53862.503     -21735.667      3350.877      -18384.79       1.0591312    
   1046000   300.66461     -399.08138      54122.487     -21681.557      3363.529      -18318.028      1.0540435    
   1047000   302.60602      90.423851      54004.59      -21813.092      3385.2475     -18427.845      1.0563446    
   1048000   299.81832     -163.8144       53581.439     -21913.203      3354.0616     -18559.141      1.0646869    
   1049000   298.4895       230.47098      53738.456     -21744.811      3339.1961     -18405.615      1.061576     
   1050000   305.76396      241.31135      53939.271     -21651.521      3420.5753     -18230.946      1.0576238    
   1051000   301.91663     -283.17493      53626.002     -21589.711      3377.5354     -18212.176      1.0638022    
   1052000   301.59044      576.76879      53715.52      -21732.86       3373.8863     -18358.974      1.0620293    
   1053000   301.99856      655.84969      54134.335     -21723.27       3378.4519     -18344.818      1.0538128    
   1054000   303.31518      515.56569      53787.148     -21662.904      3393.1809     -18269.723      1.060615     
   1055000   300.98163      28.520965      53179.031     -21686.372      3367.0756     -18319.297      1.0727435    
   1056000   300.66637     -302.50796      53123.819     -21584.286      3363.5487     -18220.738      1.0738584    
   1057000   297.54647     -391.79835      53714.381     -21606.941      3328.6465     -18278.295      1.0620518    
   1058000   305.08992     -175.48622      53867.855     -21697.857      3413.0349     -18284.822      1.059026     
   1059000   299.05983     -365.81088      54221.995     -21662.166      3345.5763     -18316.59       1.0521092    
   1060000   303.448       -370.50836      54405.908     -21765.269      3394.6667     -18370.603      1.0485526    
   1061000   298.15145     -699.54375      54103.161     -21691.633      3335.4144     -18356.219      1.0544201    
   1062000   294.79057     -371.62383      53748.962     -21618.408      3297.8163     -18320.591      1.0613685    
   1063000   291.04053     -539.2579       53997.523     -21638.912      3255.8646     -18383.048      1.0564829    
   1064000   303.93759      1191.52        53733.64      -21744.471      3400.1437     -18344.328      1.0616712    
   1065000   297.56949     -11.576718      53625.286     -21778.304      3328.9039     -18449.4        1.0638164    
   1066000   298.89377      870.29918      53704.493     -21669.297      3343.7187     -18325.578      1.0622474    
   1067000   304.53236     -223.0315       53943.179     -21782.91       3406.7975     -18376.113      1.0575472    
   1068000   299.62063     -348.1196       54286.043     -21717.99       3351.85       -18366.14       1.0508679    
   1069000   298.79862      752.46823      53951.26      -21753.566      3342.6543     -18410.912      1.0573888    
   1070000   306.75536      428.14051      53384.834     -21690.034      3431.6661     -18258.368      1.0686079    
   1071000   302.21247      140.68488      53213.84      -21650.653      3380.8449     -18269.808      1.0720417    
   1072000   300.7456       301.71359      53727.233     -21576.616      3364.4351     -18212.181      1.0617978    
   1073000   297.6237      -73.686212      53896.206     -21631.466      3329.5105     -18301.956      1.0584689    
   1074000   307.93348      757.50084      53519.509     -21811.867      3444.8458     -18367.021      1.0659189    
   1075000   296.95036     -260.39915      53885.731     -21665.31       3321.9778     -18343.332      1.0586747    
   1076000   295.11007      660.35401      53803.729     -21698.677      3301.3905     -18397.287      1.0602882    
   1077000   297.05406     -22.065908      54046.301     -21591.651      3323.1378     -18268.513      1.0555294    
   1078000   299.60084     -324.79459      53944.134     -21788.273      3351.6286     -18436.645      1.0575285    
   1079000   304.3444      -116.03377      53464.994     -21707.673      3404.6947     -18302.979      1.0670058    
   1080000   296.57608      686.82817      53968.168     -21745.449      3317.7907     -18427.658      1.0570575    
   1081000   302.33663     -239.50231      53907.582     -21683.717      3382.2339     -18301.483      1.0582455    
   1082000   299.27998     -250.4564       54455.006     -21565.09       3348.0392     -18217.051      1.0476072    
   1083000   296.75439      744.60756      53647.15      -21799.347      3319.7855     -18479.561      1.0633828    
   1084000   305.73229      99.13222       53575.458     -21672.026      3420.2211     -18251.805      1.0648058    
   1085000   294.10223     -825.04005      53284.132     -21658.343      3290.1158     -18368.227      1.0706275    
   1086000   300.80406     -367.52299      53444.129     -21723.885      3365.089      -18358.796      1.0674224    
   1087000   290.65157     -397.67986      53826.47      -21700.404      3251.5133     -18448.89       1.0598402    
   1088000   305.28918     -666.8247       53486.636     -21703.469      3415.264      -18288.205      1.066574     
   1089000   302.08146     -106.52066      53778.815     -21584.779      3379.3793     -18205.399      1.0607794    
   1090000   295.52173     -280.88627      53685.923     -21667.946      3305.9957     -18361.95       1.0626148    
   1091000   300.72051      60.49693       53703.961     -21754.831      3364.1544     -18390.677      1.0622579    
   1092000   298.20503      823.80576      53491.33      -21749.003      3336.0137     -18412.989      1.0664804    
   1093000   301.22513      591.53006      53467.332     -21699.861      3369.7995     -18330.062      1.0669591    
   1094000   303.95796     -544.33389      54235.272     -21691.014      3400.3716     -18290.642      1.0518516    
   1095000   304.66675     -187.91378      54000.533     -21737.528      3408.3009     -18329.227      1.056424     
   1096000   303.68461      176.84514      53817.945     -21648.895      3397.3137     -18251.582      1.0600081    
   1097000   302.17215      538.08401      53555.213     -21569.253      3380.3939     -18188.859      1.0652083    
   1098000   292.21427     -320.91059      53800.595     -21659.796      3268.9952     -18390.801      1.0603499    
   1099000   301.67332     -326.87878      53829.622     -21669.126      3374.8135     -18294.312      1.0597782    
   1100000   300.05982      741.12418      54087.951     -21523.498      3356.7632     -18166.735      1.0547166    
   1101000   295.23475     -5.6474163      53620.738     -21842.584      3302.7853     -18539.799      1.0639066    
   1102000   302.74791      707.61003      53461.737     -21708.839      3386.8348     -18322.004      1.0670708    
   1103000   307.48569      199.28776      53385.414     -21783.289      3439.8363     -18343.453      1.0685963    
   1104000   301.04326     -258.94498      53443.064     -21809.136      3367.7649     -18441.371      1.0674436    
   1105000   305.08754     -419.27479      54166.803     -21686.228      3413.0083     -18273.22       1.0531812    
   1106000   299.59282     -255.06308      54087.589     -21692.934      3351.5389     -18341.395      1.0547236    
   1107000   292.77576     -225.45949      53589.363     -21721.193      3275.2766     -18445.917      1.0645295    
   1108000   299.86331      189.22285      53721.226     -21774.399      3354.5649     -18419.835      1.0619165    
   1109000   301.10394      521.03509      53912.247     -21664.335      3368.4438     -18295.891      1.058154     
   1110000   302.07018      1027.0839      53846.658     -21799.447      3379.2531     -18420.194      1.0594429    
   1111000   298.90943      63.885654      53411.319     -21692.246      3343.8939     -18348.352      1.068078     
   1112000   307.42709     -386.24939      53715.88      -21774.584      3439.1808     -18335.404      1.0620222    
   1113000   299.57763     -611.15632      53467.221     -21727.517      3351.369      -18376.148      1.0669613    
   1114000   291.92605     -88.700622      54272.025     -21563.677      3265.7709     -18297.906      1.0511393    
   1115000   301.5043       504.78477      53613.804     -21832.497      3372.9226     -18459.574      1.0640442    
   1116000   295.90944      504.45827      53478.214     -21675.46       3310.333      -18365.127      1.066742     
   1117000   299.666       -291.96699      54306.688     -21671.103      3352.3576     -18318.746      1.0504684    
   1118000   302.52533      519.52288      53528.37      -21724.78       3384.3448     -18340.435      1.0657425    
   1119000   305.41477      393.58099      53970.26      -21759.331      3416.669      -18342.662      1.0570165    
   1120000   297.67118     -61.020073      54004.158     -21679.727      3330.0415     -18349.685      1.0563531    
   1121000   300.51071      150.05226      54169.717     -21590.477      3361.8073     -18228.67       1.0531245    
   1122000   297.94112     -419.49105      54205.696     -21490.866      3333.0614     -18157.804      1.0524255    
   1123000   295.01879     -464.80729      53999.474     -21600.079      3300.3694     -18299.709      1.0564447    
   1124000   306.91046     -228.52967      54002.386     -21748.293      3433.4012     -18314.892      1.0563877    
   1125000   292.91196     -344.44376      53494.059     -21642.881      3276.8003     -18366.08       1.066426     
   1126000   302.39395     -602.43106      53913.847     -21711.201      3382.8751     -18328.326      1.0581226    
   1127000   307.97421     -150.345        53959.524     -21687.03       3445.3014     -18241.729      1.0572268    
   1128000   296.33427      72.578758      53522.617     -21800.639      3315.0856     -18485.554      1.065857     
   1129000   302.55098      87.007141      53442.555     -21846.928      3384.6318     -18462.297      1.0674538    
   1130000   303.17289      367.73211      53781.961     -21912.353      3391.5891     -18520.764      1.0607173    
   1131000   302.82138      283.57742      53679.034     -21816.842      3387.6567     -18429.185      1.0627512    
   1132000   298.85507     -536.88359      54526.393     -21624.163      3343.2857     -18280.877      1.0462357    
   1133000   298.28993      253.66245      54521.696     -21563.346      3336.9635     -18226.383      1.0463258    
   1134000   303.05625     -597.72808      54240.101     -21726.806      3390.2842     -18336.522      1.051758     
   1135000   299.21092      161.5917       53792.891     -21617.577      3347.2666     -18270.31       1.0605018    
   1136000   302.20581      127.39705      53324.861     -21691.114      3380.7704     -18310.343      1.0698098    
   1137000   296.1288      -74.279922      53761.124     -21674.111      3312.787      -18361.324      1.0611284    
   1138000   293.60346     -17.059191      54162.293     -21609.925      3284.5361     -18325.389      1.0532689    
   1139000   300.66461      549.31128      53672.335     -21578.357      3363.529      -18214.828      1.0628838    
   1140000   297.63476      529.00974      53472.639     -21632.677      3329.6341     -18303.043      1.0668532    
   1141000   297.44481      58.88733       53660.501     -21783.851      3327.5092     -18456.342      1.0631183    
   1142000   299.25102      117.34645      53660.409     -21732.164      3347.7152     -18384.449      1.0631201    
   1143000   303.19002     -49.178923      53740.559     -21628.465      3391.7807     -18236.684      1.0615345    
   1144000   297.7867      -337.51014      53756.974     -21593.401      3331.3338     -18262.067      1.0612104    
   1145000   295.81207      11.778784      53498.911     -21542.123      3309.2437     -18232.879      1.0663293    
   1146000   300.9194      -305.31892      53965.363     -21777.982      3366.3793     -18411.603      1.0571125    
   1147000   303.3232      -353.02901      54234.95      -21558.578      3393.2706     -18165.308      1.0518579    
   1148000   299.24574      1024.2743      53735.015     -21689.737      3347.6562     -18342.08       1.061644     
   1149000   293.77565      282.23852      54064.636     -21607.717      3286.4624     -18321.255      1.0551714    
   1150000   301.6499       507.57031      53794.077     -21712.418      3374.5514     -18337.867      1.0604784    
   1151000   300.69052      67.191857      53804.571     -21684.857      3363.8189     -18321.039      1.0602716    
   1152000   302.97525      1140.7564      53888.721     -21666.48       3389.3781     -18277.102      1.0586159    
   1153000   298.44566      309.0402       54103.549     -21641.291      3338.7056     -18302.586      1.0544125    
   1154000   301.94422     -73.589572      53687.046     -21729.156      3377.844      -18351.312      1.0625926    
   1155000   300.84525      992.57339      53832.867     -21630.225      3365.5499     -18264.675      1.0597143    
   1156000   303.7057      -213.18646      53312.141     -21718.308      3397.5496     -18320.758      1.070065     
   1157000   310.31203     -868.64297      54247.31      -21662.816      3471.4545     -18191.361      1.0516182    
   1158000   295.04643      381.11051      53830.61      -21824.693      3300.6786     -18524.014      1.0597587    
   1159000   301.3838       165.21516      53471.296     -21694.451      3371.5746     -18322.876      1.06688      
   1160000   300.17584     -244.83713      53897.076     -21685.68       3358.0611     -18327.619      1.0584518    
   1161000   298.2885      -51.83048       53379.028     -21728.141      3336.9475     -18391.194      1.0687242    
   1162000   298.02262     -463.32003      53816.174     -21669.855      3333.9731     -18335.882      1.060043     
   1163000   300.84691      748.39671      53285.908     -21674.203      3365.5684     -18308.635      1.0705918    
   1164000   301.75166      864.85048      53716.38      -21643.836      3375.6898     -18268.146      1.0620123    
   1165000   294.80851      31.864967      53907.626     -21623.091      3298.017      -18325.074      1.0582447    
   1166000   302.1321      -220.06928      54413.531     -21675.075      3379.9458     -18295.129      1.0484057    
   1167000   301.11146     -367.35505      53980.061     -21558.135      3368.5279     -18189.607      1.0568246    
   1168000   298.50085     -83.683428      54087.136     -21682.19       3339.3231     -18342.867      1.0547324    
   1169000   294.69929      178.9386       54178.237     -21746.019      3296.7951     -18449.224      1.0529589    
   1170000   302.50717     -610.75263      54121.742     -21698.566      3384.1417     -18314.425      1.054058     
   1171000   293.56867      339.85105      53089.402     -21711.33       3284.1468     -18427.183      1.0745545    
   1172000   292.55267     -41.577037      53718.526     -21702.746      3272.7809     -18429.965      1.0619699    
   1173000   294.33188      164.30132      54158.27      -21746.462      3292.6848     -18453.777      1.0533471    
   1174000   300.57686     -689.68361      53533.627     -21724.905      3362.5474     -18362.357      1.0656378    
   1175000   305.33581     -445.06086      53575.475     -21702.213      3415.7857     -18286.427      1.0648055    
   1176000   291.7059       128.7843       53594.095     -21702.406      3263.308      -18439.098      1.0644355    
   1177000   302.53828     -82.514846      53678.19      -21732.425      3384.4897     -18347.935      1.0627679    
   1178000   303.6667       1027.0525      53728.761     -21773.194      3397.1133     -18376.081      1.0617676    
   1179000   296.33745      589.23134      53688.332     -21675.228      3315.1212     -18360.107      1.0625672    
   1180000   295.19003     -340.09017      54251.847     -21673.358      3302.285      -18371.073      1.0515302    
   1181000   305.64408      54.465311      53378.487     -21650.975      3419.2343     -18231.74       1.068735     
   1182000   301.344        201.27583      53895.792     -21738.522      3371.1293     -18367.392      1.058477     
   1183000   298.28997     -412.90871      53590.898     -21617.396      3336.964      -18280.432      1.064499     
   1184000   303.66172     -131.15278      53860.278     -21731.808      3397.0577     -18334.75       1.059175     
   1185000   296.33092      27.339237      53995.48      -21650.389      3315.0481     -18335.341      1.0565228    
   1186000   295.83896     -94.372378      53628.73      -21649.659      3309.5445     -18340.114      1.0637481    
   1187000   301.79241      453.37172      53824.795     -21593.119      3376.1456     -18216.973      1.0598732    
   1188000   299.44592     -1038.9156      53731.509     -21724.472      3349.8956     -18374.576      1.0617133    
   1189000   292.77587      131.68047      54160.438     -21590.002      3275.2779     -18314.724      1.0533049    
   1190000   302.38348      116.9545       54032.658     -21584.293      3382.758      -18201.535      1.0557959    
   1191000   296.88358      561.12085      53785.584     -21640.416      3321.2307     -18319.185      1.0606459    
   1192000   296.82268     -406.97658      53646.253     -21686.961      3320.5495     -18366.412      1.0634006    
   1193000   301.21401     -122.00723      53226.784     -21714.25       3369.6751     -18344.575      1.071781     
   1194000   300.87135      54.128572      53205.163     -21746.124      3365.8418     -18380.282      1.0722166    
   1195000   302.18022     -568.66135      54075.804     -21666.592      3380.4842     -18286.107      1.0549535    
   1196000   305.72209     -696.24823      53756.939     -21526.699      3420.107      -18106.592      1.0612111    
   1197000   297.77446     -406.17398      53937.673     -21789.457      3331.1969     -18458.26       1.0576551    
   1198000   299.91052      354.43139      54027.787     -21612.809      3355.093      -18257.716      1.0558911    
   1199000   292.18352      174.18262      53684.589     -21663.215      3268.6513     -18394.563      1.0626412    
   1200000   300.46718     -421.05697      53834.911     -21789.129      3361.3204     -18427.809      1.059674     
   1201000   300.53275      424.44258      54151.485     -21709.291      3362.0539     -18347.237      1.0534791    
   1202000   299.64086     -235.88145      53936.621     -21625.34       3352.0764     -18273.264      1.0576758    
   1203000   302.17746     -588.90992      53418.423     -21717.579      3380.4532     -18337.126      1.067936     
   1204000   297.98668      78.7774        53578.317     -21786.443      3333.5711     -18452.872      1.064749     
   1205000   302.27924      80.119678      53963.252     -21798.56       3381.5919     -18416.968      1.0571538    
   1206000   296.52293     -27.97928       53926.664     -21743.594      3317.1961     -18426.398      1.0578711    
   1207000   305.80777     -613.54651      54440.457     -21724.962      3421.0654     -18303.897      1.0478872    
   1208000   305.2168       735.832        54077.577     -21668.484      3414.4543     -18254.029      1.0549189    
   1209000   304.60951     -346.26097      53888.499     -21675.661      3407.6606     -18268.001      1.0586203    
   1210000   299.02058     -242.62816      53608.022     -21747.397      3345.1373     -18402.26       1.064159     
   1211000   292.6817      -183.03524      53356.77      -21626.291      3274.2243     -18352.067      1.06917      
   1212000   299.54661      727.19606      53283.21      -21654.658      3351.022      -18303.636      1.070646     
   1213000   300.76323      815.17107      53401.626     -21718.444      3364.6323     -18353.812      1.0682719    
   1214000   293.8702      -276.96272      53285.87      -21614.347      3287.5201     -18326.826      1.0705926    
   1215000   300.08866      294.4541       53760.106     -21683.87       3357.0859     -18326.784      1.0611485    
   1216000   302.1148       310.34578      53646.644     -21592.079      3379.7522     -18212.327      1.0633929    
   1217000   300.4358       401.98772      53240.01      -21608.837      3360.9693     -18247.868      1.0715148    
   1218000   295.33578     -225.43899      54063.44      -21590.424      3303.9155     -18286.508      1.0551947    
   1219000   302.20054      804.8706       53581.275     -21635.358      3380.7115     -18254.647      1.0646902    
   1220000   301.37988     -1.7887808      54350.925     -21617.235      3371.5307     -18245.705      1.0496134    
   1221000   301.55013     -286.03298      53779.49      -21830.81       3373.4353     -18457.375      1.0607661    
   1222000   300.23822     -37.369207      53846.592     -21609.959      3358.759      -18251.2        1.0594442    
   1223000   303.45808     -537.47862      53924.84      -21723.295      3394.7795     -18328.515      1.0579068    
   1224000   298.3485      -354.07165      53938.788     -21740.719      3337.6187     -18403.101      1.0576333    
   1225000   296.97496      183.56519      53706.357     -21822.263      3322.253      -18500.01       1.0622105    
   1226000   303.65298      89.466333      54063.051     -21590.184      3396.9599     -18193.225      1.0552023    
   1227000   298.30547      248.86148      54069.921     -21791.299      3337.1373     -18454.162      1.0550683    
   1228000   304.03693      472.04342      53538.181     -21672.048      3401.2551     -18270.793      1.0655472    
   1229000   302.90934      256.74724      53942.034     -21694.44       3388.6407     -18305.799      1.0575696    
   1230000   303.66698     -643.69476      53342.217     -21721.679      3397.1165     -18324.563      1.0694617    
   1231000   295.6078      -1317.7221      54176.633     -21715.21       3306.9586     -18408.252      1.0529901    
   1232000   298.53702      857.65594      53409.877     -21602.454      3339.7277     -18262.726      1.0681069    
   1233000   293.49884     -125.59192      53781.959     -21682.591      3283.3657     -18399.225      1.0607174    
   1234000   296.90346     -52.846872      53721.501     -21767.275      3321.4531     -18445.822      1.0619111    
   1235000   301.77824     -972.03216      54272.656     -21604.093      3375.9872     -18228.106      1.0511271    
   1236000   300.47942      411.36528      53614.229     -21714.968      3361.4573     -18353.51       1.0640358    
   1237000   298.65829      424.01753      53761.636     -21685.168      3341.0844     -18344.084      1.0611183    
   1238000   297.08958      273.7451       54265.823     -21642.024      3323.5352     -18318.489      1.0512594    
   1239000   295.6041       751.41508      53493.669     -21752.852      3306.9172     -18445.935      1.0664338    
   1240000   295.7081       305.23679      54101.438     -21670.967      3308.0807     -18362.886      1.0544536    
   1241000   301.49512     -190.21784      54233.94      -21658.87       3372.8199     -18286.05       1.0518774    
   1242000   300.37986      559.16212      54040.898     -21760.595      3360.3435     -18400.252      1.0556349    
   1243000   309.94993     -319.50036      53948.928     -21724.042      3467.4037     -18256.638      1.0574345    
   1244000   298.11432     -917.09701      53482.719     -21636.484      3334.999      -18301.485      1.0666522    
   1245000   303.00072     -347.92778      53897.125     -21710.189      3389.663      -18320.526      1.0584509    
   1246000   301.10505      345.84874      53528.599     -21633.844      3368.4562     -18265.388      1.0657379    
   1247000   300.72232     -100.06191      53894.189     -21624.213      3364.1746     -18260.038      1.0585085    
   1248000   301.46857      822.63804      53664.023     -21647.071      3372.5229     -18274.548      1.0630485    
   1249000   299.32117     -264.74759      53780.553     -21650.627      3348.5        -18302.127      1.0607451    
   1250000   301.8858      -543.28716      53715.758     -21755.32       3377.1904     -18378.13       1.0620246    
   1251000   303.29336      53.647221      54129.171     -21680.137      3392.9367     -18287.2        1.0539134    
   1252000   299.73039      449.60008      53960.539     -21482.366      3353.078      -18129.288      1.057207     
   1253000   299.5773       21.753444      53706.221     -21616.96       3351.3654     -18265.594      1.0622132    
   1254000   308.06414     -232.32256      53906.496     -21691.905      3446.3074     -18245.598      1.0582668    
   1255000   298.22194     -126.27368      53700.026     -21712.083      3336.2029     -18375.88       1.0623358    
   1256000   298.03172     -314.18494      54339.051     -21509.832      3334.0749     -18175.757      1.0498427    
   1257000   300.87744      889.2157       53467.577     -21578.203      3365.91       -18212.293      1.0669542    
   1258000   294.93079      958.54602      53442.853     -21698.067      3299.3849     -18398.682      1.0674478    
   1259000   295.26933      280.42628      53832.497     -21571.912      3303.1721     -18268.739      1.0597216    
   1260000   301.77683     -300.51621      53680.314     -21708.636      3375.9714     -18332.664      1.0627259    
   1261000   300.13532      486.70911      53040.35      -21639.001      3357.6078     -18281.393      1.0755483    
   1262000   303.21082     -249.89271      53828.852     -21736.96       3392.0135     -18344.946      1.0597933    
   1263000   301.74404     -40.220889      53991.678     -21546.8        3375.6046     -18171.196      1.0565972    
   1264000   292.42998     -61.447243      53401.904     -21622.176      3271.4084     -18350.768      1.0682664    
   1265000   299.39754     -144.27803      53612.06      -21630.701      3349.3543     -18281.346      1.0640788    
   1266000   294.97158      141.0199       53648.09      -21560.046      3299.8412     -18260.205      1.0633642    
   1267000   293.31178     -293.81931      53792.073     -21546.916      3281.2731     -18265.643      1.0605179    
   1268000   297.03684     -658.55575      53553.29      -21628.885      3322.9452     -18305.94       1.0652466    
   1269000   293.39107     -194.12122      53855.348     -21722.738      3282.1601     -18440.578      1.0592719    
   1270000   296.06073     -716.97206      53876.236     -21785.988      3312.0255     -18473.962      1.0588612    
   1271000   294.78716     -358.52244      53941.128     -21642.324      3297.778      -18344.546      1.0575874    
   1272000   293.85641      890.13486      54005.984     -21724.856      3287.3658     -18437.491      1.0563173    
   1273000   300.35137     -293.75233      53893.426     -21545.354      3360.0248     -18185.33       1.0585235    
   1274000   295.13571     -86.06302       53876.468     -21640.41       3301.6773     -18338.732      1.0588567    
   1275000   302.69383     -58.045309      53769.355     -21760.846      3386.2298     -18374.616      1.060966     
   1276000   296.3853       433.04519      53895.441     -21793.658      3315.6565     -18478.002      1.0584839    
   1277000   298.81031     -165.48191      53458.645     -21662.878      3342.785      -18320.093      1.0671325    
   1278000   299.54856      106.92252      53394.436     -21788.54       3351.0437     -18437.496      1.0684158    
   1279000   295.28425     -861.65928      53983.139     -21632.917      3303.339      -18329.578      1.0567644    
   1280000   302.35857     -451.68366      53751.508     -21630.281      3382.4794     -18247.802      1.0613183    
   1281000   304.18077     -53.249024      53950.604     -21738.168      3402.8643     -18335.304      1.0574017    
   1282000   302.4351       248.43578      54195.242     -21660.905      3383.3354     -18277.57       1.0526285    
   1283000   298.88924     -403.70017      54010.295     -21758.954      3343.668      -18415.286      1.056233     
   1284000   295.76348     -146.52179      53709.256     -21688.839      3308.7002     -18380.139      1.0621532    
   1285000   302.10794     -680.37777      53708.995     -21717.534      3379.6756     -18337.858      1.0621583    
   1286000   299.40501      249.38902      53783.248     -21772.519      3349.4379     -18423.081      1.0606919    
   1287000   303.16612      733.21472      53923.221     -21588.073      3391.5134     -18196.56       1.0579386    
   1288000   296.38103      444.60378      53841.221     -21746.288      3315.6087     -18430.68       1.0595499    
   1289000   307.31681     -743.8643       53975.692     -21695.678      3437.9471     -18257.731      1.0569102    
   1290000   297.27463      319.52831      53499.069     -21631.865      3325.6053     -18306.259      1.0663262    
   1291000   296.27154      198.09105      53311.538     -21711.752      3314.3839     -18397.368      1.0700771    
   1292000   306.30713     -574.34145      53810.906     -21657.794      3426.6517     -18231.142      1.0601467    
   1293000   297.2626      -78.510078      53813.276     -21707.253      3325.4708     -18381.782      1.0601001    
   1294000   300.16886     -205.75811      53746.785     -21676.764      3357.983      -18318.781      1.0614115    
   1295000   301.48092      117.03865      53530.03      -21782.372      3372.661      -18409.711      1.0657094    
   1296000   299.46319     -337.33913      53468.721     -21702.866      3350.0888     -18352.777      1.0669314    
   1297000   299.27486     -277.66904      53773.707     -21708.186      3347.9819     -18360.204      1.0608801    
   1298000   300.15862     -160.48823      53422.488     -21736.454      3357.8686     -18378.586      1.0678547    
   1299000   303.06563      5.2644816      53306.603     -21726.487      3390.3892     -18336.098      1.0701762    
   1300000   295.26957     -22.430802      53453.253     -21816.338      3303.1748     -18513.163      1.0672401    
   1301000   298.26762     -429.99932      54096.021     -21763.149      3336.714      -18426.435      1.0545592    
   1302000   302.87521     -613.24825      53461.721     -21711.116      3388.2589     -18322.857      1.0670711    
   1303000   304.67703      175.34348      53944.654     -21622.19       3408.4159     -18213.774      1.0575183    
   1304000   292.99196      493.54086      53435.371     -21792.344      3277.6953     -18514.649      1.0675973    
   1305000   299.72962      749.01475      53442.81      -21552.748      3353.0693     -18199.679      1.0674487    
   1306000   299.63224      8.2032608      53450.328     -21666.768      3351.9799     -18314.788      1.0672985    
   1307000   297.64394      188.38919      53614.002     -21683.582      3329.7369     -18353.845      1.0640403    
   1308000   302.60817      154.46539      53832.144     -21717.753      3385.2716     -18332.481      1.0597285    
   1309000   305.21678      571.51938      53740.08      -21700.015      3414.454      -18285.561      1.061544     
   1310000   297.08892      642.97399      53608.714     -21668.815      3323.5278     -18345.288      1.0641452    
   1311000   308.37078      1187.6591      53464.359     -21663.956      3449.7377     -18214.218      1.0670185    
   1312000   303.17915      666.27323      53698.405     -21655.653      3391.6591     -18263.994      1.0623678    
   1313000   300.58095      760.29052      53706.486     -21674.471      3362.5932     -18311.877      1.062208     
   1314000   304.34037      670.1434       53554.373     -21801.794      3404.6497     -18397.144      1.065225     
   1315000   298.87096      454.32479      53484.655     -21710.289      3343.4635     -18366.825      1.0666136    
   1316000   296.44974     -315.47423      53650.755     -21778.689      3316.3774     -18462.312      1.0633114    
   1317000   296.4183      -258.03904      54000.161     -21698.382      3316.0257     -18382.356      1.0564312    
   1318000   295.04779     -482.76922      53898.44      -21684.176      3300.6938     -18383.482      1.058425     
   1319000   297.65052     -1.9961494      53527.212     -21646.25       3329.8104     -18316.44       1.0657655    
   1320000   291.37212      494.74529      53727.218     -21674.428      3259.5741     -18414.854      1.0617981    
   1321000   292.69612      591.96121      53300.897     -21616.716      3274.3856     -18342.33       1.0702908    
   1322000   298.18408      157.2439       53700.381     -21685.255      3335.7794     -18349.476      1.0623287    
   1323000   304.99333     -666.14705      54018.991     -21727.08       3411.9543     -18315.126      1.056063     
   1324000   298.6872      -237.43906      53628.109     -21654.356      3341.4077     -18312.949      1.0637604    
   1325000   305.32391     -276.36636      53823.498     -21784.611      3415.6525     -18368.958      1.0598987    
   1326000   304.51971      650.9503       53370.456     -21741.691      3406.6559     -18335.035      1.0688958    
   1327000   293.08562      122.21566      53741.579     -21719.048      3278.743      -18440.305      1.0615144    
   1328000   304.50349      404.8193       53322.99      -21873.957      3406.4745     -18467.483      1.0698473    
   1329000   299.18957     -244.99596      53726.551     -21655.352      3347.0278     -18308.324      1.0618113    
   1330000   294.3437       158.88328      53577.24      -21683.156      3292.8171     -18390.339      1.0647704    
   1331000   304.9127       712.21115      53349.351     -21651.945      3411.0523     -18240.893      1.0693187    
   1332000   299.62587     -382.32691      53888.371     -21658.602      3351.9086     -18306.693      1.0586228    
   1333000   300.91363      199.45905      54006.97      -21667.546      3366.3148     -18301.232      1.0562981    
   1334000   298.59848      624.82693      53889.89      -21637.575      3340.4153     -18297.159      1.058593     
   1335000   304.43053     -80.594481      54087.696     -21671.754      3405.6583     -18266.096      1.0547215    
   1336000   297.23825     -796.55672      53983.497     -21601.948      3325.1983     -18276.749      1.0567574    
   1337000   306.16684      409.19988      53487.325     -21721.207      3425.0824     -18296.125      1.0665603    
   1338000   299.15314     -508.60953      53553.606     -21661.376      3346.6202     -18314.756      1.0652403    
   1339000   297.66392      174.19825      54376.244     -21653.314      3329.9604     -18323.353      1.0491246    
   1340000   301.72848     -90.607225      53820.636     -21585.5        3375.4305     -18210.069      1.0599551    
   1341000   297.00469      189.10118      53713.586     -21687.285      3322.5855     -18364.699      1.0620676    
   1342000   290.48939     -0.52615396     53717.457     -21804.143      3249.699      -18554.444      1.061991     
   1343000   296.41057     -918.19183      53867.147     -21633.196      3315.9391     -18317.257      1.0590399    
   1344000   295.355       -397.14597      53331.364     -21735.076      3304.1305     -18430.946      1.0696793    
   1345000   302.00526     -869.60892      54105.121     -21542.18       3378.5268     -18163.654      1.0543818    
   1346000   303.51748      1399.5232      53611.013     -21729.961      3395.444      -18334.517      1.0640996    
   1347000   293.15712     -873.70988      53955.548     -21606.423      3279.5428     -18326.88       1.0573048    
   1348000   298.56372     -615.28262      53586.106     -21721.028      3340.0264     -18381.001      1.0645942    
   1349000   297.68538     -122.26702      53977.942     -21717.405      3330.2004     -18387.205      1.0568661    
   1350000   295.08535     -471.88933      53898.058     -21673.725      3301.114      -18372.611      1.0584325    
   1351000   302.59197      101.27319      53282.312     -21648.278      3385.0904     -18263.188      1.0706641    
   1352000   295.72777      137.51572      53843.025     -21701.554      3308.3006     -18393.253      1.0595144    
   1353000   308.44639      614.51037      53562.896     -21597.945      3450.5836     -18147.361      1.0650555    
   1354000   298.78516      140.63925      53929.536     -21670.273      3342.5036     -18327.769      1.0578147    
   1355000   301.30242     -428.07961      53897.994     -21706.235      3370.6642     -18335.571      1.0584338    
   1356000   299.61446     -183.70215      53791.723     -21617.028      3351.781      -18265.247      1.0605248    
   1357000   305.73985     -488.99676      53978.292     -21663.7        3420.3056     -18243.395      1.0568593    
   1358000   302.84083     -97.658245      53760.43      -21545.739      3387.8744     -18157.864      1.0611421    
   1359000   301.04559      152.6396       53228.148     -21790.032      3367.7911     -18422.241      1.0717536    
   1360000   295.67215      205.35936      54363.497     -21454.258      3307.6784     -18146.579      1.0493706    
   1361000   295.45826     -1020.3419      54376.672     -21639.568      3305.2856     -18334.282      1.0491164    
   1362000   304.10478      522.00926      53632.436     -21744.882      3402.0141     -18342.868      1.0636746    
   1363000   299.34017      656.98551      53394.319     -21758.73       3348.7125     -18410.017      1.0684181    
   1364000   298.76444     -42.014078      54076.778     -21650.716      3342.2718     -18308.444      1.0549345    
   1365000   305.93448      711.25988      53820.279     -21743.532      3422.483      -18321.049      1.0599621    
   1366000   307.73698      960.64799      53653.437     -21710.98       3442.6475     -18268.333      1.0632582    
   1367000   305.45043     -256.34505      53483.012     -21704.714      3417.0679     -18287.646      1.0666463    
   1368000   296.55021      252.37419      53595.113     -21677.437      3317.5013     -18359.935      1.0644153    
   1369000   295.89561      342.95973      53934.018     -21700.139      3310.1783     -18389.961      1.0577268    
   1370000   305.84645      435.8763       53438.472     -21741.237      3421.4982     -18319.739      1.0675353    
   1371000   299.64089     -326.17682      53640.912     -21658.702      3352.0767     -18306.626      1.0635065    
   1372000   303.83072      105.61797      53433.363     -21593.602      3398.9482     -18194.653      1.0676374    
   1373000   300.99637      770.59456      53700.725     -21646.335      3367.2404     -18279.095      1.0623219    
   1374000   295.58511      24.055902      54120.901     -21598.876      3306.7048     -18292.171      1.0540744    
   1375000   301.95928     -516.84335      54123.799     -21657.985      3378.0124     -18279.973      1.054018     
   1376000   300.94056      609.95863      53400.781     -21641.946      3366.616      -18275.33       1.0682888    
   1377000   298.56953     -686.28208      54604.987     -21619.853      3340.0914     -18279.762      1.0447298    
   1378000   295.7962      -334.16493      53633.354     -21614.386      3309.0662     -18305.32       1.0636564    
   1379000   303.45341      239.96666      53581.234     -21676.059      3394.7273     -18281.332      1.064691     
   1380000   306.48716     -628.71122      54295.508     -21601.386      3428.6657     -18172.72       1.0506847    
   1381000   296.47038     -356.79684      53720.615     -21638.051      3316.6082     -18321.443      1.0619286    
   1382000   303.1468       482.5533       53848.45      -21667.179      3391.2972     -18275.882      1.0594076    
   1383000   309.0188       314.56144      53427.241     -21605.531      3456.9872     -18148.543      1.0677598    
   1384000   289.06083      85.854275      53674.016     -21743.223      3233.7178     -18509.505      1.0628506    
   1385000   300.66884      1010.5182      53696.063     -21704.984      3363.5763     -18341.408      1.0624142    
   1386000   297.03429     -558.65198      53634.458     -21600.063      3322.9166     -18277.146      1.0636345    
   1387000   297.52985     -1283.2502      54003.781     -21708.598      3328.4605     -18380.137      1.0563604    
   1388000   295.99671     -999.37745      54270.568     -21673.538      3311.3093     -18362.229      1.0511675    
   1389000   302.23611      118.85996      54272.844     -21628.168      3381.1093     -18247.058      1.0511234    
   1390000   295.97982     -68.796037      53909.075     -21773.634      3311.1203     -18462.513      1.0582162    
   1391000   296.96736     -385.47409      54214.59      -21568.759      3322.1679     -18246.591      1.0522529    
   1392000   302.21984      161.62924      53823.068     -21666.451      3380.9274     -18285.524      1.0599072    
   1393000   306.10677      255.86219      53918.037     -21591.459      3424.4104     -18167.049      1.0580403    
   1394000   300.4039      -213.96223      53460.82      -21660.546      3360.6125     -18299.933      1.0670891    
   1395000   301.92478      88.887508      53564.751     -21668.854      3377.6266     -18291.227      1.0650186    
   1396000   308.81579     -95.736363      53979.534     -21621.147      3454.7161     -18166.431      1.0568349    
   1397000   304.45295      221.88851      54291.553     -21666.071      3405.9091     -18260.162      1.0507612    
   1398000   306.68619      135.08173      54152.686     -21655.615      3430.8923     -18224.723      1.0534557    
   1399000   302.82857      847.74287      53536.67      -21738.908      3387.7372     -18351.171      1.0655772    
   1400000   299.82102     -11.633307      53697.794     -21657.942      3354.0918     -18303.85       1.0623799    
   1401000   293.37218      54.858535      54024.693     -21588.771      3281.9488     -18306.822      1.0559515    
   1402000   305.53058      815.439        53548.034     -21751.533      3417.9645     -18333.569      1.0653511    
   1403000   300.81753      89.592964      53735.581     -21652.78       3365.2398     -18287.541      1.0616329    
   1404000   296.70683     -11.576127      54326.305     -21757.921      3319.2535     -18438.667      1.050089     
   1405000   296.95886     -523.40992      53896.301     -21627.112      3322.0729     -18305.039      1.058467     
   1406000   301.17477     -22.866811      54389.276     -21689.189      3369.2362     -18319.953      1.0488733    
   1407000   300.17585      227.44717      54074.717     -21627.988      3358.0613     -18269.927      1.0549747    
   1408000   304.59313     -635.79331      54137.028     -21831.236      3407.4772     -18423.759      1.0537604    
   1409000   306.99905     -152.72801      53607.305     -21602.41       3434.3923     -18168.018      1.0641732    
   1410000   306.26898     -888.97354      53979.156     -21699.768      3426.225      -18273.543      1.0568423    
   1411000   288.56306      213.58145      53736.497     -21583.32       3228.1493     -18355.17       1.0616148    
   1412000   301.29481      215.0344       53487.666     -21731.859      3370.579      -18361.28       1.0665535    
   1413000   292.85678     -365.44266      54306.439     -21708.67       3276.1829     -18432.487      1.0504732    
   1414000   302.47888     -315.65704      53988.697     -21704.609      3383.8252     -18320.784      1.0566556    
   1415000   301.94301      354.63135      53559.397     -21672.304      3377.8304     -18294.474      1.0651251    
   1416000   303.66401      606.22248      53318.652     -21667.874      3397.0833     -18270.791      1.0699344    
   1417000   295.85693      32.937202      53897.154     -21537.834      3309.7456     -18228.088      1.0584503    
   1418000   304.93974      120.16677      53665.386     -21659.528      3411.3548     -18248.174      1.0630215    
   1419000   299.77601     -425.13039      53806.892     -21624.334      3353.5882     -18270.746      1.0602258    
   1420000   304.43258      303.25917      53982.419     -21662.993      3405.6813     -18257.312      1.0567785    
   1421000   301.1883       927.23348      53817.55      -21675.713      3369.3875     -18306.325      1.0600159    
   1422000   299.6637      -388.95882      53579.855     -21622.794      3352.3319     -18270.462      1.0647184    
   1423000   299.17305     -103.99185      54405.961     -21656.665      3346.8429     -18309.822      1.0485516    
   1424000   305.31594      57.583454      53986.804     -21722.066      3415.5633     -18306.503      1.0566926    
   1425000   299.26097     -334.94291      53899.542     -21660.985      3347.8265     -18313.159      1.0584034    
   1426000   292.59596     -232.75135      53946.036     -21680.641      3273.2652     -18407.376      1.0574912    
   1427000   299.49695      128.4327       53352.034     -21766.2        3350.4664     -18415.734      1.0692649    
   1428000   294.78336     -359.55171      54048.881     -21799.057      3297.7356     -18501.321      1.055479     
   1429000   295.37048      242.6592       53987.787     -21718.381      3304.3036     -18414.078      1.0566734    
   1430000   296.57159     -41.782344      54126.957     -21792.754      3317.7405     -18475.013      1.0539565    
   1431000   302.24853      741.75114      53627.821     -21583.959      3381.2483     -18202.71       1.0637661    
   1432000   302.09702      350.75334      53640.855     -21558.204      3379.5533     -18178.651      1.0635076    
   1433000   293.56853      16.60999       53476.106     -21719.798      3284.1454     -18435.653      1.0667841    
   1434000   303.41361     -228.4856       53901.577     -21757.371      3394.282      -18363.089      1.0583634    
   1435000   304.40482     -324.61831      54155.607     -21751.43       3405.3707     -18346.06       1.0533989    
   1436000   290.70675     -44.095275      53747.904     -21819.684      3252.1307     -18567.554      1.0613894    
   1437000   294.27879     -879.02351      53811.022     -21699.677      3292.091      -18407.586      1.0601445    
   1438000   301.12278     -516.11689      54208.578     -21755.521      3368.6545     -18386.866      1.0523696    
   1439000   291.53013     -659.97406      53985.186     -21666.092      3261.3418     -18404.75       1.0567243    
   1440000   290.81121     -301.96225      54337.628     -21811.001      3253.2992     -18557.702      1.0498702    
   1441000   299.9246      -58.516159      53990.952     -21790.877      3355.2505     -18435.627      1.0566114    
   1442000   302.32095     -293.28382      53906.357     -21634.812      3382.0585     -18252.754      1.0582696    
   1443000   303.40223     -105.20226      53727.005     -21817.022      3394.1547     -18422.868      1.0618023    
   1444000   298.01433     -77.298875      53791.303     -21679.138      3333.8804     -18345.258      1.0605331    
   1445000   295.91068      413.87551      53546.998     -21696.842      3310.3469     -18386.496      1.0653717    
   1446000   294.24382     -403.97459      53489.645     -21709.734      3291.6998     -18418.034      1.0665141    
   1447000   297.88176     -108.72628      54161.604     -21628.859      3332.3973     -18296.461      1.0532823    
   1448000   294.92791     -654.07215      53763.571     -21729.884      3299.3527     -18430.531      1.0610801    
   1449000   299.04163     -226.81203      53374.535     -21676.43       3345.3727     -18331.057      1.0688141    
   1450000   300.27523     -242.13921      53717.701     -21666.53       3359.173      -18307.357      1.0619862    
   1451000   299.64422      350.76732      53920.424     -21744.214      3352.114      -18392.1        1.0579935    
   1452000   299.51895      220.43726      53687.45      -21710.848      3350.7125     -18360.135      1.0625846    
   1453000   301.0269      -83.050618      53836.088     -21722.235      3367.582      -18354.653      1.0596509    
   1454000   299.35323      387.18733      53394.392     -21709.562      3348.8587     -18360.703      1.0684167    
   1455000   307.50211      490.51047      53369.556     -21710.99       3440.02       -18270.97       1.0689138    
   1456000   297.28918     -303.13657      53729.596     -21639.067      3325.7681     -18313.299      1.0617511    
   1457000   295.29084     -121.8721       53405.977     -21694.341      3303.4127     -18390.928      1.0681849    
   1458000   293.67719      22.963879      53378.955     -21758.704      3285.3609     -18473.343      1.0687256    
   1459000   297.91473     -134.48196      54016.238     -21603.921      3332.7662     -18271.155      1.0561168    
   1460000   295.53208      734.72681      53780.954     -21732.961      3306.1115     -18426.85       1.0607372    
   1461000   297.54805     -503.80518      53372.91      -21723.821      3328.6641     -18395.157      1.0688467    
   1462000   304.45144     -150.465        53886.403     -21634.583      3405.8922     -18228.69       1.0586614    
   1463000   300.74162      435.82361      53617.374     -21704.098      3364.3905     -18339.708      1.0639734    
   1464000   296.0919       106.99149      52895.089     -21861.924      3312.3742     -18549.55       1.078502     
   1465000   302.01632     -552.87721      53653.656     -21837.509      3378.6506     -18458.858      1.0632539    
   1466000   296.56173     -222.5355       53422.975     -21624.353      3317.6301     -18306.722      1.067845     
   1467000   297.46955     -992.17014      54157.821     -21614.671      3327.7859     -18286.885      1.0533558    
   1468000   301.00655     -21.487244      53745.14      -21699.58       3367.3543     -18332.225      1.061444     
   1469000   299.59454      212.91375      54611.807     -21671.748      3351.5582     -18320.19       1.0445993    
   1470000   306.98092     -121.09627      54065.359     -21678.671      3434.1894     -18244.482      1.0551573    
   1471000   299.80328      12.038984      54047.47      -21550.289      3353.8934     -18196.396      1.0555065    
   1472000   300.90682     -324.84213      54443.132     -21687.161      3366.2386     -18320.923      1.0478357    
   1473000   303.18755      842.07034      54163.938     -21747.965      3391.7531     -18356.212      1.0532369    
   1474000   298.78173      327.05392      54152.774     -21669.638      3342.4653     -18327.173      1.053454     
   1475000   303.54552      506.00548      53926.805     -21737.735      3395.7577     -18341.977      1.0578683    
   1476000   296.25061     -201.81932      53803.077     -21634.02       3314.1497     -18319.87       1.060301     
   1477000   298.25125      557.16085      53743.7       -21627.689      3336.5309     -18291.158      1.0614725    
   1478000   302.37385     -220.51174      54078.651     -21769.408      3382.6503     -18386.757      1.0548979    
   1479000   303.49807      722.98656      53247.395     -21686.699      3395.2269     -18291.472      1.0713662    
   1480000   295.30866      72.179274      53426.967     -21669.159      3303.6121     -18365.547      1.0677652    
   1481000   307.84165      69.943747      53516.507     -21653.793      3443.8185     -18209.974      1.0659787    
   1482000   296.77158     -331.12502      53545.873     -21709.389      3319.9778     -18389.411      1.0653941    
   1483000   298.97038     -179.52078      53469.21      -21764.16       3344.5757     -18419.584      1.0669216    
   1484000   307.58848     -30.872776      54151.62      -21616.204      3440.9862     -18175.218      1.0534765    
   1485000   298.69297      270.82617      54102.569     -21743.133      3341.4723     -18401.661      1.0544316    
   1486000   295.69003      176.74193      53763.598     -21656.542      3307.8785     -18348.664      1.0610796    
   1487000   297.23206     -124.62118      53427.542     -21686.164      3325.1291     -18361.035      1.0677537    
   1488000   297.22553      777.93623      53359.567     -21706.155      3325.0561     -18381.099      1.069114     
   1489000   296.00928     -369.64108      53418.279     -21807.502      3311.45       -18496.052      1.0679389    
   1490000   306.61222      435.35141      53785.014     -21662.676      3430.0648     -18232.611      1.0606571    
   1491000   300.9956       449.84545      53650.201     -21680.177      3367.2318     -18312.945      1.0633223    
   1492000   306.06318     -134.58745      54265.654     -21576.746      3423.9227     -18152.824      1.0512627    
   1493000   291.85664      169.20353      53917.459     -21604.044      3264.9945     -18339.05       1.0580517    
   1494000   300.91225      196.83747      53517.844     -21555.486      3366.2993     -18189.187      1.0659521    
   1495000   300.93992     -341.92627      53357.43      -21632.442      3366.6089     -18265.833      1.0691568    
   1496000   296.1046      -119.25393      54208.679     -21618.696      3312.5163     -18306.18       1.0523676    
   1497000   292.06618     -513.39598      54119.772     -21621.11       3267.3385     -18353.772      1.0540964    
   1498000   294.97047     -175.57666      53651.021     -21681.596      3299.8287     -18381.767      1.0633061    
   1499000   306.11499      623.75078      54199.977     -21622.199      3424.5023     -18197.697      1.0525366    
   1500000   300.90993      743.18183      53508.594     -21624.435      3366.2734     -18258.162      1.0661364    
   1501000   303.30153     -272.07653      54142.17      -21577.807      3393.0282     -18184.779      1.0536603    
   1502000   302.3772       248.43392      53999.007     -21800.91       3382.6877     -18418.222      1.0564538    
   1503000   292.87732     -562.32884      54223.808     -21706.841      3276.4128     -18430.428      1.052074     
   1504000   305.90776      438.63283      53091.164     -21696.696      3422.184      -18274.512      1.0745189    
   1505000   303.00891     -47.507817      53715.191     -21863.223      3389.7547     -18473.468      1.0620358    
   1506000   303.93763     -650.68408      53911.102     -21686.229      3400.1443     -18286.085      1.0581764    
   1507000   306.20832      245.18677      53046.937     -21824.52       3425.5463     -18398.973      1.0754147    
   1508000   301.20966      552.93247      53987.625     -21632.005      3369.6265     -18262.379      1.0566766    
   1509000   300.45733      131.35121      53635.458     -21651.617      3361.2102     -18290.407      1.0636146    
   1510000   297.40044      359.87623      53785.282     -21694.421      3327.0128     -18367.408      1.0606518    
   1511000   304.13761     -267.53418      54124.372     -21774.164      3402.3814     -18371.782      1.0540068    
   1512000   297.86592      671.74863      53457.24      -21711.676      3332.2201     -18379.456      1.0671606    
   1513000   300.0726      -126.70576      53916.461     -21569.9        3356.9062     -18212.994      1.0580713    
   1514000   301.87088     -397.9682       53760.157     -21727.484      3377.0236     -18350.461      1.0611475    
   1515000   303.9457      -121.99775      54121.529     -21660.276      3400.2345     -18260.042      1.0540622    
   1516000   294.34875     -130.6992       54428.428     -21722.717      3292.8736     -18429.844      1.0481188    
   1517000   297.72485      327.58098      54098.928     -21657.99       3330.6419     -18327.348      1.0545025    
   1518000   301.28574     -856.50817      54219.434     -21748.055      3370.4776     -18377.577      1.0521589    
   1519000   288.22868      441.68422      53901.698     -21726.694      3224.4085     -18502.286      1.0583611    
   1520000   297.32974      260.89205      53577.262     -21712.761      3326.2219     -18386.539      1.0647699    
   1521000   303.97235      69.225817      53498.274     -21733.737      3400.5326     -18333.205      1.066342     
   1522000   302.04912      108.39058      54264.804     -21576.143      3379.0175     -18197.125      1.0512792    
   1523000   296.65094     -136.28624      53815.062     -21683.066      3318.6281     -18364.438      1.0600649    
   1524000   294.53238      378.04411      53405.683     -21648.81       3294.9279     -18353.883      1.0681908    
   1525000   293.66545      97.78584       53618.502     -21638.506      3285.2296     -18353.276      1.063951     
   1526000   300.11463      226.63395      54136.181     -21717.609      3357.3764     -18360.233      1.0537769    
   1527000   299.96316     -365.3465       54033.815     -21578.268      3355.6819     -18222.586      1.0557733    
   1528000   305.16995     -1387.4501      54565.454     -21694.42       3413.9302     -18280.489      1.0454867    
   1529000   294.60167      126.37431      53661.916     -21719.58       3295.7031     -18423.877      1.0630902    
   1530000   297.71369      24.244003      53425.964     -21708.075      3330.5171     -18377.558      1.0677853    
   1531000   293.40244      127.20242      53366.071     -21711.401      3282.2873     -18429.114      1.0689837    
   1532000   303.30144      124.80912      53744.2       -21691.364      3393.0271     -18298.337      1.0614626    
   1533000   301.17401     -62.513542      53993.323     -21591.44       3369.2276     -18222.212      1.056565     
   1534000   294.67792      608.32173      53765.931     -21752.669      3296.5561     -18456.113      1.0610336    
   1535000   301.7765       544.55631      53489.861     -21777.773      3375.9678     -18401.805      1.0665097    
   1536000   299.24965     -101.03285      53756.145     -21658.333      3347.6999     -18310.634      1.0612267    
   1537000   297.11254     -35.580295      53736.163     -21629.478      3323.7921     -18305.686      1.0616214    
   1538000   298.90798     -342.19231      53934.367     -21634.04       3343.8777     -18290.162      1.05772      
   1539000   302.04782      297.87008      53879.701     -21812.953      3379.0029     -18433.95       1.0587931    
   1540000   299.56604     -164.96643      53854.188     -21644.363      3351.2393     -18293.124      1.0592947    
   1541000   296.19947     -361.46617      53589.429     -21730.677      3313.5776     -18417.099      1.0645282    
   1542000   302.1862      -871.46876      53347.302     -21754.833      3380.551      -18374.282      1.0693597    
   1543000   302.3445      -546.38861      53500.058     -21692.823      3382.3219     -18310.501      1.0663065    
   1544000   299.07534      115.18793      53425.233     -21674.84       3345.7499     -18329.09       1.0677999    
   1545000   295.7268       257.0419       53771.083     -21666.054      3308.2898     -18357.764      1.0609319    
   1546000   303.4125      -261.64493      53783.151     -21691.225      3394.2696     -18296.956      1.0606938    
   1547000   300.97546     -61.320085      53967.243     -21748.998      3367.0064     -18381.991      1.0570756    
   1548000   301.99781      599.7473       53705.523     -21648.033      3378.4435     -18269.589      1.062227     
   1549000   299.5353      -249.78635      53690.843     -21753.748      3350.8955     -18402.852      1.0625174    
   1550000   296.85549     -528.89672      54035.685     -21658.665      3320.9165     -18337.749      1.0557367    
   1551000   297.90458     -359.57509      54163.735     -21787.128      3332.6526     -18454.476      1.0532408    
   1552000   301.22576      455.79788      53473.82      -21595.102      3369.8066     -18225.295      1.0668297    
   1553000   295.69392      227.88893      54233.05      -21719.562      3307.922      -18411.64       1.0518947    
   1554000   300.95664     -98.943418      53585.7       -21738.458      3366.7959     -18371.662      1.0646023    
   1555000   303.10269      666.79098      53810.069     -21711.045      3390.8038     -18320.241      1.0601633    
   1556000   309.02407      676.8006       54019.451     -21713.118      3457.0462     -18256.072      1.056054     
   1557000   305.5707       168.82601      53755.853     -21678.617      3418.4133     -18260.203      1.0612325    
   1558000   295.95609      64.661538      53806.907     -21698.578      3310.8549     -18387.724      1.0602256    
   1559000   300.43578      223.42096      53688.879     -21700.285      3360.9691     -18339.316      1.0625563    
   1560000   300.32451     -255.12978      53561.03      -21681.632      3359.7243     -18321.908      1.0650926    
   1561000   292.71851     -1108.04        53386.447     -21692.218      3274.6362     -18417.581      1.0685757    
   1562000   292.89926      139.40761      53924.511     -21631.777      3276.6582     -18355.119      1.0579133    
   1563000   298.99028     -99.582561      54365.297     -21655.383      3344.7984     -18310.584      1.0493359    
   1564000   300.17243     -151.61272      53939.951     -21619.625      3358.023      -18261.602      1.0576105    
   1565000   299.03633     -434.56344      53854.85      -21623.428      3345.3135     -18278.114      1.0592817    
   1566000   299.69167      48.145108      53739.555     -21677.363      3352.6448     -18324.718      1.0615543    
   1567000   306.87126     -387.97323      53534.611     -21714.306      3432.9627     -18281.343      1.0656182    
   1568000   307.16228     -23.402437      54104.623     -21635.509      3436.2183     -18199.291      1.0543916    
   1569000   289.89438     -293.54818      53680.447     -21727.096      3243.0427     -18484.054      1.0627232    
   1570000   300.27949     -303.06172      54155.912     -21739.197      3359.2207     -18379.976      1.053393     
   1571000   302.96635     -377.44314      54298.275     -21615.384      3389.2785     -18226.106      1.0506311    
   1572000   296.08443      72.317776      53965.4       -21701.022      3312.2906     -18388.732      1.0571117    
   1573000   298.63992      483.4965       53520.575     -21590.51       3340.8788     -18249.631      1.0658977    
   1574000   298.40717     -944.5845       54025.065     -21608.454      3338.2751     -18270.179      1.0559443    
   1575000   299.11479      110.28865      53780.229     -21703.443      3346.1912     -18357.251      1.0607515    
   1576000   297.82182      162.99307      54543.58      -21634.152      3331.7268     -18302.425      1.045906     
   1577000   297.21612      362.78201      53660.576     -21690.557      3324.9508     -18365.606      1.0631168    
   1578000   298.45206     -1133.7451      53897.614     -21733.529      3338.7773     -18394.752      1.0584412    
   1579000   298.17849     -186.96937      53249.634     -21660.704      3335.7168     -18324.987      1.0713211    
   1580000   303.29455     -822.5219       54107.155     -21622.33       3392.9501     -18229.38       1.0543422    
   1581000   301.3111      -197.75451      54204.998     -21783.636      3370.7613     -18412.874      1.0524391    
   1582000   303.08879     -110.76329      54447.796     -21646.635      3390.6482     -18255.987      1.047746     
   1583000   310.38831     -774.66271      54039.952     -21675.053      3472.3078     -18202.746      1.0556534    
   1584000   300.85161      1244.9764      53906.997     -21628.564      3365.6209     -18262.943      1.058257     
   1585000   300.43356      547.74259      53720.866     -21739.841      3360.9443     -18378.897      1.0619236    
   1586000   302.54456     -339.42615      53759.235     -21632.182      3384.56       -18247.622      1.0611657    
   1587000   297.25505      62.094485      53928.152     -21635.919      3325.3863     -18310.533      1.0578419    
   1588000   305.54031      192.59339      53741.259     -21760.154      3418.0734     -18342.081      1.0615207    
   1589000   297.70656     -126.05184      54269.678     -21658.995      3330.4374     -18328.558      1.0511847    
   1590000   306.35621     -6.1728593      53728.48      -21729.665      3427.2009     -18302.464      1.0617731    
   1591000   296.26489      69.443556      53558.939     -21765.693      3314.3094     -18451.383      1.0651342    
   1592000   300.81007      327.61296      53696.638     -21664.527      3365.1563     -18299.371      1.0624028    
   1593000   301.12219     -487.34153      53902.259     -21637.253      3368.6479     -18268.606      1.05835      
   1594000   299.72672      742.33702      53544.589     -21699.021      3353.0369     -18345.984      1.0654197    
   1595000   298.74657     -228.89944      53765.521     -21713.228      3342.0719     -18371.156      1.0610417    
   1596000   300.3741       39.517216      53159.867     -21707.163      3360.2791     -18346.883      1.0731302    
   1597000   294.74398     -927.35553      53616.032     -21712.638      3297.295      -18415.343      1.064        
   1598000   308.52309     -83.453152      53853.184     -21753.84       3451.4417     -18302.399      1.0593145    
   1599000   296.42616     -17.052343      53613.42      -21753.907      3316.1136     -18437.794      1.0640518    
   1600000   308.33528      688.95335      53453.028     -21595.468      3449.3406     -18146.127      1.0672446    
   1600010   305.43277      903.30152      53475.548     -21581.299      3416.8703     -18164.428      1.0667952    
Loop time of 44386.3 on 5 procs for 1000000 steps with 5541 atoms

Performance: 3.893 ns/day, 6.165 hours/ns, 22.529 timesteps/s, 124.836 katom-step/s
334.8% CPU use with 1 MPI tasks x 5 OpenMP threads

MPI task timing breakdown:
Section |  min time  |  avg time  |  max time  |%varavg| %total
---------------------------------------------------------------
Pair    | 1682.6     | 1682.6     | 1682.6     |   0.0 |  3.79
Bond    | 17.152     | 17.152     | 17.152     |   0.0 |  0.04
Kspace  | 22355      | 22355      | 22355      |   0.0 | 50.36
Neigh   | 38.199     | 38.199     | 38.199     |   0.0 |  0.09
Comm    | 535.85     | 535.85     | 535.85     |   0.0 |  1.21
Output  | 17.919     | 17.919     | 17.919     |   0.0 |  0.04
Modify  | 19547      | 19547      | 19547      |   0.0 | 44.04
Other   |            | 192.8      |            |       |  0.43

Nlocal:           5541 ave        5541 max        5541 min
Histogram: 1 0 0 0 0 0 0 0 0 0
Nghost:          35961 ave       35961 max       35961 min
Histogram: 1 0 0 0 0 0 0 0 0 0
Neighs:    4.85483e+06 ave 4.85483e+06 max 4.85483e+06 min
Histogram: 1 0 0 0 0 0 0 0 0 0

Total # of neighbors = 4854830
Ave neighs/atom = 876.16495
Ave special neighs/atom = 2.4872767
Neighbor list builds = 93152
Dangerous builds = 0

unfix mynpt
undump prod_traj
undump prod_dcd
undump prod_img
unfix thermo_avg
unfix thermo_detailed
unfix rdf_CO_avg
unfix rdf_CC_avg
unfix rdf_OO_avg
unfix rdf_C60_1_O_avg
unfix rdf_C60_2_O_avg
unfix rdf_C60_3_O_avg

unfix msd_avg
uncompute rdf_CO
uncompute rdf_CC
uncompute rdf_OO
uncompute rdf_C60_1_O
uncompute rdf_C60_2_O
uncompute rdf_C60_3_O

uncompute msd_water

#==============================================================================
# FINAL OUTPUT AND VERIFICATION
#==============================================================================
print ""

print "===== Saving Final Configuration ====="
===== Saving Final Configuration =====

write_data equilibrated_system.data
System init for write_data ...
PPPM initialization ...
  extracting TIP4P info from pair style
  using 12-bit tables for long-range coulomb
  G vector (1/distance) = 0.28858551
  grid = 50 50 50
  stencil order = 5
  estimated absolute RMS force accuracy = 0.00032515261
  estimated relative force accuracy = 9.7918744e-07
  using double precision FFTW3
  3d grid and FFT values/proc = 205379 125000
Generated 0 of 3 mixed pair_coeff terms from geometric mixing rule
WARNING: Not all mixed pair coeffs generated from mixing. Use write_data with 'pair ij' option to store all pair coeffs. (src/write_data.cpp:364)
write_restart equilibrated_system.restart
System init for write_restart ...
PPPM initialization ...
  extracting TIP4P info from pair style
  using 12-bit tables for long-range coulomb
  G vector (1/distance) = 0.28858551
  grid = 50 50 50
  stencil order = 5
  estimated absolute RMS force accuracy = 0.00032515261
  estimated relative force accuracy = 9.7918744e-07
  using double precision FFTW3
  3d grid and FFT values/proc = 205379 125000
Generated 0 of 3 mixed pair_coeff terms from geometric mixing rule

print ""

print "â•â•â•â•â•â•â•â•â•â•â•â•â•â•â•â•â•â•â•â•â•â•â•â•â•â•â•â•â•â•â•â•â•â•â•â•â•â•â•â•â•â•â•â•â•â•â•â•â•â•â•â•â•â•â•â•â•â•â•â•â•â•â•â•â•â•â•â•â•â•â•â•â•â•â•â•"
••••••••••••••••••••••••••••••••••••••••••••••••••••••••••••••••••••••••••••
print "                     EQUILIBRATION COMPLETE - SUCCESS!"
                     EQUILIBRATION COMPLETE - SUCCESS!
print "â•â•â•â•â•â•â•â•â•â•â•â•â•â•â•â•â•â•â•â•â•â•â•â•â•â•â•â•â•â•â•â•â•â•â•â•â•â•â•â•â•â•â•â•â•â•â•â•â•â•â•â•â•â•â•â•â•â•â•â•â•â•â•â•â•â•â•â•â•â•â•â•â•â•â•â•"
••••••••••••••••••••••••••••••••••••••••••••••••••••••••••••••••••••••••••••
print ""

print "Simulation Summary:"
Simulation Summary:
print "  Total simulation time: 5.22 ns"
  Total simulation time: 5.22 ns
print "    - NVT thermalization:     50 ps"
    - NVT thermalization:     50 ps
print "    - Pre-equilibration:      50 ps  (NEW - prevents PPPM artifacts)"
    - Pre-equilibration:      50 ps  (NEW - prevents PPPM artifacts)
print "    - Pressure ramp:         100 ps  (EXTENDED and with drag damping)"
    - Pressure ramp:         100 ps  (EXTENDED and with drag damping)
print "    - NPT equilibration:    1000 ps"
    - NPT equilibration:    1000 ps
print "    - Production run:       4000 ps (4 ns)"
    - Production run:       4000 ps (4 ns)
print ""


# Final measurements
variable final_temp equal temp
variable final_press equal press
variable final_dens equal density
variable final_vol equal vol
variable final_boxsize equal vol^(1.0/3.0)
variable final_pe equal pe
variable final_ke equal ke
variable final_etotal equal etotal

print "Final Thermodynamic State:"
Final Thermodynamic State:
print "  Temperature:    ${final_temp} K      (target: 300K)"
  Temperature:    305.432770739067 K      (target: 300K)
print "  Pressure:       ${final_press} atm   (target: 1 atm)"
  Pressure:       903.301524282676 atm   (target: 1 atm)
print "  Density:        ${final_dens} g/cmÂ³  (target: 0.95-1.05)"
  Density:        1.06679518641202 g/cm³  (target: 0.95-1.05)
print "  Volume:         ${final_vol} Ã…Â³"
  Volume:         53475.5483928146 …³
print "  Box size:       ${final_boxsize} Ã…    (expected: 58-63)"
  Box size:       37.674868834533 …    (expected: 58-63)
print ""

print "Final Energies:"
Final Energies:
print "  Potential:      ${final_pe} kcal/mol"
  Potential:      -21581.2986357334 kcal/mol
print "  Kinetic:        ${final_ke} kcal/mol"
  Kinetic:        3416.8703335367 kcal/mol
print "  Total:          ${final_etotal} kcal/mol"
  Total:          -18164.4283021967 kcal/mol
print ""


# Comprehensive validation - simplified to avoid quoting issues
print ""

if "${final_dens} >= 0.85" then   "if \"${final_dens} <= 1.15\" then \"jump SELF validation_success\" else \"jump SELF validation_warning\""
if "${final_dens} >= 0.85" then   "if \"1.06679518641202 <= 1.15\" then \"jump SELF validation_success\" else \"jump SELF validation_warning\""
ERROR: Input line quote not followed by white-space (src/input.cpp:556)
Last input line: if "${final_dens} >= 0.85" then "if \"${final_dens} <= 1.15\" then \"jump SELF validation_success\" else \"jump SELF validation_warning\""
