LAMMPS (10 Sep 2025)
  using 10 OpenMP thread(s) per MPI task
package gpu 1 neigh yes newton off binsize 2.8 split 1.0
# LAMMPS Input Script: FULLY CORRECTED NPT Equilibration
# Purpose: Equilibrate solvated nanoparticle system at 300K, 1 bar
# Water Model: TIP4P/2005 (implicit M-site)
# GPU acceleration: Enabled for MD stages
#
# COMPLETE FIXES APPLIED (2024-11-13):
# 1. âœ… CRITICAL FIX: PPPM grid locked to prevent recalculation artifacts
# 2. âœ… CRITICAL FIX: Pre-equilibration stage to reduce initial pressure
# 3. âœ… FIXED: Gentler pressure ramp (100 atm â†’ 1 atm) with drag damping
# 4. âœ… FIXED: SHAKE verification and proper constraint application
# 5. âœ… EXTENDED: Longer equilibration (1000 ps) and production (4000 ps)
# 6. âœ… ENHANCED: Multiple density checkpoints to catch failures early
# 7. âœ… OPTIMIZED: 2 fs timestep (SHAKE allows this, 2Ã— speedup)
#
# Total time: 5.22 ns (50ps NVT + 50ps pre-equil + 100ps ramp + 1000ps NPT + 4000ps prod)
#
# ROOT CAUSE OF PREVIOUS FAILURE:
# - PPPM grid recalculation at step 51,000 caused 169,712 atm pressure spike
# - Barostat overreacted â†’ box expanded 63Ã— â†’ gas phase (Ï=0.025 g/cmÂ³)
# - All epsilon values failed identically (proves it's numerical, not physical)
#
# SOLUTION: Lock PPPM grid + reduce initial pressure + add checkpoints

# ===== INITIALIZATION =====
units real
atom_style full
boundary p p p
atom_modify map array

# ===== COMMUNICATION =====
# Increased cutoff to handle potential box fluctuations safely
comm_modify cutoff 18.0

# ===== FORCE FIELD (FULLY GPU-accelerated) =====
# CORRECTED: O=type2, H=type3 (C60 carbon is type1)
pair_style lj/cut/tip4p/long/gpu 2 3 2 1 0.1546 12.0

# ğŸ”§ CRITICAL: Use pppm/gpu for FULL GPU acceleration of Coulomb forces
# pppm/tip4p is CPU-based bottleneck (~90% CPU, ~10% GPU)
# pppm/gpu runs Coulomb solver on GPU â†’ 5-10Ã— speedup for long-range forces
kspace_style pppm/gpu 1.0e-4

# ğŸ”§ CRITICAL FIX #1: Lock PPPM grid to prevent recalculation
# This prevents the 169,712 atm pressure spike that caused gas-phase failure
kspace_modify mesh 50 50 50    # Fixed grid (handles boxes up to ~125 Ã…, increased from 40)
kspace_modify order 5           # Higher interpolation order for accuracy
kspace_modify force/disp/real 0.8  # Balance real/k-space work

bond_style harmonic
angle_style harmonic

read_data large_C60_solvated.data
Reading data file ...
  orthogonal box = (-20 -20 -20) to (20 20 20)
  1 by 1 by 1 MPI processor grid
  reading atoms ...
  5541 atoms
  reading velocities ...
  5541 velocities
  scanning bonds ...
  3 = max bonds/atom
  scanning angles ...
  1 = max angles/atom
  orthogonal box = (-20 -20 -20) to (20 20 20)
  1 by 1 by 1 MPI processor grid
  reading bonds ...
  3844 bonds
  reading angles ...
  1787 angles
Finding 1-2 1-3 1-4 neighbors ...
  special bond factors lj:    0        0        0       
  special bond factors coul:  0        0        0       
     3 = max # of 1-2 neighbors
     6 = max # of 1-3 neighbors
    18 = max # of 1-4 neighbors
    17 = max # of special neighbors
  special bonds CPU = 0.002 seconds
  read_data CPU = 0.067 seconds

# ===== PAIR COEFFICIENTS (CORRECTED ATOM TYPE MAPPING) =====
# Type 1: C60 carbon (180 atoms from 3 C60 particles)
# Type 2: Water oxygen (~2000 molecules)
# Type 3: Water hydrogen (~4000 atoms)
# TIP4P/2005 parameters (verified against literature)
pair_coeff 2 2 0.1852 3.1589    # O-O (type 2, Îµ=0.1852 kcal/mol, Ïƒ=3.1589 Ã…)
pair_coeff 3 3 0.0 0.0          # H-H (type 3, no interaction)

# C60 fullerene parameters
pair_coeff 1 1 0.07 3.4         # C-C (type 1, Îµ=0.07 kcal/mol, Ïƒ=3.4 Ã…)

# C60-water cross interactions
# Tunable parameter (passed from bash script via -var)
variable epsilon_co equal ${EPSILON_CO}
variable epsilon_co equal 0.40
pair_coeff 1 2 ${epsilon_co} 3.2   # C-O (hydrophobicity parameter)
pair_coeff 1 2 0.4 3.2   
pair_coeff 1 3 0.0 0.0             # C-H (no interaction)
pair_coeff 2 3 0.0 0.0             # O-H (no LJ, only Coulombic)

# Bond and angle coefficients
bond_coeff 1 938.0 1.42         # C-C bonds in C60 (bond type 1)
bond_coeff 2 0.0 0.9572         # O-H bonds in water (bond type 2, SHAKE controlled)
angle_coeff 1 0.0 104.52        # H-O-H angle in water (angle type 1, SHAKE controlled)

# ===== SETTINGS =====
neighbor 2.0 bin                 # Increased skin for safety
neigh_modify delay 5 every 1 check yes

# Define groups (CORRECTED)
group carbon type 1        # C60 atoms (type 1)
180 atoms in group carbon
group water type 2 3       # All water atoms (O=type2, H=type3)
5361 atoms in group water
group oxygen type 2        # Water oxygen atoms (type 2)
1787 atoms in group oxygen
group hydrogen type 3      # Water hydrogen atoms (type 3)
3574 atoms in group hydrogen

# Define thermodynamic variables
variable temp equal c_thermo_temp
variable press equal c_thermo_press
variable pe equal pe
variable ke equal ke
variable etotal equal etotal
variable vol equal vol
variable dens equal density

thermo_style custom step temp press vol pe ke etotal density
thermo 1000

# ğŸ”§ CRITICAL FIX #2: Use 2 fs timestep (SHAKE allows this, 2Ã— speedup)
timestep 2.0

# Print system info
print "â•â•â•â•â•â•â•â•â•â•â•â•â•â•â•â•â•â•â•â•â•â•â•â•â•â•â•â•â•â•â•â•â•â•â•â•â•â•â•â•â•â•â•â•â•â•â•â•â•â•â•â•â•â•â•â•â•â•â•â•â•â•â•â•â•â•â•â•â•â•â•â•â•â•â•â•"
WARNING: Detected non-ASCII characters in input. Will try to continue by replacing with ASCII equivalents where known. (src/input.cpp:479)
••••••••••••••••••••••••••••••••••••••••••••••••••••••••••••••••••••••••••••
print "SYSTEM INFORMATION:"
SYSTEM INFORMATION:
print "  Epsilon (O-C): ${epsilon_co} kcal/mol"
  Epsilon (O-C): 0.4 kcal/mol
print "  Random seed:   ${RANDOM_SEED}"
  Random seed:   42
print "  Timestep:      2.0 fs (with SHAKE constraints)"
  Timestep:      2.0 fs (with SHAKE constraints)
print "  PPPM grid:     40Ã—40Ã—40 (LOCKED to prevent artifacts)"
  PPPM grid:     40—40—40 (LOCKED to prevent artifacts)
print "â•â•â•â•â•â•â•â•â•â•â•â•â•â•â•â•â•â•â•â•â•â•â•â•â•â•â•â•â•â•â•â•â•â•â•â•â•â•â•â•â•â•â•â•â•â•â•â•â•â•â•â•â•â•â•â•â•â•â•â•â•â•â•â•â•â•â•â•â•â•â•â•â•â•â•â•"
••••••••••••••••••••••••••••••••••••••••••••••••••••••••••••••••••••••••••••
print ""


#==============================================================================
# STAGE 0: Gentle Minimization (CPU pair style for stability)
#==============================================================================
print "===== STAGE 0: Gentle Minimization (removing any overlaps) ====="
===== STAGE 0: Gentle Minimization (removing any overlaps) =====
print "Using CPU pair style for numerical stability during minimization"
Using CPU pair style for numerical stability during minimization
print ""


# Switch to CPU pair style for minimization (GPU can be unstable)
pair_style lj/cut/tip4p/long 2 3 2 1 0.1546 12.0
kspace_style pppm/tip4p 1.0e-4
kspace_modify mesh 50 50 50
kspace_modify order 5

# Re-apply pair coefficients with current epsilon_co
pair_coeff 1 1 0.07 3.4            # C-C
pair_coeff 2 2 0.1852 3.1589       # O-O
pair_coeff 3 3 0.0 0.0             # H-H
pair_coeff 1 2 ${epsilon_co} 3.2   # C-O (variable)
pair_coeff 1 2 0.4 3.2   
pair_coeff 1 3 0.0 0.0             # C-H
pair_coeff 2 3 0.0 0.0             # O-H

# Very gentle minimization (just remove bad contacts, if any)
# Using very relaxed tolerances and limited steps for speed
thermo 100
minimize 0.0 10.0 10 100  # Ultra-gentle: etol=0, ftol=10, max 10 eval, max 100 iter

CITE-CITE-CITE-CITE-CITE-CITE-CITE-CITE-CITE-CITE-CITE-CITE-CITE

Your simulation uses code contributions which should be cited:

- GPU package (short-range, long-range and three-body potentials): doi:10.1016/j.cpc.2010.12.021, doi:10.1016/j.cpc.2011.10.012, doi:10.1016/j.cpc.2013.08.002, doi:10.1016/j.commatsci.2014.10.068, doi:10.1016/j.cpc.2016.10.020, doi:10.3233/APC200086

@Article{Brown11,
 author = {W. M. Brown and P. Wang and S. J. Plimpton and A. N. Tharrington},
 title = {Implementing Molecular Dynamics on Hybrid High Performance Computers---Short Range Forces},
 journal = {Comput.\ Phys.\ Commun.},
 year =    2011,
 volume =  182,
 pages =   {898--911},
 doi =     {10.1016/j.cpc.2010.12.021}
}

@Article{Brown12,
 author = {W. M. Brown and A. Kohlmeyer and S. J. Plimpton and A. N. Tharrington},
 title = {Implementing Molecular Dynamics on Hybrid High Performance Computers - Particle-Particle Particle-Mesh},
 journal = {Comput.\ Phys.\ Commun.},
 year =    2012,
 volume =  183,
 doi =     {10.1016/j.cpc.2011.10.012},
 pages =   {449--459}
}

@Article{Brown13,
 author = {W. M. Brown and Y. Masako},
 title = {Implementing Molecular Dynamics on Hybrid High Performance Computers---Three-Body Potentials},
 journal = {Comput.\ Phys.\ Commun.},
 year =    2013,
 volume =  184,
 pages =   {2785--2793},
 doi =     {10.1016/j.cpc.2013.08.002},
}

@Article{Trung15,
 author = {T. D. Nguyen and S. J. Plimpton},
 title = {Accelerating Dissipative Particle Dynamics Simulations for Soft Matter Systems},
 journal = {Comput.\ Mater.\ Sci.},
 year =    2015,
 doi =     {10.1016/j.commatsci.2014.10.068},
 volume =  100,
 pages =   {173--180}
}

@Article{Trung17,
 author = {T. D. Nguyen},
 title = {{GPU}-Accelerated {T}ersoff Potentials for Massively Parallel
    Molecular Dynamics Simulations},
 journal = {Comput.\ Phys.\ Commun.},
 year =    2017,
 doi =     {10.1016/j.cpc.2016.10.020},
 volume =  212,
 pages =   {113--122}
}

@inproceedings{Nikolskiy19,
 author = {V. Nikolskiy and V. Stegailov},
 title = {{GPU} Acceleration of Four-Site Water Models in {LAMMPS}},
 booktitle = {Proceedings of the International Conference on Parallel
    Computing (ParCo 2019), Prague, Czech Republic},
 doi =     {10.3233/APC200086},
 year =    2019
}

CITE-CITE-CITE-CITE-CITE-CITE-CITE-CITE-CITE-CITE-CITE-CITE-CITE

Switching to 'neigh_modify every 1 delay 0 check yes' setting during minimization
PPPM initialization ...
  extracting TIP4P info from pair style
  using 12-bit tables for long-range coulomb
  G vector (1/distance) = 0.28512662
  grid = 50 50 50
  stencil order = 5
  estimated absolute RMS force accuracy = 0.00038934319
  estimated relative force accuracy = 1.1724955e-06
  using double precision FFTW3
  3d grid and FFT values/proc = 185193 125000
Generated 0 of 3 mixed pair_coeff terms from geometric mixing rule
Per MPI rank memory allocation (min/avg/max) = 59.33 | 59.33 | 59.33 Mbytes
   Step          Temp          Press          Volume         PotEng         KinEng         TotEng        Density    
         0   36.495381      27227.029      64000         -23231.301      602.67332     -22628.627      0.89136653   
        10   36.495381     -19478.042      64000         -142259.35      602.67332     -141656.68      0.89136653   
Loop time of 0.125547 on 10 procs for 10 steps with 5541 atoms

992.0% CPU use with 1 MPI tasks x 10 OpenMP threads

Minimization stats:
  Stopping criterion = max iterations
  Energy initial, next-to-last, final = 
     -23231.3005005917  -124528.294999195  -142259.348324236
  Force two-norm initial, final = 2152.661 6845.8304
  Force max component initial, final = 49.701509 357.71023
  Final line search alpha, max atom move = 0.00038604234 0.13809129
  Iterations, force evaluations = 10 10

MPI task timing breakdown:
Section |  min time  |  avg time  |  max time  |%varavg| %total
---------------------------------------------------------------
Pair    | 0.003976   | 0.003976   | 0.003976   |   0.0 |  3.17
Bond    | 0.0016425  | 0.0016425  | 0.0016425  |   0.0 |  1.31
Kspace  | 0.11572    | 0.11572    | 0.11572    |   0.0 | 92.17
Neigh   | 0          | 0          | 0          |   0.0 |  0.00
Comm    | 0.00181    | 0.00181    | 0.00181    |   0.0 |  1.44
Output  | 6.5249e-05 | 6.5249e-05 | 6.5249e-05 |   0.0 |  0.05
Modify  | 6.15e-07   | 6.15e-07   | 6.15e-07   |   0.0 |  0.00
Other   |            | 0.002337   |            |       |  1.86

Nlocal:           5541 ave        5541 max        5541 min
Histogram: 1 0 0 0 0 0 0 0 0 0
Nghost:          33839 ave       33839 max       33839 min
Histogram: 1 0 0 0 0 0 0 0 0 0
Neighs:              0 ave           0 max           0 min
Histogram: 1 0 0 0 0 0 0 0 0 0

Total # of neighbors = 0
Ave neighs/atom = 0
Ave special neighs/atom = 2.4872767
Neighbor list builds = 0
Dangerous builds = 0

variable pe_minimized equal pe
print "Minimization complete. PE = ${pe_minimized} kcal/mol (was -23,217)"
Minimization complete. PE = -142259.348324236 kcal/mol (was -23,217)

# Switch back to GPU pair style for MD
pair_style lj/cut/tip4p/long/gpu 2 3 2 1 0.1546 12.0
kspace_style pppm/tip4p 1.0e-4
kspace_modify mesh 50 50 50
kspace_modify order 5

# Re-apply pair coefficients again after style change
pair_coeff 1 1 0.07 3.4            # C-C
pair_coeff 2 2 0.1852 3.1589       # O-O
pair_coeff 3 3 0.0 0.0             # H-H
pair_coeff 1 2 ${epsilon_co} 3.2   # C-O (variable)
pair_coeff 1 2 0.4 3.2   
pair_coeff 1 3 0.0 0.0             # C-H
pair_coeff 2 3 0.0 0.0             # O-H

print ""


#==============================================================================
# STAGE 0.5: Apply SHAKE Constraints
#==============================================================================
thermo 1000

# ğŸ”§ CRITICAL FIX #3: Apply SHAKE with proper verification
print "Applying SHAKE constraints..."
Applying SHAKE constraints...
# CORRECTED: bond type 2 = O-H, angle type 1 = H-O-H
fix myshk water shake 0.0001 20 0 b 2 a 1
Finding SHAKE clusters ...
       0 = # of size 2 clusters
       0 = # of size 3 clusters
       0 = # of size 4 clusters
    1787 = # of frozen angles
  find clusters CPU = 0.001 seconds

# Verify SHAKE is working
print "SHAKE constraint verification:"
SHAKE constraint verification:
print "  Expected: ~2000 water molecules with constrained bonds and angles"
  Expected: ~2000 water molecules with constrained bonds and angles
print "  Check minimization output for cluster sizes"
  Check minimization output for cluster sizes
print ""

print "GPU Acceleration Status:"
GPU Acceleration Status:
print "  âœ“ Pair forces (LJ):      GPU (lj/cut/tip4p/long/gpu)"
  œ“ Pair forces (LJ):      GPU (lj/cut/tip4p/long/gpu)
print "  âœ“ Coulomb (PPPM):        CPU (pppm/tip4p) - GPU suffix not available"
  œ“ Coulomb (PPPM):        CPU (pppm/tip4p) - GPU suffix not available
print "  âœ“ Neighbor lists:        GPU (neigh yes)"
  œ“ Neighbor lists:        GPU (neigh yes)
print "  â†’ Expected speedup:      2-3Ã— vs CPU-only version (pair forces only)"
  †’ Expected speedup:      2-3— vs CPU-only version (pair forces only)

#==============================================================================
# STAGE 1: NVT Thermalization (50 ps)
#==============================================================================
print ""

print "===== STAGE 1: NVT Thermalization (50 ps, GPU) ====="
===== STAGE 1: NVT Thermalization (50 ps, GPU) =====
print "Objective: Reach 300K while maintaining initial density"
Objective: Reach 300K while maintaining initial density

velocity all create 300.0 ${RANDOM_SEED} dist gaussian loop geom
velocity all create 300.0 42 dist gaussian loop geom

fix mynvt all nvt temp 300.0 300.0 100.0

# Trajectory output (every 4 ps) - using wrapped coordinates for proper visualization
dump nvt_traj all custom 2000 nvt_thermalization.lammpstrj id type xu yu zu
dump_modify nvt_traj sort id

dump nvt_dcd all dcd 2000 nvt_thermalization.dcd
dump_modify nvt_dcd unwrap yes

run 25000  # 50 ps at 2 fs timestep
PPPM initialization ...
  extracting TIP4P info from pair style
  using 12-bit tables for long-range coulomb
  G vector (1/distance) = 0.28512662
  grid = 50 50 50
  stencil order = 5
  estimated absolute RMS force accuracy = 0.00038934319
  estimated relative force accuracy = 1.1724955e-06
  using double precision FFTW3
  3d grid and FFT values/proc = 185193 125000
Generated 0 of 3 mixed pair_coeff terms from geometric mixing rule
Per MPI rank memory allocation (min/avg/max) = 58.79 | 58.79 | 58.79 Mbytes
   Step          Temp          Press          Volume         PotEng         KinEng         TotEng        Density    
        10   300           -112298.65      64000         -142259.35      3356.094      -138903.25      0.89136653   
      1000   299.76027     -1168.9209      64000         -19980.045      3353.4122     -16626.633      0.89136653   
      2000   309.55752     -1445.2359      64000         -20471.934      3463.0138     -17008.92       0.89136653   
      3000   301.33133     -553.62829      64000         -20411.35       3370.9876     -17040.362      0.89136653   
      4000   301.19647     -861.7445       64000         -20352.182      3369.4789     -16982.703      0.89136653   
      5000   303.7817      -1313.4281      64000         -20531.159      3398.3998     -17132.76       0.89136653   
      6000   306.49034     -1554.007       64000         -20484.198      3428.7014     -17055.496      0.89136653   
      7000   308.45196     -1688.8634      64000         -20371.812      3450.646      -16921.166      0.89136653   
      8000   300.86795     -817.92351      64000         -20320.15       3365.8038     -16954.346      0.89136653   
      9000   299.96611     -1367.3042      64000         -20380.061      3355.7149     -17024.346      0.89136653   
     10000   291.98798     -1622.9037      64000         -20312.891      3266.4637     -17046.427      0.89136653   
     11000   306.7529      -816.85138      64000         -20493.555      3431.6386     -17061.916      0.89136653   
     12000   302.19853     -2041.0762      64000         -20537.791      3380.689      -17157.102      0.89136653   
     13000   298.77242     -1022.9985      64000         -20587.499      3342.3611     -17245.138      0.89136653   
     14000   299.61432     -1011.4827      64000         -20545.202      3351.7794     -17193.422      0.89136653   
     15000   300.03118     -986.62571      64000         -20521.596      3356.4429     -17165.153      0.89136653   
     16000   303.84145     -631.95172      64000         -20615.182      3399.0683     -17216.114      0.89136653   
     17000   303.86762     -413.46558      64000         -20657.645      3399.3611     -17258.284      0.89136653   
     18000   293.05171     -1394.8669      64000         -20680.9        3278.3637     -17402.537      0.89136653   
     19000   299.19159     -785.03119      64000         -20493.994      3347.0503     -17146.944      0.89136653   
     20000   302.72129     -1348.5049      64000         -20559.593      3386.5371     -17173.056      0.89136653   
     21000   295.983       -1184.4401      64000         -20487.177      3311.156      -17176.021      0.89136653   
     22000   299.88502     -897.30492      64000         -20616.321      3354.8077     -17261.513      0.89136653   
     23000   301.47251     -1212.539       64000         -20522.733      3372.5669     -17150.166      0.89136653   
     24000   297.18369     -1163.3032      64000         -20527.179      3324.588      -17202.591      0.89136653   
     25000   304.00711     -1588.1342      64000         -20520.97       3400.9215     -17120.048      0.89136653   
     25010   301.55816     -616.66982      64000         -20486.456      3373.5252     -17112.931      0.89136653   
Loop time of 517.155 on 10 procs for 25000 steps with 5541 atoms

Performance: 8.353 ns/day, 2.873 hours/ns, 48.341 timesteps/s, 267.860 katom-step/s
900.3% CPU use with 1 MPI tasks x 10 OpenMP threads

MPI task timing breakdown:
Section |  min time  |  avg time  |  max time  |%varavg| %total
---------------------------------------------------------------
Pair    | 22.166     | 22.166     | 22.166     |   0.0 |  4.29
Bond    | 0.17528    | 0.17528    | 0.17528    |   0.0 |  0.03
Kspace  | 460.56     | 460.56     | 460.56     |   0.0 | 89.06
Neigh   | 0.062122   | 0.062122   | 0.062122   |   0.0 |  0.01
Comm    | 10.354     | 10.354     | 10.354     |   0.0 |  2.00
Output  | 0.10817    | 0.10817    | 0.10817    |   0.0 |  0.02
Modify  | 21.082     | 21.082     | 21.082     |   0.0 |  4.08
Other   |            | 2.646      |            |       |  0.51

Nlocal:           5541 ave        5541 max        5541 min
Histogram: 1 0 0 0 0 0 0 0 0 0
Nghost:          33149 ave       33149 max       33149 min
Histogram: 1 0 0 0 0 0 0 0 0 0
Neighs:              0 ave           0 max           0 min
Histogram: 1 0 0 0 0 0 0 0 0 0

Total # of neighbors = 0
Ave neighs/atom = 0
Ave special neighs/atom = 2.4872767
Neighbor list builds = 2329
Dangerous builds = 1

unfix mynvt
undump nvt_traj
undump nvt_dcd

write_restart nvt_complete.restart
System init for write_restart ...
PPPM initialization ...
  extracting TIP4P info from pair style
  using 12-bit tables for long-range coulomb
  G vector (1/distance) = 0.28512662
  grid = 50 50 50
  stencil order = 5
  estimated absolute RMS force accuracy = 0.00038934319
  estimated relative force accuracy = 1.1724955e-06
  using double precision FFTW3
  3d grid and FFT values/proc = 185193 125000
Generated 0 of 3 mixed pair_coeff terms from geometric mixing rule

# Check temperature
variable current_temp equal temp
print "NVT complete. Temperature: ${current_temp} K (target: 300K)"
NVT complete. Temperature: 301.558162304375 K (target: 300K)

# ğŸ”§ CHECKPOINT #1: Verify we're still at reasonable density
variable current_dens equal density
if "${current_dens} < 0.7" then     "print 'ERROR: Density dropped during NVT! Current: ${current_dens} g/cmÂ³'"     "print 'This should not happen - check initial configuration'"     "quit 1"

print "âœ“ Checkpoint 1 PASSED: Density = ${current_dens} g/cmÂ³"
œ“ Checkpoint 1 PASSED: Density = 0.891366525253072 g/cm³

#==============================================================================
# STAGE 1.5: Pre-Equilibration at 100 atm (50 ps) - NEW STAGE
#==============================================================================
print ""

print "===== STAGE 1.5: Pre-Equilibration at 100 atm (50 ps, GPU) ====="
===== STAGE 1.5: Pre-Equilibration at 100 atm (50 ps, GPU) =====
print "ğŸ”§ CRITICAL FIX: Reducing initial pressure before main ramp"
Ÿ”§ CRITICAL FIX: Reducing initial pressure before main ramp
print "Objective: Equilibrate volume at moderate pressure to prevent PPPM artifacts"
Objective: Equilibrate volume at moderate pressure to prevent PPPM artifacts
print ""

print "Why this is needed:"
Why this is needed:
print "  - NVT creates high pressure (~800 atm) in fixed volume"
  - NVT creates high pressure (~800 atm) in fixed volume
print "  - Direct ramp from 800â†’1 atm caused 169k atm spike (PPPM grid change)"
  - Direct ramp from 800†’1 atm caused 169k atm spike (PPPM grid change)
print "  - Pre-equilibrating at 100 atm reduces initial pressure safely"
  - Pre-equilibrating at 100 atm reduces initial pressure safely
print "  - Main ramp (100â†’1 atm) will then cause only ~5% box expansion"
  - Main ramp (100†’1 atm) will then cause only ~5% box expansion

# Higher barostat damping for this stage (more conservative)
fix mynpt_pre all npt temp 300.0 300.0 100.0 iso 100.0 100.0 5000.0

dump pre_dcd all dcd 2000 pre_equilibration.dcd
dump_modify pre_dcd unwrap yes

run 25000  # 50 ps at 2 fs timestep
PPPM initialization ...
  extracting TIP4P info from pair style
  using 12-bit tables for long-range coulomb
  G vector (1/distance) = 0.28512662
  grid = 50 50 50
  stencil order = 5
  estimated absolute RMS force accuracy = 0.00038934319
  estimated relative force accuracy = 1.1724955e-06
  using double precision FFTW3
  3d grid and FFT values/proc = 185193 125000
Generated 0 of 3 mixed pair_coeff terms from geometric mixing rule
Per MPI rank memory allocation (min/avg/max) = 58.8 | 58.8 | 58.8 Mbytes
   Step          Temp          Press          Volume         PotEng         KinEng         TotEng        Density    
     25010   301.55816     -616.34731      64000         -20486.456      3373.5252     -17112.931      0.89136653   
     26000   297.00723     -194.40441      61387.748     -20674.613      3322.614      -17351.999      0.92929712   
     27000   296.01702     -899.07774      59335.192     -20766.606      3311.5365     -17455.069      0.96144388   
     28000   303.06496      320.07         57613.605     -20694.304      3390.3817     -17303.922      0.99017337   
     29000   302.84904     -267.6507       56835.849     -20776.179      3387.9662     -17388.212      1.0037232    
     30000   305.37113     -85.551834      56041.721     -20673.445      3416.1808     -17257.265      1.0179462    
     31000   295.6167      -207.11186      55895.459     -20692.145      3307.0581     -17385.087      1.0206099    
     32000   304.10835      387.42358      55461.085     -20737.772      3402.054      -17335.718      1.0286033    
     33000   288.74067     -431.23307      54524.837     -20877.998      3230.1361     -17647.862      1.0462655    
     34000   297.45692     -46.655514      54409.577     -20827.621      3327.6447     -17499.976      1.0484819    
     35000   297.15758     -524.92649      54467.477     -20734.678      3324.296      -17410.382      1.0473674    
     36000   299.45836     -339.78506      54194.529     -20856.293      3350.0348     -17506.258      1.0526424    
     37000   301.46764      471.1753       54143.088     -20864.03       3372.5125     -17491.517      1.0536425    
     38000   306.69885      626.98731      54428.383     -21009.039      3431.034      -17578.005      1.0481196    
     39000   297.08909      251.66333      54886.571     -20731.586      3323.5297     -17408.056      1.0393701    
     40000   302.67786     -216.25763      54753.88      -20778.527      3386.0512     -17392.475      1.0418889    
     41000   293.90699      572.35636      54309.475     -20835.803      3287.9317     -17547.871      1.0504144    
     42000   298.95407     -955.97974      54638.216     -20848.413      3344.3933     -17504.02       1.0440944    
     43000   298.6489       258.71635      54559.043     -21011.776      3340.9793     -17670.797      1.0456096    
     44000   298.72113     -96.192602      54708.806     -20958.43       3341.7874     -17616.643      1.0427473    
     45000   301.89586     -497.02117      55137.994     -20769.234      3377.303      -17391.931      1.0346306    
     46000   300.72336     -313.01598      54949.644     -20909.552      3364.1862     -17545.365      1.038177     
     47000   300.57589      820.03001      54758.06      -20854.864      3362.5365     -17492.328      1.0418093    
     48000   298.59777      868.95426      54085.891     -20873.047      3340.4074     -17532.639      1.0547567    
     49000   298.68681     -367.61334      54103.408     -20910.589      3341.4034     -17569.186      1.0544152    
     50000   304.86359      566.50921      54510.853     -20708.072      3410.5029     -17297.569      1.0465339    
     50010   305.66553      636.47302      54513.1       -20735.716      3419.4742     -17316.241      1.0464908    
Loop time of 958.514 on 10 procs for 25000 steps with 5541 atoms

Performance: 4.507 ns/day, 5.325 hours/ns, 26.082 timesteps/s, 144.521 katom-step/s
633.2% CPU use with 1 MPI tasks x 10 OpenMP threads

MPI task timing breakdown:
Section |  min time  |  avg time  |  max time  |%varavg| %total
---------------------------------------------------------------
Pair    | 26.5       | 26.5       | 26.5       |   0.0 |  2.76
Bond    | 0.29725    | 0.29725    | 0.29725    |   0.0 |  0.03
Kspace  | 430.15     | 430.15     | 430.15     |   0.0 | 44.88
Neigh   | 0.059477   | 0.059477   | 0.059477   |   0.0 |  0.01
Comm    | 11.61      | 11.61      | 11.61      |   0.0 |  1.21
Output  | 0.01516    | 0.01516    | 0.01516    |   0.0 |  0.00
Modify  | 485.45     | 485.45     | 485.45     |   0.0 | 50.65
Other   |            | 4.431      |            |       |  0.46

Nlocal:           5541 ave        5541 max        5541 min
Histogram: 1 0 0 0 0 0 0 0 0 0
Nghost:          35468 ave       35468 max       35468 min
Histogram: 1 0 0 0 0 0 0 0 0 0
Neighs:              0 ave           0 max           0 min
Histogram: 1 0 0 0 0 0 0 0 0 0

Total # of neighbors = 0
Ave neighs/atom = 0
Ave special neighs/atom = 2.4872767
Neighbor list builds = 2331
Dangerous builds = 0

unfix mynpt_pre
undump pre_dcd

write_restart pre_equilibration_complete.restart
System init for write_restart ...
PPPM initialization ...
  extracting TIP4P info from pair style
  using 12-bit tables for long-range coulomb
  G vector (1/distance) = 0.28824691
  grid = 50 50 50
  stencil order = 5
  estimated absolute RMS force accuracy = 0.00033115127
  estimated relative force accuracy = 9.972522e-07
  using double precision FFTW3
  3d grid and FFT values/proc = 205379 125000
Generated 0 of 3 mixed pair_coeff terms from geometric mixing rule
write_data pre_equilibration_complete.data
System init for write_data ...
PPPM initialization ...
  extracting TIP4P info from pair style
  using 12-bit tables for long-range coulomb
  G vector (1/distance) = 0.28824691
  grid = 50 50 50
  stencil order = 5
  estimated absolute RMS force accuracy = 0.00033115127
  estimated relative force accuracy = 9.972522e-07
  using double precision FFTW3
  3d grid and FFT values/proc = 205379 125000
Generated 0 of 3 mixed pair_coeff terms from geometric mixing rule
WARNING: Not all mixed pair coeffs generated from mixing. Use write_data with 'pair ij' option to store all pair coeffs. (src/write_data.cpp:364)

# ğŸ”§ CHECKPOINT #2: Verify still in liquid phase after pre-equilibration
variable current_dens equal density
variable current_press equal press
variable current_vol equal vol

print ""

print "Pre-equilibration complete:"
Pre-equilibration complete:
print "  Density:  ${current_dens} g/cmÂ³"
  Density:  1.04649079979777 g/cm³
print "  Pressure: ${current_press} atm"
  Pressure: 636.473019061881 atm
print "  Volume:   ${current_vol} Ã…Â³"
  Volume:   54513.0999978412 …³

if "${current_dens} < 0.85" then     "print 'ERROR: Density dropped to ${current_dens} during pre-equilibration!'"     "print 'Expected: Still ~0.95 g/cmÂ³ (may increase slightly due to compression)'"     "print 'System failed before main pressure ramp even started!'"     "quit 1"

print "âœ“ Checkpoint 2 PASSED: System stable at 100 atm"
œ“ Checkpoint 2 PASSED: System stable at 100 atm

#==============================================================================
# STAGE 2: GENTLE Pressure Ramp (100 â†’ 1 atm, 100 ps) - CORRECTED
#==============================================================================
print ""

print "===== STAGE 2: Gentle Pressure Ramp (100 ps, GPU) ====="
===== STAGE 2: Gentle Pressure Ramp (100 ps, GPU) =====
print "Ramping pressure from 100 atm â†’ 1 atm with drag damping"
Ramping pressure from 100 atm †’ 1 atm with drag damping
print ""

print "COMPARISON TO FAILED VERSION:"
COMPARISON TO FAILED VERSION:
print "  OLD: 50 atm â†’ 1 atm, no pre-equil â†’ 169,712 atm spike at step 51k"
  OLD: 50 atm †’ 1 atm, no pre-equil †’ 169,712 atm spike at step 51k
print "  NEW: 100 atm â†’ 1 atm, with pre-equil â†’ should be smooth (< 500 atm max)"
  NEW: 100 atm †’ 1 atm, with pre-equil †’ should be smooth (< 500 atm max)

# ğŸ”§ CRITICAL FIX #4: Add drag damping to prevent explosive expansion
fix mynpt_ramp all npt temp 300.0 300.0 100.0 iso 100.0 1.0 2000.0 drag 2.0

dump ramp_dcd all dcd 1000 pressure_ramp.dcd
dump_modify ramp_dcd unwrap yes

# Monitor closely during ramp (every 500 steps = 1 ps)
thermo 500

run 50000  # 100 ps at 2 fs timestep
PPPM initialization ...
  extracting TIP4P info from pair style
  using 12-bit tables for long-range coulomb
  G vector (1/distance) = 0.28824691
  grid = 50 50 50
  stencil order = 5
  estimated absolute RMS force accuracy = 0.00033115127
  estimated relative force accuracy = 9.972522e-07
  using double precision FFTW3
  3d grid and FFT values/proc = 205379 125000
Generated 0 of 3 mixed pair_coeff terms from geometric mixing rule
Per MPI rank memory allocation (min/avg/max) = 59.63 | 59.63 | 59.63 Mbytes
   Step          Temp          Press          Volume         PotEng         KinEng         TotEng        Density    
     50010   305.66553      638.68141      54513.1       -20735.673      3419.4742     -17316.199      1.0464908    
     50500   299.29415      292.50004      54414.478     -20741.94       3348.1977     -17393.743      1.0483875    
     51000   303.53214      569.0772       54408.252     -20859.796      3395.608      -17464.188      1.0485075    
     51500   299.79603     -293.04947      54542.137     -20821.861      3353.8122     -17468.049      1.0459337    
     52000   301.15598      225.76744      54255.992     -20885.202      3369.026      -17516.176      1.0514499    
     52500   301.71257     -43.976001      54457.685     -20888.229      3375.2525     -17512.976      1.0475557    
     53000   301.83518     -63.384515      54507.325     -20914.384      3376.6242     -17537.76       1.0466017    
     53500   304.54349      191.3335       54550.828     -20958.2        3406.922      -17551.278      1.045767     
     54000   295.14681     -482.45936      55017.068     -20847.567      3301.8015     -17545.766      1.0369047    
     54500   303.22986     -501.91395      54344.114     -20912.874      3392.2265     -17520.647      1.0497449    
     55000   299.34903     -42.234542      54437.19      -20884.803      3348.8116     -17535.991      1.0479501    
     55500   297.15862      29.703507      54480.802     -20828.863      3324.3075     -17504.555      1.0471112    
     56000   303.3837      -230.69749      54339.376     -20898.641      3393.9474     -17504.694      1.0498365    
     56500   304.62345     -118.31221      54428.221     -20910.782      3407.8165     -17502.965      1.0481228    
     57000   301.94585      347.88186      54225.286     -20870.45       3377.8623     -17492.588      1.0520453    
     57500   299.82242      746.48275      54230.379     -20904.41       3354.1075     -17550.303      1.0519465    
     58000   300.02201     -184.46323      54412.308     -20897.727      3356.3402     -17541.387      1.0484293    
     58500   298.99826      187.51385      54292.721     -20820.52       3344.8876     -17475.632      1.0507386    
     59000   302.56617     -333.13493      54365.066     -20890.48       3384.8017     -17505.678      1.0493403    
     59500   302.43823     -41.804657      54469.29      -20835.771      3383.3704     -17452.4        1.0473325    
     60000   305.42978     -352.2713       54052.825     -20880.688      3416.8369     -17463.852      1.055402     
     60500   301.55789     -266.9317       53991.857     -20842.007      3373.5221     -17468.485      1.0565937    
     61000   297.7372       631.31793      54278.93      -20815.581      3330.7801     -17484.801      1.0510056    
     61500   301.54354     -14.069837      54426.797     -20871.556      3373.3616     -17498.194      1.0481502    
     62000   300.99987      270.54988      54325.977     -20911.632      3367.2795     -17544.352      1.0500954    
     62500   298.21798      156.34921      54439.309     -20853.551      3336.1586     -17517.393      1.0479093    
     63000   303.79098      192.3296       54712.79      -20935.468      3398.5037     -17536.964      1.0426713    
     63500   300.05395      77.942196      55038.274     -20894.161      3356.6975     -17537.464      1.0365052    
     64000   295.98719      254.68878      54880.75      -20830.313      3311.2028     -17519.11       1.0394803    
     64500   295.64118      767.27541      54332.531     -20866.322      3307.332      -17558.989      1.0499687    
     65000   295.65154     -125.18941      54529.648     -20866.26       3307.4479     -17558.812      1.0461732    
     65500   302.15392      500.03228      54625.025     -20958.386      3380.1899     -17578.196      1.0443466    
     66000   299.16637      148.66354      54845.058     -20938.052      3346.7682     -17591.284      1.0401568    
     66500   298.4654       252.31268      54752.212     -20936.441      3338.9265     -17597.515      1.0419206    
     67000   301.1912       246.38576      55119.592     -20908.308      3369.42       -17538.888      1.034976     
     67500   300.26899      151.09415      54874.077     -20919.228      3359.1032     -17560.124      1.0396067    
     68000   300.59827     -162.50599      54843.102     -20876.801      3362.7869     -17514.014      1.0401939    
     68500   299.99398      85.391067      54954.563     -20880.565      3356.0267     -17524.538      1.0380841    
     69000   300.11478     -517.69795      54857.173     -20948.406      3357.3781     -17591.028      1.039927     
     69500   296.57797      177.70573      54436.343     -20843.805      3317.8118     -17525.994      1.0479664    
     70000   303.84166      87.141342      54783.988     -20910.512      3399.0707     -17511.441      1.0413163    
     70500   300.97964     -146.64967      54778.143     -20909.549      3367.0532     -17542.495      1.0414274    
     71000   295.85786      242.16992      54753.507     -20839.752      3309.756      -17529.996      1.041896     
     71500   296.45574     -573.35896      54492.207     -20824.96       3316.4445     -17508.516      1.046892     
     72000   293.50704      248.48895      54277.737     -20756.823      3283.4574     -17473.365      1.0510287    
     72500   303.66156     -14.025891      54152.893     -20893.678      3397.0558     -17496.623      1.0534517    
     73000   304.65034      93.5454        54436.891     -20909.739      3408.1173     -17501.621      1.0479558    
     73500   301.57161      592.09648      54481.502     -20956.686      3373.6756     -17583.011      1.0470977    
     74000   300.03283     -924.76912      54027.191     -20936.078      3356.4613     -17579.616      1.0559027    
     74500   301.30538     -627.81789      54156.099     -20948          3370.6973     -17577.302      1.0533893    
     75000   302.14158      346.02472      54488.388     -20930.36       3380.0518     -17550.308      1.0469654    
     75500   296.83477      328.57427      54418.289     -20841.35       3320.6847     -17520.666      1.0483141    
     76000   299.61126      108.41323      54624.007     -20911.333      3351.7452     -17559.588      1.044366     
     76500   296.79478      65.785085      54469.74      -20876.845      3320.2373     -17556.607      1.0473238    
     77000   302.65667      397.61386      54238.374     -20919.052      3385.8141     -17533.237      1.0517914    
     77500   298.48134     -26.188908      54254.17      -20853.924      3339.1049     -17514.819      1.0514852    
     78000   301.46721      206.35301      54315.5       -20898.088      3372.5077     -17525.58       1.0502979    
     78500   300.94189     -407.24926      54525.837     -20917.019      3366.631      -17550.388      1.0462463    
     79000   297.1144       754.52002      54421.423     -20872.514      3323.8129     -17548.701      1.0482537    
     79500   299.88727      401.60077      54645.744     -20864.027      3354.8329     -17509.194      1.0439506    
     80000   298.18346      92.519398      54747.354     -20879.647      3335.7724     -17543.875      1.0420131    
     80500   296.69389      716.21245      54666.748     -20847.878      3319.1086     -17528.769      1.0435495    
     81000   302.78659     -60.89104       54945.218     -20939.111      3387.2676     -17551.844      1.0382606    
     81500   299.99618      281.74565      54763.328     -20956.686      3356.0513     -17600.635      1.0417091    
     82000   299.47014     -760.59969      54837.916     -20926.222      3350.1665     -17576.055      1.0402922    
     82500   302.35536      1.646961       54774.599     -20860.987      3382.4434     -17478.543      1.0414947    
     83000   300.30951      781.3179       54573.832     -20825.257      3359.5565     -17465.7        1.0453262    
     83500   296.64967     -251.68592      54662.71      -20835.32       3318.6139     -17516.706      1.0436266    
     84000   303.99369      380.73269      54203.327     -20913.706      3400.7714     -17512.934      1.0524715    
     84500   298.65467      187.14844      54501.111     -20833.889      3341.0438     -17492.845      1.046721     
     85000   295.86721      1006.3274      54502.568     -20799.599      3309.8606     -17489.738      1.046693     
     85500   300.38413      81.563733      54735.385     -20844.133      3360.3913     -17483.742      1.0422409    
     86000   303.46125      1155.0314      54608.813     -20881.258      3394.815      -17486.443      1.0446566    
     86500   298.32327      247.53944      54506.725     -20799.766      3337.3365     -17462.43       1.0466132    
     87000   304.02078     -248.85785      54678.657     -20893.168      3401.0744     -17492.094      1.0433222    
     87500   296.10594     -165.46105      54629.087     -20818.322      3312.5312     -17505.79       1.0442689    
     88000   299.10361      519.7553       54429.398     -20822.388      3346.0661     -17476.322      1.0481001    
     88500   297.41029      378.52491      54742.559     -20831.559      3327.123      -17504.436      1.0421043    
     89000   306.3068       843.05176      54504.635     -20983.167      3426.6481     -17556.519      1.0466533    
     89500   299.68944     -439.17085      54978.501     -20915.327      3352.6198     -17562.708      1.0376321    
     90000   303.16155     -107.80012      54822.605     -20932.449      3391.4622     -17540.987      1.0405828    
     90500   300.50506     -125.69931      54689.906     -20903.9        3361.7441     -17542.156      1.0431076    
     91000   306.0551       208.40882      54548.793     -20970.976      3423.8324     -17547.144      1.0458061    
     91500   302.83942      180.80165      54594.789     -20932.007      3387.8586     -17544.149      1.044925     
     92000   296.76939     -31.406964      54430.164     -20808.445      3319.9532     -17488.492      1.0480853    
     92500   301.78061      285.14626      54682.677     -20901.472      3376.0137     -17525.458      1.0432455    
     93000   300.32893     -534.34923      54729.498     -20848.736      3359.7738     -17488.962      1.042353     
     93500   297.42942     -839.30324      54675.069     -20831.66       3327.337      -17504.323      1.0433907    
     94000   301.95085     -275.66942      54487.226     -20903.975      3377.9182     -17526.057      1.0469877    
     94500   302.33672      98.891549      54990.344     -20836.045      3382.2348     -17453.81       1.0374086    
     95000   300.09111     -344.91813      54546.139     -20794.705      3357.1133     -17437.591      1.0458569    
     95500   298.52851      391.77968      54390.597     -20828.515      3339.6325     -17488.882      1.0488478    
     96000   298.77637      66.947987      54301.184     -20813.466      3342.4053     -17471.06       1.0505748    
     96500   301.97267     -130.18086      54339.344     -20799.225      3378.1623     -17421.062      1.0498371    
     97000   300.84874      521.47724      54511.255     -20789.51       3365.5889     -17423.921      1.0465262    
     97500   297.37356      19.074376      54764.851     -20792.808      3326.7121     -17466.096      1.0416801    
     98000   302.63214      64.882926      54718.416     -20869.306      3385.5398     -17483.766      1.0425641    
     98500   297.58836     -390.5825       54548.096     -20822.056      3329.1151     -17492.941      1.0458194    
     99000   302.38872      9.6192015      54619.588     -20820.859      3382.8166     -17438.042      1.0444505    
     99500   302.15432      6.5388045      54677.219     -20828.941      3380.1944     -17448.747      1.0433497    
    100000   297.4583      -261.56148      54800.838     -20776.091      3327.6601     -17448.431      1.0409961    
    100010   303.76465     -459.15189      54794.906     -20845.67       3398.2091     -17447.461      1.0411088    
Loop time of 1929.05 on 10 procs for 50000 steps with 5541 atoms

Performance: 4.479 ns/day, 5.358 hours/ns, 25.920 timesteps/s, 143.620 katom-step/s
634.4% CPU use with 1 MPI tasks x 10 OpenMP threads

MPI task timing breakdown:
Section |  min time  |  avg time  |  max time  |%varavg| %total
---------------------------------------------------------------
Pair    | 55.351     | 55.351     | 55.351     |   0.0 |  2.87
Bond    | 0.57336    | 0.57336    | 0.57336    |   0.0 |  0.03
Kspace  | 887.84     | 887.84     | 887.84     |   0.0 | 46.02
Neigh   | 0.11426    | 0.11426    | 0.11426    |   0.0 |  0.01
Comm    | 23.321     | 23.321     | 23.321     |   0.0 |  1.21
Output  | 0.054692   | 0.054692   | 0.054692   |   0.0 |  0.00
Modify  | 952.85     | 952.85     | 952.85     |   0.0 | 49.39
Other   |            | 8.947      |            |       |  0.46

Nlocal:           5541 ave        5541 max        5541 min
Histogram: 1 0 0 0 0 0 0 0 0 0
Nghost:          35215 ave       35215 max       35215 min
Histogram: 1 0 0 0 0 0 0 0 0 0
Neighs:              0 ave           0 max           0 min
Histogram: 1 0 0 0 0 0 0 0 0 0

Total # of neighbors = 0
Ave neighs/atom = 0
Ave special neighs/atom = 2.4872767
Neighbor list builds = 4656
Dangerous builds = 0

thermo 1000  # Return to normal frequency

unfix mynpt_ramp
undump ramp_dcd

write_restart pressure_ramp_complete.restart
System init for write_restart ...
PPPM initialization ...
  extracting TIP4P info from pair style
  using 12-bit tables for long-range coulomb
  G vector (1/distance) = 0.28815597
  grid = 50 50 50
  stencil order = 5
  estimated absolute RMS force accuracy = 0.00033278086
  estimated relative force accuracy = 1.0021597e-06
  using double precision FFTW3
  3d grid and FFT values/proc = 205379 125000
Generated 0 of 3 mixed pair_coeff terms from geometric mixing rule
write_data pressure_ramp_complete.data
System init for write_data ...
PPPM initialization ...
  extracting TIP4P info from pair style
  using 12-bit tables for long-range coulomb
  G vector (1/distance) = 0.28815597
  grid = 50 50 50
  stencil order = 5
  estimated absolute RMS force accuracy = 0.00033278086
  estimated relative force accuracy = 1.0021597e-06
  using double precision FFTW3
  3d grid and FFT values/proc = 205379 125000
Generated 0 of 3 mixed pair_coeff terms from geometric mixing rule
WARNING: Not all mixed pair coeffs generated from mixing. Use write_data with 'pair ij' option to store all pair coeffs. (src/write_data.cpp:364)

# ğŸ”§ CHECKPOINT #3: Critical check after ramp (most likely failure point)
variable current_dens equal density
variable current_press equal press
variable current_vol equal vol
variable current_boxsize equal vol^(1.0/3.0)

print ""

print "Pressure ramp complete:"
Pressure ramp complete:
print "  Density:  ${current_dens} g/cmÂ³"
  Density:  1.04110877202794 g/cm³
print "  Pressure: ${current_press} atm"
  Pressure: -459.151890236104 atm
print "  Volume:   ${current_vol} Ã…Â³"
  Volume:   54794.9063046274 …³
print "  Box size: ${current_boxsize} Ã…"
  Box size: 37.9821953304613 …

if "${current_dens} < 0.75" then     "print ''"     "print 'ğŸ”´ CRITICAL ERROR: Density collapsed to ${current_dens} g/cmÂ³!'"     "print ''"     "print 'This means the PPPM artifact occurred despite fixes.'"     "print 'Check equilibration.log for pressure spike around step 75,000-85,000'"     "print ''"     "print 'If pressure exceeded 10,000 atm during ramp:'"     "print '  â†’ PPPM grid still recalculating (increase mesh size)'"     "print '  â†’ Try mesh 50 50 50 or mesh 60 60 60'"     "print ''"     "print 'If pressure stayed < 1,000 atm but density still dropped:'"     "print '  â†’ Initial configuration may be problematic'"     "print '  â†’ Check initial_system.data for pre-existing issues'"     "print ''"     "quit 1"

print "âœ“ Checkpoint 3 PASSED: Pressure ramp successful, liquid phase maintained"
œ“ Checkpoint 3 PASSED: Pressure ramp successful, liquid phase maintained

#==============================================================================
# STAGE 3: NPT Equilibration (Complete 1000 ps with 2-phase strategy)
#==============================================================================
print ""

print "===== STAGE 3: NPT Equilibration (1000 ps, GPU) ====="
===== STAGE 3: NPT Equilibration (1000 ps, GPU) =====
print "Equilibrating at 300K, 1 atm with improved pressure control"
Equilibrating at 300K, 1 atm with improved pressure control
print ""

print "Strategy:"
Strategy:
print "  Phase 1 (400 ps): Higher damping for gentle pressure equilibration"
  Phase 1 (400 ps): Higher damping for gentle pressure equilibration
print "  Phase 2 (600 ps): Standard damping for final equilibration"
  Phase 2 (600 ps): Standard damping for final equilibration
print ""


# Phase 1: Gentle NPT with stronger pressure damping (400 ps)
print "Phase 1: Gentle pressure equilibration (400 ps, pdamp=5000)..."
Phase 1: Gentle pressure equilibration (400 ps, pdamp=5000)...
# ğŸ”§ CRITICAL: Using npt/gpu instead of npt for FULL GPU acceleration
fix mynpt_gentle all npt/gpu temp 300.0 300.0 100.0 iso 1.0 1.0 5000.0

dump npt_traj all custom 2000 npt_equilibration.lammpstrj id type xu yu zu
dump_modify npt_traj sort id

dump npt_dcd all dcd 2000 npt_equilibration.dcd
dump_modify npt_dcd unwrap yes

# Thermodynamic averaging during NPT
fix thermo_avg_npt all ave/time 100 10 1000 v_epsilon_co v_temp v_press v_pe v_ke v_etotal v_vol v_dens     file npt_equilibration_thermo.dat

run 200000  # 400 ps at 2 fs timestep
PPPM initialization ...
  extracting TIP4P info from pair style
  using 12-bit tables for long-range coulomb
  G vector (1/distance) = 0.28815597
  grid = 50 50 50
  stencil order = 5
  estimated absolute RMS force accuracy = 0.00033278086
  estimated relative force accuracy = 1.0021597e-06
  using double precision FFTW3
  3d grid and FFT values/proc = 205379 125000
Generated 0 of 3 mixed pair_coeff terms from geometric mixing rule
Per MPI rank memory allocation (min/avg/max) = 59.63 | 59.63 | 59.63 Mbytes
   Step          Temp          Press          Volume         PotEng         KinEng         TotEng        Density    
    100010   303.76465     -465.05812      54794.906     -20845.687      3398.2091     -17447.477      1.0411088    
    101000   305.66902      118.77438      54451.124     -20942.897      3419.5133     -17523.384      1.0476819    
    102000   304.56529     -726.54684      54805.795     -20878.349      3407.1658     -17471.183      1.0409019    
    103000   295.46269     -211.95519      54495.695     -20862.235      3305.3352     -17556.9        1.046825     
    104000   297.64255     -519.5568       54392.665     -20976.6        3329.7213     -17646.879      1.0488079    
    105000   297.7099      -271.99042      55260.101     -20744.817      3330.4748     -17414.342      1.0323444    
    106000   303.10986     -329.83922      55027.122     -20942.603      3390.884      -17551.719      1.0367153    
    107000   302.25544      228.61534      54469.985     -20863.004      3381.3256     -17481.679      1.0473191    
    108000   300.87623     -446.07118      54408.386     -20729.378      3365.8964     -17363.482      1.0485049    
    109000   300.46275      348.40939      54397.492     -20880.006      3361.2708     -17518.735      1.0487148    
    110000   305.12784      41.221054      54412.576     -20717.642      3413.4591     -17304.183      1.0484241    
    111000   299.72878      225.90268      54418.348     -20743.925      3353.0599     -17390.865      1.0483129    
    112000   303.9895       320.02579      54395.268     -20748.009      3400.7245     -17347.285      1.0487577    
    113000   296.78133      471.41329      54824.634     -20761.728      3320.0869     -17441.641      1.0405443    
    114000   298.32532      320.0349       54501.32      -20887.352      3337.3594     -17549.993      1.046717     
    115000   292.2733      -203.34589      54614.149     -20855.36       3269.6556     -17585.705      1.0445545    
    116000   302.48359      89.781815      54621.921     -20911.679      3383.8779     -17527.801      1.0444059    
    117000   295.84985     -95.86794       55395.448     -20778.301      3309.6664     -17468.635      1.0298221    
    118000   297.77143     -213.67636      55478.029     -20865.341      3331.1631     -17534.178      1.0282892    
    119000   302.52036      201.79417      54432.771     -20950.769      3384.2893     -17566.479      1.0480352    
    120000   307.54802     -238.37336      54278.388     -20941.726      3440.5336     -17501.193      1.0510161    
    121000   304.34269     -184.18189      54768.044     -20941.901      3404.6756     -17537.225      1.0416194    
    122000   293.10841     -288.7139       54409.654     -20793.517      3278.998      -17514.519      1.0484804    
    123000   303.29078     -514.96158      54380.017     -20846.338      3392.9079     -17453.43       1.0490519    
    124000   301.84294      226.6921       54680.853     -20779.187      3376.711      -17402.476      1.0432803    
    125000   292.94355     -751.64873      54665.925     -20770.079      3277.1537     -17492.925      1.0435652    
    126000   298.59051      381.97339      54768.362     -20732.175      3340.3261     -17391.849      1.0416134    
    127000   301.26726      305.9189       54846.156     -20863.35       3370.2708     -17493.079      1.0401359    
    128000   298.28857     -100.07089      54764.074     -20840.561      3336.9483     -17503.612      1.0416949    
    129000   295.68599     -171.52638      54150.268     -20852.166      3307.8333     -17544.332      1.0535028    
    130000   304.44263      376.09773      54629.285     -20859.111      3405.7937     -17453.317      1.0442651    
    131000   297.67805     -714.65132      55121.657     -20886.493      3330.1185     -17556.374      1.0349373    
    132000   301.4989       232.61141      54572.267     -20914.844      3372.8622     -17541.982      1.0453562    
    133000   298.86744     -539.18203      54933.456     -20837.269      3343.4241     -17493.845      1.038483     
    134000   306.25473     -288.83341      54753.045     -20836.755      3426.0655     -17410.689      1.0419047    
    135000   300.13267      656.75461      54480.164     -20959.556      3357.5782     -17601.978      1.0471235    
    136000   302.24538      769.31593      54335.077     -20858.218      3381.2131     -17477.005      1.0499195    
    137000   298.49681     -507.0679       54748.674     -20783.546      3339.2778     -17444.268      1.0419879    
    138000   302.48015     -351.66173      54721.726     -20887.412      3383.8394     -17503.573      1.0425011    
    139000   301.19212      545.61166      54620.234     -21035.745      3369.4303     -17666.314      1.0444382    
    140000   303.62789      863.98638      54825.312     -20874.487      3396.6792     -17477.807      1.0405314    
    141000   305.43104     -129.78369      55016.176     -20830.095      3416.851      -17413.244      1.0369215    
    142000   300.84422     -269.30321      54965.455     -20941.059      3365.5383     -17575.521      1.0378784    
    143000   297.32221      844.79864      54556.547     -20834.6        3326.1376     -17508.463      1.0456574    
    144000   302.10285      564.58053      54336.631     -20833.255      3379.6186     -17453.637      1.0498895    
    145000   298.84511     -500.91522      55000.563     -20779.673      3343.1743     -17436.499      1.0372159    
    146000   303.76454      105.74014      54502.871     -20854.628      3398.2078     -17456.42       1.0466872    
    147000   295.7033       974.20092      54720.856     -20847.951      3308.027      -17539.925      1.0425176    
    148000   294.71205     -293.2385       55208.22      -20868.661      3296.9378     -17571.723      1.0333146    
    149000   307.66308     -472.23542      54650.974     -20860.435      3441.8208     -17418.614      1.0438507    
    150000   298.81534      984.27247      54519.45      -20920.958      3342.8412     -17578.117      1.0463689    
    151000   302.59657      416.27897      55090.163     -20836.613      3385.1418     -17451.471      1.0355289    
    152000   309.91083      158.10548      54802.671     -20903.495      3466.9663     -17436.528      1.0409613    
    153000   301.68994      135.51714      54688.637     -20796.335      3374.9993     -17421.336      1.0431318    
    154000   302.0813       247.43311      54491.401     -20919.396      3379.3775     -17540.019      1.0469075    
    155000   305.0583      -537.44553      54820.319     -20807.788      3412.6812     -17395.106      1.0406262    
    156000   294.7751      -300.78359      54773.331     -20778.107      3297.6432     -17480.464      1.0415189    
    157000   299.5384      -167.73764      54108.626     -20970.541      3350.9301     -17619.611      1.0543136    
    158000   299.65912      13.410706      54840.11      -20849.197      3352.2806     -17496.916      1.0402506    
    159000   307.00161      384.64278      55156.361     -20834.203      3434.4209     -17399.782      1.0342861    
    160000   306.39422     -180.11957      54823.611     -20860.192      3427.6261     -17432.566      1.0405637    
    161000   296.0268       327.46714      54359.16      -20804.263      3311.6459     -17492.617      1.0494544    
    162000   297.65315     -265.06515      54255.306     -20794.324      3329.8398     -17464.484      1.0514632    
    163000   305.07681      608.78999      54673.546     -20867.467      3412.8883     -17454.578      1.0434198    
    164000   292.95006     -512.71633      54836.262     -20803.654      3277.2265     -17526.427      1.0403236    
    165000   299.2696       543.03076      54799.575     -20793.953      3347.9231     -17446.03       1.0410201    
    166000   301.9607       357.35035      54624.655     -20828.959      3378.0284     -17450.931      1.0443536    
    167000   305.6083       595.41902      53936.22      -20861.452      3418.834      -17442.618      1.0576836    
    168000   297.94861     -268.66301      54217.686     -20801.499      3333.1451     -17468.354      1.0521928    
    169000   298.41138     -6.0888957      54850.547     -20856.769      3338.3222     -17518.447      1.0400527    
    170000   297.81206     -804.30482      54687.229     -20947.654      3331.6175     -17616.036      1.0431587    
    171000   303.45629      517.85752      53993.283     -20800.13       3394.7594     -17405.371      1.0565658    
    172000   305.4881      -599.91602      54483.35      -20799.024      3417.4893     -17381.535      1.0470622    
    173000   300.57749     -528.15575      55287.098     -20934.843      3362.5544     -17572.289      1.0318403    
    174000   307.4489      -1353.9953      55431.456     -20896.565      3439.4248     -17457.141      1.0291531    
    175000   300.89763      1191.5612      53972.234     -20892.26       3366.1358     -17526.124      1.0569779    
    176000   295.95442     -587.32738      54951.471     -20939.39       3310.8363     -17628.554      1.0381425    
    177000   300.90541     -502.9858       54834.58      -20846.161      3366.2228     -17479.938      1.0403555    
    178000   303.54195     -228.09291      54142.202     -20926.326      3395.7177     -17530.608      1.0536597    
    179000   298.4128       276.80454      54402.548     -20868.906      3338.338      -17530.568      1.0486174    
    180000   299.8386       143.86334      54349.417     -20960.622      3354.2884     -17606.334      1.0496425    
    181000   303.76362     -23.113966      54469.722     -20797.861      3398.1975     -17399.663      1.0473242    
    182000   300.7178       569.62028      54405.804     -20848.42       3364.124      -17484.296      1.0485546    
    183000   300.31499     -384.65107      54706.348     -20958.518      3359.6178     -17598.9        1.0427941    
    184000   292.85154     -562.5857       54583.388     -20954.573      3276.1244     -17678.448      1.0451432    
    185000   297.08804     -291.36753      54346.597     -20970.968      3323.518      -17647.45       1.049697     
    186000   304.57167      58.582014      54422.384     -20904.251      3407.2373     -17497.014      1.0482352    
    187000   300.8747      -486.00056      54738.947     -20874.403      3365.8793     -17508.524      1.0421731    
    188000   308.54604      59.39573       54649.778     -20917.965      3451.6985     -17466.267      1.0438736    
    189000   295.71191      80.205866      54483.246     -20910.252      3308.1233     -17602.129      1.0470642    
    190000   301.57515      769.55192      54592.928     -20860.407      3373.7152     -17486.692      1.0449606    
    191000   298.62391     -133.38041      54980.119     -20893.931      3340.6998     -17553.232      1.0376016    
    192000   291.96972      129.89494      55051.872     -20923.213      3266.2594     -17656.953      1.0362492    
    193000   299.84981     -58.77271       54252.846     -20946.612      3354.4138     -17592.198      1.0515109    
    194000   301.26342      648.36733      54357.877     -20787.064      3370.2278     -17416.836      1.0494791    
    195000   291.30008     -528.67239      55291.445     -20833.061      3258.7682     -17574.292      1.0317592    
    196000   306.15166      70.910994      54879.146     -20870.602      3424.9125     -17445.689      1.0395107    
    197000   297.66037     -213.8251       54780.965     -20869.045      3329.9207     -17539.124      1.0413737    
    198000   296.8591      -113.95675      54869.117     -20906.052      3320.9569     -17585.095      1.0397007    
    199000   304.25143     -362.06878      54400.337     -20827.391      3403.6547     -17423.736      1.04866      
    200000   298.10171     -1397.6913      54484.784     -20783.021      3334.8579     -17448.163      1.0470347    
    201000   304.36392     -62.724442      54547.436     -20841.502      3404.9131     -17436.589      1.0458321    
    202000   295.32013      318.72911      54412.052     -20888.684      3303.7405     -17584.944      1.0484342    
    203000   304.49039      917.58886      54255.196     -20837.536      3406.3279     -17431.208      1.0514653    
    204000   304.53881      336.4081       54834.738     -20880.483      3406.8696     -17473.613      1.0403525    
    205000   299.9495       616.08761      54316.157     -20814.525      3355.5291     -17458.996      1.0502852    
    206000   300.54106      232.28864      54014.945     -20827.031      3362.1468     -17464.884      1.0561421    
    207000   300.06232     -251.8232       55048.677     -20673.749      3356.7912     -17316.958      1.0363093    
    208000   308.53168     -464.73237      54562.936     -20896.771      3451.5378     -17445.233      1.045535     
    209000   305.56261     -363.48099      54581.445     -20946.816      3418.3228     -17528.493      1.0451804    
    210000   303.92011     -547.27606      54784.268     -20856.513      3399.9483     -17456.564      1.0413109    
    211000   305.20324      637.2437       54426.753     -20969.035      3414.3026     -17554.732      1.048151     
    212000   303.02392      15.020069      54930.957     -20806.355      3389.9226     -17416.433      1.0385302    
    213000   304.19026     -101.73192      55055.483     -20920.289      3402.9704     -17517.319      1.0361812    
    214000   304.27459     -475.67053      55209.234     -20825.003      3403.9137     -17421.089      1.0332956    
    215000   294.27842     -912.07019      54921.565     -20875.912      3292.0868     -17583.825      1.0387078    
    216000   300.66428     -581.30402      54303.349     -21017.542      3363.5254     -17654.016      1.0505329    
    217000   297.87462      523.39708      54572.074     -20969.313      3332.3174     -17636.995      1.0453599    
    218000   302.15762     -355.27906      55035.068     -20917.032      3380.2313     -17536.801      1.0365656    
    219000   303.25155     -124.87395      54203.198     -20860.295      3392.4691     -17467.826      1.052474     
    220000   300.71115      208.56141      53814.431     -20902.854      3364.0497     -17538.805      1.0600773    
    221000   294.67957      296.67386      54560.967     -20779.912      3296.5745     -17483.337      1.0455727    
    222000   307.92824      888.66287      54627.953     -20897.32       3444.7871     -17452.533      1.0442906    
    223000   299.27384     -157.04043      54982.54      -20946.834      3347.9705     -17598.863      1.0375559    
    224000   304.35868      662.13515      54149.05      -20779.114      3404.8545     -17374.26       1.0535265    
    225000   302.04475     -420.5509       54673.662     -20911.863      3378.9687     -17532.894      1.0434175    
    226000   297.56549     -118.90162      54959.695     -20943.139      3328.8592     -17614.279      1.0379872    
    227000   295.19134     -215.39046      54703.926     -20836.446      3302.2997     -17534.146      1.0428403    
    228000   298.67965      84.96179       54380.322     -20753.183      3341.3233     -17411.86       1.049046     
    229000   295.46506     -403.67216      54664.644     -20920.612      3305.3618     -17615.25       1.0435897    
    230000   298.23059      239.31702      54957.722     -20939.805      3336.2996     -17603.505      1.0380244    
    231000   304.98628      139.75407      54928.25      -20944.111      3411.8754     -17532.235      1.0385814    
    232000   298.96519      456.09858      54572.741     -21060.001      3344.5177     -17715.484      1.0453471    
    233000   306.70028      356.55031      54880.222     -20962.88       3431.0499     -17531.83       1.0394903    
    234000   296.53889     -297.78721      54993.27      -20776.212      3317.3747     -17458.837      1.0373534    
    235000   295.3331       665.8894       54427.251     -20991.653      3303.8855     -17687.768      1.0481414    
    236000   303.41422     -193.85417      55106.883     -20840.84       3394.2889     -17446.551      1.0352147    
    237000   302.65533     -517.31012      55093.342     -20835.863      3385.7991     -17450.063      1.0354692    
    238000   295.66927      274.32218      54033.52      -21013.287      3307.6463     -17705.641      1.055779     
    239000   296.49557      98.608943      54217.958     -20783.297      3316.89       -17466.407      1.0521875    
    240000   300.3707      -280.90567      54746.144     -20791.693      3360.241      -17431.452      1.0420361    
    241000   301.83708      49.327432      54541.371     -20891.57       3376.6454     -17514.925      1.0459484    
    242000   300.14868     -1302.2247      55272.641     -20788.687      3357.7573     -17430.93       1.0321102    
    243000   291.08751      177.54004      55263.835     -20891.181      3256.3902     -17634.791      1.0322747    
    244000   294.63258      122.641        54888.421     -20887.942      3296.0488     -17591.893      1.039335     
    245000   293.87386     -492.65292      54413.003     -20924.221      3287.561      -17636.66       1.0484159    
    246000   294.42664     -275.207        54167.116     -20840.976      3293.745      -17547.231      1.0531751    
    247000   301.00075     -41.532017      54392.673     -20889.038      3367.2894     -17521.748      1.0488078    
    248000   297.25937     -332.67017      54637.527     -20941.694      3325.4346     -17616.259      1.0441076    
    249000   308.50088      105.96496      54805.922     -20789.889      3451.1932     -17338.696      1.0408995    
    250000   295.64272     -151.88251      54892.881     -20824.835      3307.3493     -17517.486      1.0392506    
    251000   296.85418     -796.86073      54206.438     -20819.931      3320.9018     -17499.029      1.0524111    
    252000   297.93751     -271.23133      53829.833     -20902.35       3333.021      -17569.329      1.059774     
    253000   294.3317       233.06869      54387.388     -21003.719      3292.6829     -17711.036      1.0489097    
    254000   300.89837     -281.41716      54885.604     -20895.578      3366.1441     -17529.434      1.0393884    
    255000   299.14031      844.9175       54678.361     -20696.734      3346.4767     -17350.257      1.0433279    
    256000   305.18151      806.89902      54320.776     -20926.743      3414.0594     -17512.684      1.0501959    
    257000   299.88877     -717.89306      54895.436     -20799.735      3354.8497     -17444.885      1.0392022    
    258000   299.23821     -144.34382      55476.308     -20799.434      3347.5719     -17451.862      1.0283211    
    259000   303.07159      268.43961      54672.157     -20852.982      3390.4558     -17462.526      1.0434463    
    260000   297.25751      99.882309      54542.059     -20821.494      3325.4139     -17496.08       1.0459352    
    261000   301.32633     -264.00044      54535.071     -20876.56       3370.9317     -17505.628      1.0460692    
    262000   298.01674     -771.88413      54846.877     -20891.628      3333.9073     -17557.721      1.0401223    
    263000   305.5661      -450.49285      54553.61      -20904.694      3418.3619     -17486.333      1.0457137    
    264000   300.33596     -504.02305      54285.052     -20981.214      3359.8524     -17621.362      1.050887     
    265000   301.97434     -389.62848      54571.092     -20947.223      3378.181      -17569.042      1.0453787    
    266000   294.43887      672.98968      54245.051     -20899.453      3293.8818     -17605.571      1.051662     
    267000   298.50514      110.07372      54333.67      -20844.858      3339.3711     -17505.487      1.0499467    
    268000   301.28923      112.20302      54621.347     -20926.413      3370.5167     -17555.897      1.0444169    
    269000   298.4133      -178.46959      54891.211     -20873.177      3338.3436     -17534.834      1.0392822    
    270000   297.67922     -12.121488      54856.957     -20909.19       3330.1315     -17579.058      1.0399311    
    271000   300.80439     -279.02975      54942.216     -20910.88       3365.0927     -17545.787      1.0383174    
    272000   295.97786      738.6242       54708.26      -20993.657      3311.0985     -17682.559      1.0427577    
    273000   292.72154      414.45268      54532.223     -20893.282      3274.6701     -17618.612      1.0461238    
    274000   306.63919     -462.26255      55015.82      -20930.358      3430.3665     -17499.992      1.0369282    
    275000   293.09905      174.65682      54420.548     -20895.148      3278.8933     -17616.254      1.0482706    
    276000   299.69611     -139.98927      54021.175     -20976.084      3352.6944     -17623.389      1.0560203    
    277000   294.71624     -352.85674      54466.715     -20903.09       3296.9847     -17606.105      1.047382     
    278000   302.45094     -206.13585      55026.955     -20925.716      3383.5127     -17542.204      1.0367184    
    279000   298.80763     -952.07284      54680.385     -21024.081      3342.755      -17681.326      1.0432893    
    280000   302.15872      322.67221      54135.139     -21087.145      3380.2436     -17706.901      1.0537972    
    281000   299.07527     -656.15537      54638.939     -20840.609      3345.7491     -17494.86       1.0440806    
    282000   296.41946     -584.9037       54971.188     -20885.848      3316.0386     -17569.81       1.0377701    
    283000   300.70893     -99.001741      54738.957     -20864.109      3364.0248     -17500.084      1.0421729    
    284000   297.22062     -572.33732      54597.324     -20831.93       3325.0012     -17506.929      1.0448764    
    285000   299.03298      953.73211      54278.188     -20874.195      3345.276      -17528.919      1.0510199    
    286000   296.74881      944.63951      55021.666     -20841.631      3319.7231     -17521.908      1.0368181    
    287000   295.82053     -149.47437      55242.005     -20909.929      3309.3384     -17600.591      1.0326826    
    288000   305.86469     -291.3978       54966.999     -20870.015      3421.7022     -17448.313      1.0378492    
    289000   304.50742      522.64334      54555.663     -20823.834      3406.5184     -17417.315      1.0456744    
    290000   292.31264     -484.94476      55066.73      -20944.064      3270.0957     -17673.969      1.0359696    
    291000   301.23653      317.80696      54319.662     -20897.489      3369.9271     -17527.561      1.0502175    
    292000   303.92059     -286.01548      54400.044     -20966.665      3399.9536     -17566.712      1.0486657    
    293000   304.60986     -197.0864       54924.875     -20944.628      3407.6645     -17536.964      1.0386452    
    294000   300.48077     -201.38294      54545.481     -21015.391      3361.4724     -17653.918      1.0458695    
    295000   306.11212      234.38199      54689.532     -20830.049      3424.4702     -17405.579      1.0431147    
    296000   301.97122     -0.75527137     54536.902     -20792.514      3378.1461     -17414.368      1.0460341    
    297000   303.09474     -355.53811      54595.797     -20834.228      3390.7148     -17443.513      1.0449057    
    298000   296.06727      1205.5859      54032.43      -20743.867      3312.0987     -17431.768      1.0558003    
    299000   298.91395      923.97987      54536.095     -20800.501      3343.9444     -17456.556      1.0460496    
    300000   293.53226     -330.53497      54651.388     -20827.382      3283.7396     -17543.642      1.0438428    
    300010   297.5982       418.16692      54653.825     -20893.044      3329.2251     -17563.819      1.0437962    
Loop time of 7705.45 on 10 procs for 200000 steps with 5541 atoms

Performance: 4.485 ns/day, 5.351 hours/ns, 25.956 timesteps/s, 143.820 katom-step/s
633.4% CPU use with 1 MPI tasks x 10 OpenMP threads

MPI task timing breakdown:
Section |  min time  |  avg time  |  max time  |%varavg| %total
---------------------------------------------------------------
Pair    | 217.84     | 217.84     | 217.84     |   0.0 |  2.83
Bond    | 2.5775     | 2.5775     | 2.5775     |   0.0 |  0.03
Kspace  | 3501.9     | 3501.9     | 3501.9     |   0.0 | 45.45
Neigh   | 0.46313    | 0.46313    | 0.46313    |   0.0 |  0.01
Comm    | 93.533     | 93.533     | 93.533     |   0.0 |  1.21
Output  | 0.93572    | 0.93572    | 0.93572    |   0.0 |  0.01
Modify  | 3852.6     | 3852.6     | 3852.6     |   0.0 | 50.00
Other   |            | 35.58      |            |       |  0.46

Nlocal:           5541 ave        5541 max        5541 min
Histogram: 1 0 0 0 0 0 0 0 0 0
Nghost:          35589 ave       35589 max       35589 min
Histogram: 1 0 0 0 0 0 0 0 0 0
Neighs:              0 ave           0 max           0 min
Histogram: 1 0 0 0 0 0 0 0 0 0

Total # of neighbors = 0
Ave neighs/atom = 0
Ave special neighs/atom = 2.4872767
Neighbor list builds = 18536
Dangerous builds = 0

unfix mynpt_gentle

variable phase1_dens equal density
variable phase1_press equal press
print ""

print "Phase 1 complete:"
Phase 1 complete:
print "  Density:  ${phase1_dens} g/cmÂ³"
  Density:  1.04379624410253 g/cm³
print "  Pressure: ${phase1_press} atm"
  Pressure: 418.166923739676 atm
print ""


# Phase 2: Standard NPT damping (600 ps)
print "Phase 2: Final equilibration (600 ps, pdamp=2000)..."
Phase 2: Final equilibration (600 ps, pdamp=2000)...
# ğŸ”§ CRITICAL: Using npt/gpu instead of npt for FULL GPU acceleration
fix mynpt_standard all npt/gpu temp 300.0 300.0 100.0 iso 1.0 1.0 2000.0

run 300000  # 600 ps at 2 fs timestep
PPPM initialization ...
  extracting TIP4P info from pair style
  using 12-bit tables for long-range coulomb
  G vector (1/distance) = 0.28820144
  grid = 50 50 50
  stencil order = 5
  estimated absolute RMS force accuracy = 0.00033196502
  estimated relative force accuracy = 9.9970279e-07
  using double precision FFTW3
  3d grid and FFT values/proc = 205379 125000
Generated 0 of 3 mixed pair_coeff terms from geometric mixing rule
Per MPI rank memory allocation (min/avg/max) = 62.18 | 62.18 | 62.18 Mbytes
   Step          Temp          Press          Volume         PotEng         KinEng         TotEng        Density    
    300010   297.5982       420.31994      54653.825     -20892.988      3329.2251     -17563.763      1.0437962    
    301000   299.50478     -283.31968      54612.805     -20873.166      3350.554      -17522.612      1.0445803    
    302000   294.44099      742.12865      54146.167     -20955.875      3293.9055     -17661.97       1.0535826    
    303000   305.08379      250.60414      54179.999     -20925.476      3412.9663     -17512.51       1.0529247    
    304000   305.07165      457.97005      54615.036     -20974.937      3412.8305     -17562.107      1.0445376    
    305000   298.0086       156.49234      54625.211     -20859.027      3333.8163     -17525.21       1.044343     
    306000   300.09851     -441.79314      54174.738     -20868.014      3357.1961     -17510.818      1.0530269    
    307000   297.13762      806.93542      54034.312     -20893.003      3324.0726     -17568.93       1.0557636    
    308000   298.92865      486.97066      54592.59      -20820.038      3344.1089     -17475.929      1.044967     
    309000   292.18879     -1254.7125      54890.14      -20906.089      3268.7102     -17637.379      1.0393025    
    310000   302.77919     -119.8678       54626.108     -20858.384      3387.1848     -17471.199      1.0443259    
    311000   292.26072     -757.79687      54342.123     -20884.532      3269.5149     -17615.017      1.0497834    
    312000   301.64367     -169.63695      54794.294     -20818.81       3374.4817     -17444.328      1.0411204    
    313000   301.78658      296.30189      54080.201     -20983.003      3376.0805     -17606.923      1.0548677    
    314000   304.69759      523.1467       54792.542     -20733.546      3408.6459     -17324.9        1.0411537    
    315000   301.94067     -261.14269      54715.054     -20817.88       3377.8043     -17440.076      1.0426282    
    316000   299.91602      315.57531      54172.353     -21018.741      3355.1546     -17663.586      1.0530733    
    317000   295.57758     -203.54042      55000.34      -20766.728      3306.6205     -17460.108      1.0372201    
    318000   300.70928      222.42092      54842.685     -20791.826      3364.0287     -17427.798      1.0402018    
    319000   300.17798     -109.58194      54569.696     -20874.782      3358.085      -17516.697      1.0454055    
    320000   293.24037      867.21739      54647.829     -20839.368      3280.4742     -17558.894      1.0439108    
    321000   300.70317      174.46404      53994.888     -20964.781      3363.9603     -17600.821      1.0565344    
    322000   306.47823     -247.54432      54978.813     -20833.338      3428.5658     -17404.772      1.0376262    
    323000   293.46655     -90.903061      54709.771     -20994.491      3283.0045     -17711.486      1.0427289    
    324000   303.85973     -239.50752      54928.591     -20661.717      3399.2728     -17262.444      1.0385749    
    325000   310.62647     -389.50163      54773.139     -20742.236      3474.9721     -17267.264      1.0415225    
    326000   295.99858      128.40671      54909.478     -20726.57       3311.3303     -17415.24       1.0389364    
    327000   296.23837      233.49898      54913.44      -20696.253      3314.0128     -17382.24       1.0388615    
    328000   296.17977      1353.8319      54057.661     -20806.451      3313.3572     -17493.094      1.0553076    
    329000   295.56843     -12.728886      54154.572     -20888.905      3306.5182     -17582.387      1.053419     
    330000   301.80977     -124.48725      54590.763     -20942.191      3376.3398     -17565.851      1.045002     
    331000   300.95862      278.82727      54404.604     -21010.909      3366.8181     -17644.091      1.0485778    
    332000   293.66298      96.654286      54254.234     -20809.069      3285.2019     -17523.868      1.051484     
    333000   300.01174      438.70857      54209.976     -20914.763      3356.2254     -17558.537      1.0523424    
    334000   297.50115     -398.40219      54539.673     -20760.424      3328.1395     -17432.285      1.0459809    
    335000   303.96533     -172.19281      54615.028     -20734.868      3400.4541     -17334.414      1.0445377    
    336000   298.88139     -247.94551      54928.788     -20695.394      3343.5801     -17351.813      1.0385712    
    337000   300.11106      697.06036      54676.728     -20817.345      3357.3365     -17460.008      1.043359     
    338000   299.9289       477.46711      54403.046     -20869.981      3355.2986     -17514.682      1.0486078    
    339000   293.55759     -621.16843      54190.701     -20950.607      3284.0229     -17666.584      1.0527167    
    340000   299.77116      176.15856      54805.508     -20799.564      3353.534      -17446.03       1.0409074    
    341000   302.9744      -554.46763      54553.583     -20806.99       3389.3686     -17417.621      1.0457142    
    342000   298.59724      325.8724       54434.468     -20837.753      3340.4014     -17497.352      1.0480025    
    343000   296.9328       659.45403      54437.388     -20809.218      3321.7813     -17487.437      1.0479463    
    344000   301.12015      750.48407      54698.369     -20817.641      3368.6252     -17449.016      1.0429462    
    345000   308.86726      139.05463      54650.916     -20934.4        3455.2919     -17479.108      1.0438518    
    346000   298.45884     -120.06844      54396.302     -20917.753      3338.8531     -17578.899      1.0487378    
    347000   303.18345     -197.48524      54980.912     -20756.031      3391.7073     -17364.324      1.0375866    
    348000   304.24819      157.88519      54607.424     -20759.89       3403.6184     -17356.272      1.0446832    
    349000   302.3039       150.67473      54508.801     -20863.462      3381.8677     -17481.594      1.0465733    
    350000   303.24177     -280.99036      54848.073     -20749.287      3392.3596     -17356.927      1.0400996    
    351000   298.75331     -131.36343      55085.711     -20866.06       3342.1473     -17523.912      1.0356126    
    352000   300.82251     -973.16988      54703.459     -20977.561      3365.2954     -17612.266      1.0428492    
    353000   307.89544     -268.35903      55091.648     -20796.883      3444.4202     -17352.463      1.035501     
    354000   299.92276     -1061.0428      55049.023     -20834.772      3355.23       -17479.542      1.0363028    
    355000   299.51238      334.82975      54597.552     -20880.384      3350.639      -17529.745      1.0448721    
    356000   302.65478     -223.40789      54777.453     -20833.013      3385.793      -17447.22       1.0414405    
    357000   304.72454      965.70193      54338.27      -20793.108      3408.9474     -17384.161      1.0498578    
    358000   302.3815       297.49451      54520.641     -20791.654      3382.7358     -17408.918      1.0463461    
    359000   302.71987      268.83869      54426.059     -20839.77       3386.5212     -17453.249      1.0481644    
    360000   302.17954     -25.561859      54482.72      -20933.302      3380.4765     -17552.825      1.0470743    
    361000   295.41386     -184.33092      54439.295     -20765.848      3304.789      -17461.059      1.0479096    
    362000   291.62782      755.3766       54565.682     -20802.509      3262.4346     -17540.074      1.0454823    
    363000   304.70146     -54.047839      54702.799     -20841.906      3408.6892     -17433.217      1.0428618    
    364000   306.39639     -991.42787      54847.804     -20977.651      3427.6503     -17550.001      1.0401047    
    365000   297.17643      20.268584      55002.279     -20796.818      3324.5068     -17472.311      1.0371835    
    366000   301.64072     -345.20224      54561.547     -20899.097      3374.4487     -17524.649      1.0455616    
    367000   300.77904      571.96476      54489.353     -20866.519      3364.8091     -17501.71       1.0469469    
    368000   301.5619      -560.43574      54731.842     -20824.855      3373.567      -17451.288      1.0423084    
    369000   302.64283     -134.41115      55261.641     -20845.553      3385.6594     -17459.894      1.0323157    
    370000   305.00789     -454.02648      54613.477     -20902.584      3412.1173     -17490.466      1.0445674    
    371000   306.7824      -154.03794      54540.773     -20769.939      3431.9686     -17337.971      1.0459598    
    372000   299.79611      183.1589       53988.035     -20797.806      3353.8131     -17443.993      1.0566685    
    373000   301.54487     -948.31631      54613.99      -20791.11       3373.3764     -17417.733      1.0445576    
    374000   298.95873     -341.53997      54807.917     -20763.218      3344.4453     -17418.773      1.0408616    
    375000   300.07588      157.89042      54579.853     -20817.628      3356.9429     -17460.686      1.0452109    
    376000   299.65356     -38.026312      54644.614     -20821.985      3352.2184     -17469.767      1.0439722    
    377000   298.33881     -200.65891      54839.744     -20899.264      3337.5103     -17561.754      1.0402576    
    378000   293.7849       71.11119       54648.297     -20918.105      3286.5658     -17631.539      1.0439018    
    379000   303.33593     -272.28223      55301.106     -20807.04       3393.413      -17413.627      1.031579     
    380000   300.56089      329.51378      53863.551     -20832.498      3362.3687     -17470.13       1.0591106    
    381000   293.54146      196.00926      54612.408     -20721.945      3283.8425     -17438.102      1.0445879    
    382000   300.48338      263.19704      54346.624     -20974.071      3361.5016     -17612.569      1.0496964    
    383000   304.70337     -85.018271      54291.165     -20952.782      3408.7106     -17544.071      1.0507687    
    384000   294.96288     -355.19082      54294.281     -20887.863      3299.7438     -17588.119      1.0507084    
    385000   297.73602     -61.544599      54479.703     -20904.859      3330.767      -17574.092      1.0471323    
    386000   290.88178     -168.75992      54714.315     -20922.878      3254.0887     -17668.789      1.0426423    
    387000   300.09628     -85.908991      54262.231     -20945.812      3357.1711     -17588.641      1.051329     
    388000   295.75287     -262.50688      55062.828     -20828.195      3308.5815     -17519.614      1.036043     
    389000   301.99021      107.23933      54899.271     -20828.469      3378.3585     -17450.11       1.0391296    
    390000   300.16146      3.6582959      54714.423     -20724.218      3357.9003     -17366.318      1.0426402    
    391000   297.31097      482.61619      54869.415     -20847.08       3326.0119     -17521.068      1.039695     
    392000   299.47967     -546.95577      54507.257     -20853.548      3350.2731     -17503.275      1.046603     
    393000   295.63485      92.500332      54792.191     -20822.229      3307.2612     -17514.968      1.0411604    
    394000   307.25874     -532.82803      54779.994     -20843.847      3437.2974     -17406.549      1.0413922    
    395000   299.29614      263.79817      54602.781     -21025.159      3348.2199     -17676.939      1.044772     
    396000   301.04482      799.34734      54588.439     -20812.895      3367.7824     -17445.112      1.0450465    
    397000   301.91939     -64.99693       54652.325     -20871.302      3377.5663     -17493.736      1.0438249    
    398000   298.23811      213.25679      54606.334     -20899.97       3336.3839     -17563.587      1.044704     
    399000   296.45433     -205.2303       54021.281     -20886.179      3316.4287     -17569.75       1.0560182    
    400000   301.44967     -683.87083      55216.469     -20839.904      3372.3114     -17467.592      1.0331602    
    401000   311.32216     -344.67159      55032.944     -20778.593      3482.7548     -17295.838      1.0366056    
    402000   304.31824      543.55891      54270.677     -20879.177      3404.4021     -17474.775      1.0511654    
    403000   297.8426       266.80687      54169.929     -20864.623      3331.9593     -17532.664      1.0531204    
    404000   299.28232      177.14347      54611.002     -20842.246      3348.0654     -17494.18       1.0446147    
    405000   300.31993     -301.8656       54680.016     -20828.914      3359.673      -17469.241      1.0432963    
    406000   303.68633     -14.040532      54426.071     -20855.123      3397.333      -17457.79       1.0481642    
    407000   304.18804      181.20345      54772.797     -20899.043      3402.9456     -17496.097      1.041529     
    408000   299.8868       88.319971      55071.694     -20876.451      3354.8276     -17521.624      1.0358762    
    409000   301.22251     -193.46271      54972.772     -20768.244      3369.7703     -17398.474      1.0377402    
    410000   305.69888      675.74506      54418.768     -21006.11       3419.8473     -17586.262      1.0483048    
    411000   297.80765      835.14716      54155.42      -20885.24       3331.5682     -17553.672      1.0534026    
    412000   299.32952     -412.77508      55016.034     -20810.625      3348.5934     -17462.032      1.0369242    
    413000   298.72745      1114.5303      53997.47      -20877.249      3341.858      -17535.391      1.0564839    
    414000   308.33951     -91.841698      54396.555     -20782.193      3449.3879     -17332.806      1.0487329    
    415000   304.06417     -504.98626      54367.472     -20790.324      3401.5598     -17388.764      1.0492939    
    416000   298.87881      979.61677      54012.374     -20925.293      3343.5513     -17581.742      1.0561924    
    417000   300.80832     -659.09429      54815.533     -20848.289      3365.1367     -17483.152      1.040717     
    418000   298.80117     -334.72343      54463.411     -20839.013      3342.6827     -17496.33       1.0474456    
    419000   304.44799      340.52903      54717.623     -20749.922      3405.8536     -17344.069      1.0425792    
    420000   305.62806      272.46923      54790.085     -20940.48       3419.0551     -17521.425      1.0412004    
    421000   302.14364     -209.40699      54488.381     -20880.655      3380.0749     -17500.58       1.0469655    
    422000   306.16724      344.47162      54539.709     -20942.846      3425.0869     -17517.759      1.0459802    
    423000   306.45821     -1296.0545      55023.812     -20742.903      3428.3418     -17314.561      1.0367776    
    424000   291.28729     -644.66703      54731.871     -20848.654      3258.6252     -17590.029      1.0423078    
    425000   296.60914     -164.4562       54504.578     -20852.379      3318.1605     -17534.218      1.0466544    
    426000   301.79166      897.62543      54896.927     -20793.815      3376.1373     -17417.678      1.039174     
    427000   305.99169      130.52158      54635.99      -20735.305      3423.123      -17312.182      1.044137     
    428000   301.11148     -692.62267      55516.759     -20895.703      3368.5281     -17527.175      1.0275718    
    429000   304.71555     -480.51197      54954.555     -20812.883      3408.8468     -17404.036      1.0380843    
    430000   304.93827     -900.70057      54580.4       -20802.978      3411.3384     -17391.64       1.0452004    
    431000   299.59251     -572.13685      54629.726     -20742.178      3351.5354     -17390.642      1.0442567    
    432000   300.1051       546.26717      54870.896     -20858.115      3357.2697     -17500.845      1.039667     
    433000   296.62095     -104.07939      54462.787     -20854.17       3318.2927     -17535.878      1.0474576    
    434000   302.40649      95.875052      54620.199     -20747.977      3383.0154     -17364.962      1.0444388    
    435000   304.90502     -180.8367       54568.936     -20853.695      3410.9664     -17442.728      1.04542      
    436000   298.82226     -73.073138      54071.57      -20878.306      3342.9186     -17535.388      1.0550361    
    437000   301.52076      248.19684      55045.578     -20883.523      3373.1067     -17510.417      1.0363677    
    438000   304.8356       528.30904      54188.639     -20947.644      3410.1898     -17537.455      1.0527568    
    439000   301.90359      119.74642      54231.67      -20938.558      3377.3895     -17561.169      1.0519215    
    440000   295.45869      103.75781      54960.361     -20868.269      3305.2904     -17562.978      1.0379746    
    441000   302.26467     -314.99594      54740.842     -20902.295      3381.4289     -17520.866      1.042137     
    442000   297.82622      994.68145      54543.106     -20931.546      3331.776      -17599.77       1.0459151    
    443000   299.2859      -285.35512      55337.639     -20799.065      3348.1055     -17450.96       1.0308979    
    444000   301.79575     -913.21194      55333.49      -20886.214      3376.183      -17510.031      1.0309752    
    445000   296.78143      326.9212       54925.778     -20927.057      3320.088      -17606.969      1.0386281    
    446000   299.39032     -25.9293        54598.081     -20918.721      3349.2735     -17569.447      1.044862     
    447000   296.56114      145.91823      54810.829     -20897.524      3317.6235     -17579.901      1.0408063    
    448000   298.45775      258.02463      54606.699     -20874.279      3338.8409     -17535.438      1.044697     
    449000   303.38302     -636.70533      54541.627     -20905.87       3393.9398     -17511.93       1.0459435    
    450000   298.33453     -461.12368      54324.273     -20876.389      3337.4625     -17538.927      1.0501283    
    451000   304.4171       423.69436      53967.965     -20974.863      3405.508      -17569.355      1.0570615    
    452000   303.15382      731.69668      54477.301     -20937.792      3391.3757     -17546.416      1.0471785    
    453000   294.8997       44.12492       54780.811     -20749.004      3299.037      -17449.967      1.0413767    
    454000   305.34171      669.08118      54411.119     -20804.307      3415.8517     -17388.456      1.0484522    
    455000   301.15735     -627.54071      54675.746     -20928.848      3369.0413     -17559.807      1.0433778    
    456000   306.04142      185.5244       54296.083     -21004.099      3423.6792     -17580.42       1.0506735    
    457000   303.31704      144.34512      54622.092     -20926.688      3393.2017     -17533.487      1.0444026    
    458000   296.33013      136.6097       54294.867     -20803.731      3315.0392     -17488.692      1.0506971    
    459000   297.59583     -707.53081      54700.325     -20849.728      3329.1987     -17520.529      1.0429089    
    460000   312.46229     -642.52138      54350.166     -20849.916      3495.5095     -17354.407      1.049628     
    461000   306.4198       229.56893      55226.947     -20844.193      3427.9122     -17416.28       1.0329642    
    462000   293.71023      776.9269       54814.237     -20911.921      3285.7305     -17626.19       1.0407416    
    463000   300.61902      32.326119      54640.627     -20919.872      3363.019      -17556.853      1.0440484    
    464000   294.32014     -273.77711      54660.099     -20920.35       3292.5536     -17627.797      1.0436764    
    465000   302.9727       112.93697      55102.89      -20849.105      3389.3495     -17459.756      1.0352898    
    466000   297.49787     -387.26935      54209.296     -20936.544      3328.1027     -17608.441      1.0523556    
    467000   300.51168     -62.50091       54810.417     -20846.373      3361.8182     -17484.555      1.0408141    
    468000   293.7002      -12.9941        54610.591     -20834.203      3285.6182     -17548.585      1.0446226    
    469000   303.75543      8.8352286      54698.65      -20883.91       3398.1059     -17485.804      1.0429409    
    470000   305.60785      171.22517      54129.267     -20927.291      3418.8289     -17508.462      1.0539115    
    471000   294.37049     -1045.2246      54688.643     -20696.784      3293.1168     -17403.668      1.0431317    
    472000   304.23527     -1280.2064      54934.554     -20774.798      3403.4739     -17371.324      1.0384622    
    473000   293.73077      28.963269      54930.084     -20830.345      3285.9602     -17544.385      1.0385467    
    474000   289.96129      472.69314      54811.404     -20789.318      3243.7912     -17545.527      1.0407954    
    475000   301.25407     -367.66623      54649.33      -20822.604      3370.1233     -17452.481      1.0438821    
    476000   301.18941      704.33972      54568.926     -20785.471      3369.3999     -17416.071      1.0454202    
    477000   301.85111      125.97779      54386.081     -20868.129      3376.8024     -17491.327      1.0489349    
    478000   297.20426     -474.86976      54510.262     -20869.65       3324.8181     -17544.832      1.0465453    
    479000   295.07529     -667.71712      54810.493     -20808.213      3301.0014     -17507.211      1.0408127    
    480000   301.95597     -294.60975      54541.218     -20927.528      3377.9754     -17549.553      1.0459513    
    481000   304.19193     -921.89935      54642.605     -20828.314      3402.989      -17425.325      1.0440106    
    482000   299.23667     -241.90479      54142.952     -20933.13       3347.5547     -17585.576      1.0536451    
    483000   299.173        596.99977      54626.882     -20725.102      3346.8424     -17378.259      1.0443111    
    484000   304.08644     -828.28235      54599.779     -20782.945      3401.8089     -17381.137      1.0448295    
    485000   300.27876      254.23333      55205.143     -20853.101      3359.2125     -17493.888      1.0333722    
    486000   299.72399     -863.48753      55342.482     -20788.341      3353.0063     -17435.335      1.0308077    
    487000   306.40962     -175.95226      55086.693     -20755.857      3427.7983     -17328.059      1.0355942    
    488000   300.38632     -143.26613      54759.915     -20816.033      3360.4158     -17455.617      1.041774     
    489000   301.56451      482.54659      54499.798     -20735.69       3373.5962     -17362.093      1.0467462    
    490000   309.17159      618.85186      54371.879     -20990.587      3458.6964     -17531.89       1.0492089    
    491000   292.74368      388.61757      54262.315     -20916.103      3274.9178     -17641.185      1.0513274    
    492000   300.66059      453.01753      54423.534     -20982.71       3363.484      -17619.226      1.048213     
    493000   297.97699     -341.49379      54334.222     -20902.09       3333.4627     -17568.627      1.049936     
    494000   300.52277     -381.83912      54729.003     -20864.89       3361.9423     -17502.947      1.0423624    
    495000   303.6958       36.488036      54984.055     -20883.284      3397.4388     -17485.845      1.0375273    
    496000   313.04692     -56.597918      54633.856     -20952.436      3502.0497     -17450.386      1.0441778    
    497000   295.87812     -303.31424      54440.32      -20765.541      3309.9827     -17455.559      1.0478898    
    498000   301.47681     -965.11284      54475.445     -20881.267      3372.615      -17508.652      1.0472142    
    499000   295.23954      859.22251      54101.307     -20888.466      3302.8389     -17585.627      1.0544562    
    500000   302.69353     -403.40859      54800.623     -20843.766      3386.2265     -17457.54       1.0410002    
    501000   302.11203      275.93346      54379.595     -20964.938      3379.7213     -17585.217      1.04906      
    502000   294.46213      212.63539      54045.722     -21013.953      3294.142      -17719.811      1.0555407    
    503000   304.93431     -136.29534      54749.569     -20795.675      3411.294      -17384.381      1.0419709    
    504000   305.38151      9.2256787      54576.345     -20788.499      3416.2969     -17372.202      1.0452781    
    505000   299.45311     -100.17671      54734.487     -20851.583      3349.976      -17501.607      1.042258     
    506000   299.0383      -1010.1444      54927.229     -20865.477      3345.3355     -17520.141      1.0386007    
    507000   298.88136     -145.39397      54574.873     -20875.607      3343.5798     -17532.027      1.0453063    
    508000   297.73798     -75.684514      54758.081     -20830.143      3330.7889     -17499.354      1.0418089    
    509000   295.05445      430.2818       54368.16      -20854.812      3300.7683     -17554.043      1.0492806    
    510000   294.17879      508.64216      54843.501     -20889.207      3290.9723     -17598.235      1.0401863    
    511000   300.01717      209.10302      54229.566     -20786.45       3356.2862     -17430.164      1.0519623    
    512000   294.88662      170.1082       54462.477     -20778.616      3298.8907     -17479.726      1.0474635    
    513000   300.80723      216.87144      54292.797     -20917.362      3365.1245     -17552.238      1.0507371    
    514000   296.35491     -565.95402      54401.145     -20720.479      3315.3165     -17405.163      1.0486444    
    515000   297.61415      189.9506       54449.565     -20928.882      3329.4036     -17599.479      1.0477119    
    516000   303.14905      302.30321      54208.622     -20952.873      3391.3224     -17561.551      1.0523687    
    517000   297.46367     -160.35919      54476.714     -21013.878      3327.7201     -17686.158      1.0471898    
    518000   294.54184     -285.77923      54748.446     -20919.902      3295.0337     -17624.868      1.0419923    
    519000   296.62838      399.17561      54969.84      -20875.528      3318.3758     -17557.152      1.0377956    
    520000   295.69437     -15.153243      54755.74      -20907.932      3307.9271     -17600.005      1.0418535    
    521000   300.64655      9.6560612      54707.461     -20981.067      3363.3269     -17617.74       1.0427729    
    522000   301.95949     -215.65329      54946.459     -20918.169      3378.0148     -17540.154      1.0382372    
    523000   304.99034     -282.57343      54865.245     -20849.167      3411.9209     -17437.246      1.0397741    
    524000   301.08417     -188.59098      54321.665     -20915.588      3368.2227     -17547.365      1.0501787    
    525000   297.49663      345.58556      54608.943     -20881.85       3328.0889     -17553.761      1.0446541    
    526000   300.83773      298.9585       54197.242     -20996.566      3365.4657     -17631.1        1.0525897    
    527000   313.1209       879.29504      54194.79      -20886.391      3502.8773     -17383.514      1.0526373    
    528000   300.7169       1204.0829      54649.612     -20868.878      3364.1139     -17504.764      1.0438767    
    529000   296.15261     -860.41195      54883.656     -20916.053      3313.0534     -17603          1.0394252    
    530000   302.241       -414.72643      54945.48      -20928.894      3381.1641     -17547.73       1.0382557    
    531000   298.43064     -253.04704      54547.425     -20760.428      3338.5377     -17421.89       1.0458323    
    532000   303.33615      386.89209      54257.719     -20907.509      3393.4155     -17514.093      1.0514164    
    533000   299.51568      219.5956       54441.06      -20943.214      3350.676      -17592.538      1.0478756    
    534000   293.52416     -658.023        54597.835     -20997.756      3283.6489     -17714.107      1.0448667    
    535000   297.8077       12.935311      55269.147     -20866.401      3331.5688     -17534.832      1.0321755    
    536000   298.93655      668.08638      54255.336     -20881.793      3344.1972     -17537.596      1.0514626    
    537000   305.31561     -360.17507      54248.493     -20881.427      3415.5597     -17465.867      1.0515952    
    538000   303.86992      251.12607      54764.576     -20926.577      3399.3868     -17527.191      1.0416854    
    539000   294.48799     -172.11055      54279.834     -21025.169      3294.4313     -17730.738      1.0509881    
    540000   305.5495      -767.16364      54525.671     -20955.348      3418.1761     -17537.172      1.0462495    
    541000   310.44755      664.23271      54404.413     -20927.203      3472.9705     -17454.233      1.0485814    
    542000   305.84259      611.64323      54219.913     -20808.431      3421.455      -17386.976      1.0521496    
    543000   291.11655     -641.59516      53998.956     -20909.418      3256.7151     -17652.703      1.0564548    
    544000   297.58016     -1310.8294      54643.054     -20886.331      3329.0233     -17557.308      1.044002     
    545000   298.65516     -364.66524      54298.166     -20882.936      3341.0494     -17541.887      1.0506332    
    546000   299.47555     -295.82892      54569.296     -20950.105      3350.227      -17599.878      1.0454131    
    547000   305.29187     -279.72783      54961.612     -20854.752      3415.2941     -17439.457      1.0379509    
    548000   294.43174     -171.87205      54411.423     -20887.29       3293.802      -17593.488      1.0484464    
    549000   289.41592      31.740018      54517.054     -21040.198      3237.6901     -17802.508      1.0464149    
    550000   304.8581       107.50121      54776.367     -20935.224      3410.4415     -17524.783      1.0414611    
    551000   300.43911     -323.92372      54720.335     -20900.685      3361.0063     -17539.678      1.0425276    
    552000   299.76626     -650.2437       54929.3       -20873.908      3353.4792     -17520.429      1.0385615    
    553000   297.29683      328.67817      54489.795     -20950.383      3325.8537     -17624.529      1.0469384    
    554000   296.54984      702.79435      54534.262     -20912.418      3317.4972     -17594.921      1.0460847    
    555000   307.57726     -201.91187      54619.301     -20916.363      3440.8607     -17475.502      1.044456     
    556000   298.69007     -107.22283      54298.676     -20911.739      3341.4399     -17570.299      1.0506234    
    557000   296.93663     -229.29426      55058.306     -20938.769      3321.8242     -17616.945      1.0361281    
    558000   294.75298     -104.12976      54507.081     -20999.698      3297.3957     -17702.302      1.0466064    
    559000   300.49594      24.654408      54878.362     -20851.916      3361.6421     -17490.274      1.0395255    
    560000   294.77239     -95.924069      54747.791     -20806.34       3297.6129     -17508.727      1.0420047    
    561000   303.10764     -351.13448      55292.931     -20836.187      3390.8591     -17445.328      1.0317315    
    562000   299.65108     -857.26308      55269.423     -20817.576      3352.1906     -17465.386      1.0321703    
    563000   298.70038      403.3112       54635.058     -20895.49       3341.5553     -17553.935      1.0441548    
    564000   298.67016      220.94616      54808.922     -20860.653      3341.2172     -17519.436      1.0408425    
    565000   297.96503      16.670371      54499.602     -20936.384      3333.3289     -17603.055      1.04675      
    566000   302.70028      597.40812      54449.379     -20778.333      3386.302      -17392.031      1.0477155    
    567000   302.80716      46.812809      54906.14      -20755.801      3387.4977     -17368.304      1.0389996    
    568000   302.33105      157.80413      54922.703     -20867.471      3382.1714     -17485.3        1.0386863    
    569000   300.45867     -6.2990571      54594         -20822.657      3361.2252     -17461.432      1.0449401    
    570000   294.265       -44.696115      54194.547     -20838.723      3291.9367     -17546.787      1.052642     
    571000   300.6011       158.56791      54755.294     -20775.269      3362.8185     -17412.451      1.041862     
    572000   295.34916     -141.95294      54636.398     -20821.665      3304.0651     -17517.6        1.0441292    
    573000   306.99354     -321.78593      54281.534     -20891.449      3434.3306     -17457.119      1.0509551    
    574000   301.61111     -33.014997      54555.113     -20900.395      3374.1175     -17526.277      1.0456849    
    575000   303.44326      64.009324      54827.162     -20825.943      3394.6137     -17431.329      1.0404963    
    576000   292.8229      -97.86947       54465.143     -20898.909      3275.8039     -17623.105      1.0474122    
    577000   294.46652     -102.63105      54842.943     -20823.202      3294.1911     -17529.011      1.0401969    
    578000   299.84309     -448.22519      54757.824     -20806.298      3354.3387     -17451.959      1.0418138    
    579000   300.92439      822.06587      55262.146     -20799.553      3366.4352     -17433.118      1.0323062    
    580000   300.32172     -675.96193      54813.003     -20835.583      3359.6931     -17475.89       1.0407651    
    581000   301.73536      341.6244       54958.875     -20924.628      3375.5074     -17549.121      1.0380027    
    582000   299.55251     -180.85355      54411.717     -20897.27       3351.088      -17546.182      1.0484407    
    583000   305.24393     -312.61541      54838.615     -20786.869      3414.7578     -17372.111      1.040279     
    584000   307.30829      303.72688      54588.261     -20773.34       3437.8517     -17335.489      1.0450499    
    585000   298.14489     -336.12071      54876.286     -20759.786      3335.341      -17424.445      1.0395648    
    586000   304.14008      473.25959      54330.971     -20875.431      3402.4091     -17473.022      1.0499989    
    587000   299.82641     -659.41322      54759.975     -20885.392      3354.1521     -17531.24       1.0417729    
    588000   304.01097      701.94398      54613.395     -20877.68       3400.9647     -17476.715      1.044569     
    589000   301.79979      88.471714      54928.554     -20844.264      3376.2283     -17468.036      1.0385756    
    590000   299.61634     -146.96752      54314.646     -20782.701      3351.8021     -17430.899      1.0503145    
    591000   310.78428      181.37068      54219.836     -20829.044      3476.7376     -17352.307      1.0521511    
    592000   295.24722     -63.588239      54164.154     -20904.048      3302.9248     -17601.123      1.0532327    
    593000   304.32747     -747.81376      53819.253     -20855.289      3404.5054     -17450.784      1.0599823    
    594000   300.30365      2.1518178      54482.473     -20780.39       3359.4909     -17420.899      1.0470791    
    595000   303.5651      -662.216        55272.71      -20864.554      3395.9767     -17468.577      1.0321089    
    596000   301.40192      66.343314      54896.75      -20868.919      3371.7773     -17497.142      1.0391773    
    597000   301.55839     -433.60555      54539.342     -20818.16       3373.5277     -17444.632      1.0459873    
    598000   296.89348     -771.31242      54464.057     -20754.726      3321.3414     -17433.384      1.0474331    
    599000   297.40558      73.744228      54896.59      -20915.516      3327.0704     -17588.445      1.0391803    
    600000   301.90811     -129.83662      55108.64      -20862.909      3377.4401     -17485.468      1.0351817    
    600010   304.13309      134.6226       55122.23      -20893.077      3402.3308     -17490.746      1.0349265    
Loop time of 11505.9 on 10 procs for 300000 steps with 5541 atoms

Performance: 4.506 ns/day, 5.327 hours/ns, 26.074 timesteps/s, 144.474 katom-step/s
633.8% CPU use with 1 MPI tasks x 10 OpenMP threads

MPI task timing breakdown:
Section |  min time  |  avg time  |  max time  |%varavg| %total
---------------------------------------------------------------
Pair    | 332.45     | 332.45     | 332.45     |   0.0 |  2.89
Bond    | 4.4059     | 4.4059     | 4.4059     |   0.0 |  0.04
Kspace  | 5203.3     | 5203.3     | 5203.3     |   0.0 | 45.22
Neigh   | 0.69851    | 0.69851    | 0.69851    |   0.0 |  0.01
Comm    | 139.97     | 139.97     | 139.97     |   0.0 |  1.22
Output  | 1.4567     | 1.4567     | 1.4567     |   0.0 |  0.01
Modify  | 5770.1     | 5770.1     | 5770.1     |   0.0 | 50.15
Other   |            | 53.5       |            |       |  0.46

Nlocal:           5541 ave        5541 max        5541 min
Histogram: 1 0 0 0 0 0 0 0 0 0
Nghost:          35186 ave       35186 max       35186 min
Histogram: 1 0 0 0 0 0 0 0 0 0
Neighs:              0 ave           0 max           0 min
Histogram: 1 0 0 0 0 0 0 0 0 0

Total # of neighbors = 0
Ave neighs/atom = 0
Ave special neighs/atom = 2.4872767
Neighbor list builds = 27868
Dangerous builds = 0

undump npt_traj
undump npt_dcd
unfix mynpt_standard
unfix thermo_avg_npt

write_restart npt_complete.restart
System init for write_restart ...
PPPM initialization ...
  extracting TIP4P info from pair style
  using 12-bit tables for long-range coulomb
  G vector (1/distance) = 0.28805087
  grid = 50 50 50
  stencil order = 5
  estimated absolute RMS force accuracy = 0.00033467382
  estimated relative force accuracy = 1.0078603e-06
  using double precision FFTW3
  3d grid and FFT values/proc = 205379 125000
Generated 0 of 3 mixed pair_coeff terms from geometric mixing rule
write_data npt_complete.data
System init for write_data ...
PPPM initialization ...
  extracting TIP4P info from pair style
  using 12-bit tables for long-range coulomb
  G vector (1/distance) = 0.28805087
  grid = 50 50 50
  stencil order = 5
  estimated absolute RMS force accuracy = 0.00033467382
  estimated relative force accuracy = 1.0078603e-06
  using double precision FFTW3
  3d grid and FFT values/proc = 205379 125000
Generated 0 of 3 mixed pair_coeff terms from geometric mixing rule
WARNING: Not all mixed pair coeffs generated from mixing. Use write_data with 'pair ij' option to store all pair coeffs. (src/write_data.cpp:364)

# CRITICAL: Save NPT checkpoint for production restart capability
write_restart npt_equilibration_complete.restart
System init for write_restart ...
PPPM initialization ...
  extracting TIP4P info from pair style
  using 12-bit tables for long-range coulomb
  G vector (1/distance) = 0.28805087
  grid = 50 50 50
  stencil order = 5
  estimated absolute RMS force accuracy = 0.00033467382
  estimated relative force accuracy = 1.0078603e-06
  using double precision FFTW3
  3d grid and FFT values/proc = 205379 125000
Generated 0 of 3 mixed pair_coeff terms from geometric mixing rule
write_data npt_equilibration_complete.data
System init for write_data ...
PPPM initialization ...
  extracting TIP4P info from pair style
  using 12-bit tables for long-range coulomb
  G vector (1/distance) = 0.28805087
  grid = 50 50 50
  stencil order = 5
  estimated absolute RMS force accuracy = 0.00033467382
  estimated relative force accuracy = 1.0078603e-06
  using double precision FFTW3
  3d grid and FFT values/proc = 205379 125000
Generated 0 of 3 mixed pair_coeff terms from geometric mixing rule
WARNING: Not all mixed pair coeffs generated from mixing. Use write_data with 'pair ij' option to store all pair coeffs. (src/write_data.cpp:364)

variable current_dens equal density
variable current_vol equal vol
variable current_press equal press
variable current_temp equal temp
print ""

print "NPT equilibration complete (1000 ps total):"
NPT equilibration complete (1000 ps total):
print "  Temperature: ${current_temp} K"
  Temperature: 304.133089894146 K
print "  Density:     ${current_dens} g/cmÂ³"
  Density:     1.03492650999645 g/cm³
print "  Pressure:    ${current_press} atm"
  Pressure:    134.622597813134 atm
print "  Volume:      ${current_vol} Ã…Â³"
  Volume:      55122.230482233 …³
print ""

print "âœ… CHECKPOINT: NPT equilibration complete"
œ… CHECKPOINT: NPT equilibration complete
print "   Files saved:"
   Files saved:
print "     - npt_complete.restart (legacy name)"
     - npt_complete.restart (legacy name)
print "     - npt_equilibration_complete.restart (for production restart)"
     - npt_equilibration_complete.restart (for production restart)
print "     - npt_equilibration_complete.data (structure file)"
     - npt_equilibration_complete.data (structure file)
print "     - npt_equilibration_thermo.dat (thermodynamics)"
     - npt_equilibration_thermo.dat (thermodynamics)
print ""


# Checkpoint: Verify density
if "${current_dens} < 0.85 || ${current_dens} > 1.15" then     "print 'ERROR: Density outside expected range (0.85-1.15 g/cmÂ³)'"     "print 'Current density: ${current_dens} g/cmÂ³'"     "quit 1"

print "âœ“ Density validation PASSED: ${current_dens} g/cmÂ³"
œ“ Density validation PASSED: 1.03492650999645 g/cm³

print ""


# ğŸ”§ CHECKPOINT #4: Final validation before production
variable current_dens equal density
variable current_press equal press
variable current_vol equal vol
variable current_boxsize equal vol^(1.0/3.0)

print ""

print "NPT equilibration complete. FINAL VALIDATION:"
NPT equilibration complete. FINAL VALIDATION:
print "  Density:  ${current_dens} g/cmÂ³"
  Density:  1.03492650999645 g/cm³
print "  Pressure: ${current_press} atm"
  Pressure: 134.622597813134 atm
print "  Volume:   ${current_vol} Ã…Â³"
  Volume:   55122.230482233 …³
print "  Box size: ${current_boxsize} Ã…"
  Box size: 38.0576756858531 …
print ""

print "âœ… CHECKPOINT: NPT equilibration complete (1000 ps)"
œ… CHECKPOINT: NPT equilibration complete (1000 ps)
print "   Creating restart file: npt_equilibration_complete.restart"
   Creating restart file: npt_equilibration_complete.restart
print "   This checkpoint allows restarting from production stage if needed"
   This checkpoint allows restarting from production stage if needed
print ""


# Save NPT checkpoint for production restart capability
write_restart npt_equilibration_complete.restart
System init for write_restart ...
PPPM initialization ...
  extracting TIP4P info from pair style
  using 12-bit tables for long-range coulomb
  G vector (1/distance) = 0.28805087
  grid = 50 50 50
  stencil order = 5
  estimated absolute RMS force accuracy = 0.00033467382
  estimated relative force accuracy = 1.0078603e-06
  using double precision FFTW3
  3d grid and FFT values/proc = 205379 125000
Generated 0 of 3 mixed pair_coeff terms from geometric mixing rule
write_data npt_equilibration_complete.data
System init for write_data ...
PPPM initialization ...
  extracting TIP4P info from pair style
  using 12-bit tables for long-range coulomb
  G vector (1/distance) = 0.28805087
  grid = 50 50 50
  stencil order = 5
  estimated absolute RMS force accuracy = 0.00033467382
  estimated relative force accuracy = 1.0078603e-06
  using double precision FFTW3
  3d grid and FFT values/proc = 205379 125000
Generated 0 of 3 mixed pair_coeff terms from geometric mixing rule
WARNING: Not all mixed pair coeffs generated from mixing. Use write_data with 'pair ij' option to store all pair coeffs. (src/write_data.cpp:364)

print "âœ… NPT checkpoint saved successfully"
œ… NPT checkpoint saved successfully
print "   Files created:"
   Files created:
print "     - npt_equilibration_complete.restart (for continuation)"
     - npt_equilibration_complete.restart (for continuation)
print "     - npt_equilibration_complete.data (structure file)"
     - npt_equilibration_complete.data (structure file)
print ""


if "${current_dens} < 0.80" then     "print 'ğŸ”´ ERROR: Density ${current_dens} g/cmÂ³ is TOO LOW (gas phase)!'"     "print 'Expected: 0.95-1.05 g/cmÂ³ for liquid water'"     "print ''"     "print 'Possible causes:'"     "print '  1. System escaped to gas phase during equilibration'"     "print '  2. PPPM grid artifacts occurred later in simulation'"     "print '  3. Initial system was not properly solvated'"     "quit 1"

if "${current_dens} > 1.20" then     "print 'ğŸ”´ ERROR: Density ${current_dens} g/cmÂ³ is TOO HIGH (over-compressed)!'"     "print 'Expected: 0.95-1.05 g/cmÂ³ for liquid water'"     "print ''"     "print 'Possible causes:'"     "print '  1. Barostat not converging properly'"     "print '  2. System trapped in metastable compressed state'"     "quit 1"

print "âœ… Density validation PASSED: ${current_dens} g/cmÂ³"
œ… Density validation PASSED: 1.03492650999645 g/cm³
print "Current density: ${current_dens} g/cmÂ³"
Current density: 1.03492650999645 g/cm³

#==============================================================================
# STAGE 4: Production MD (4000 ps = 4 ns)
#==============================================================================
print ""

print "===== STAGE 4: Production MD (4000 ps = 4 ns, GPU) ====="
===== STAGE 4: Production MD (4000 ps = 4 ns, GPU) =====
print "Main data collection phase - RDF, MSD, trajectories"
Main data collection phase - RDF, MSD, trajectories
print ""

print "Pressure control strategy:"
Pressure control strategy:
print "  â€¢ Using MTK barostat for better ensemble accuracy"
  €¢ Using MTK barostat for better ensemble accuracy
print "  â€¢ Tdamp = 100 fs (standard for NosÃ©-Hoover)"
  €¢ Tdamp = 100 fs (standard for Nos©-Hoover)
print "  â€¢ Pdamp = 1000 fs (tighter control for stable production)"
  €¢ Pdamp = 1000 fs (tighter control for stable production)
print ""


# Production NPT with MTK barostat and tighter pressure control
# Using smaller pdamp (1000 fs vs 2000 fs) for more stable pressure
# ğŸ”§ CRITICAL: Using npt/gpu instead of npt for FULL GPU acceleration
fix mynpt all npt/gpu temp 300.0 300.0 100.0 iso 1.0 1.0 1000.0 mtk yes

# Main trajectory dump (every 1 ps for analysis)
# Trajectory output (every 1 ps) - using wrapped coordinates for proper visualization
dump prod_traj all custom 1000 production.lammpstrj id type xu yu zu
dump_modify prod_traj sort id

# DCD dump (every 0.5 ps for smooth visualization)
dump prod_dcd all dcd 500 production.dcd
dump_modify prod_dcd unwrap yes

# Detailed thermodynamics (every 1 ps)
fix thermo_avg all ave/time 100 10 1000 v_epsilon_co v_temp v_press v_pe v_ke v_etotal v_vol v_dens     file production_thermo.dat

# Very detailed thermodynamics (every 0.1 ps for fluctuation analysis)
fix thermo_detailed all ave/time 10 10 100 v_temp v_press v_pe v_ke v_vol v_dens     file production_detailed_thermo.dat

# Compute RDFs on-the-fly (C60-water, C60-C60, water-water)
# Syntax: compute ID group-ID rdf Nbin type1 type2 [cutoff]
# Type 1=C, Type 2=O, Type 3=H
compute rdf_CO all rdf 150 1 2  # C-O pairs (C60-water)
compute rdf_CC all rdf 150 1 1  # C-C pairs (C60-C60)
compute rdf_OO all rdf 150 2 2  # O-O pairs (water-water)

# Average RDFs over production run (every 10 ps)
# FIXED: Explicit column indexing (RDF outputs [1]=r, [2]=g(r), [3]=coordination)
fix rdf_CO_avg all ave/time 1000 10 10000 c_rdf_CO[1] c_rdf_CO[2] c_rdf_CO[3] file rdf_CO.dat mode vector
fix rdf_CC_avg all ave/time 1000 10 10000 c_rdf_CC[1] c_rdf_CC[2] c_rdf_CC[3] file rdf_CC.dat mode vector
fix rdf_OO_avg all ave/time 1000 10 10000 c_rdf_OO[1] c_rdf_OO[2] c_rdf_OO[3] file rdf_OO.dat mode vector

# Compute MSD for water oxygen (diffusion analysis)
# Need to use the oxygen group defined earlier
compute msd_water oxygen msd
# MSD compute outputs: [1]=dxÂ², [2]=dyÂ², [3]=dzÂ², [4]=total rÂ²
fix msd_avg all ave/time 100 10 1000 c_msd_water[1] c_msd_water[2] c_msd_water[3] c_msd_water[4] file msd_water.dat

# Dump images every 20 ps for visualization
dump prod_img all image 10000 production_*.ppm type type     axes yes 0.8 0.02 view 60 30 zoom 1.5     box no 0.01 shiny 0.5
dump_modify prod_img pad 6 backcolor white

run 2000000  # 4000 ps = 4 ns at 2 fs timestep
PPPM initialization ...
  extracting TIP4P info from pair style
  using 12-bit tables for long-range coulomb
  G vector (1/distance) = 0.28805087
  grid = 50 50 50
  stencil order = 5
  estimated absolute RMS force accuracy = 0.00033467382
  estimated relative force accuracy = 1.0078603e-06
  using double precision FFTW3
  3d grid and FFT values/proc = 205379 125000
Generated 0 of 3 mixed pair_coeff terms from geometric mixing rule
Neighbor list info ...
  update: every = 1 steps, delay = 5 steps, check = yes
  max neighbors/atom: 2000, page size: 100000
  master list distance cutoff = 14.3092
  ghost atom cutoff = 18
  binsize = 7.1546, bins = 6 6 6
  3 neighbor lists, perpetual/occasional/extra = 0 3 0
  (1) compute rdf, occasional
      attributes: half, newton off
      pair build: half/bin/newtoff
      stencil: full/bin/3d
      bin: standard
  (2) compute rdf, occasional
      attributes: half, newton off
      pair build: half/bin/newtoff
      stencil: full/bin/3d
      bin: standard
  (3) compute rdf, occasional
      attributes: half, newton off
      pair build: half/bin/newtoff
      stencil: full/bin/3d
      bin: standard
Per MPI rank memory allocation (min/avg/max) = 74.78 | 74.78 | 74.78 Mbytes
   Step          Temp          Press          Volume         PotEng         KinEng         TotEng        Density    
    600010   304.13309      147.32987      55122.23      -20893.083      3402.3308     -17490.752      1.0349265    
    601000   302.56361     -106.27901      54945.484     -20902.849      3384.7731     -17518.076      1.0382556    
    602000   301.69627      165.07715      54643.546     -20807.266      3375.0701     -17432.195      1.0439926    
    603000   291.29414      654.11102      54713.059     -20932.076      3258.7018     -17673.374      1.0426662    
    604000   292.4375      -320.83392      54722.916     -20829.436      3271.4925     -17557.944      1.0424784    
    605000   297.85185      47.557647      54389.64      -20917.687      3332.0628     -17585.624      1.0488663    
    606000   290.97755      109.59397      54697.676     -20827.896      3255.16       -17572.736      1.0429594    
    607000   298.96647     -81.719389      55007.963     -20720.114      3344.532      -17375.582      1.0370763    
    608000   298.0714      -81.433816      54577.221     -20879.293      3334.5188     -17544.775      1.0452613    
    609000   308.30274      254.50074      54632.728     -20945.308      3448.9766     -17496.331      1.0441993    
    610000   303.66738      737.21689      54488.247     -20791.543      3397.121      -17394.422      1.0469681    
    611000   296.50342     -74.209675      54387.321     -20793.925      3316.9779     -17476.947      1.048911     
    612000   301.36921     -132.7857       54581.697     -20911.05       3371.4114     -17539.639      1.0451756    
    613000   301.28033      113.19446      54501.52      -20892.918      3370.417      -17522.501      1.0467132    
    614000   303.08273     -897.53364      54485.995     -20828.676      3390.5805     -17438.095      1.0470114    
    615000   309.44251     -294.87263      54453.905     -20844.548      3461.7272     -17382.821      1.0476284    
    616000   299.93713      36.794401      54920.703     -20742.526      3355.3907     -17387.136      1.0387241    
    617000   298.31066      210.62637      54579.634     -20902.208      3337.1955     -17565.012      1.0452151    
    618000   302.42175     -418.64904      54367.286     -20855.632      3383.1861     -17472.446      1.0492975    
    619000   298.28717      549.49895      54637.522     -20905.269      3336.9326     -17568.336      1.0441077    
    620000   297.63487      362.9147       54775.387     -20740.199      3329.6354     -17410.564      1.0414798    
    621000   300.11376     -904.66405      54208.764     -20995.525      3357.3667     -17638.158      1.052366     
    622000   297.20104     -576.92533      54596.234     -20869.129      3324.7822     -17544.347      1.0448973    
    623000   300.13225      406.73432      54859.832     -20776.264      3357.5735     -17418.691      1.0398766    
    624000   295.7173      -4.1005993      54798.838     -20865.833      3308.1835     -17557.649      1.0410341    
    625000   301.11661     -26.229078      54565.687     -20901.529      3368.5856     -17532.943      1.0454823    
    626000   299.79646      392.6265       54695.112     -20829.324      3353.817      -17475.507      1.0430083    
    627000   296.20323     -453.56947      54948.438     -20842.187      3313.6196     -17528.568      1.0381998    
    628000   296.56615      105.65591      54743.163     -20796.12       3317.6796     -17478.44       1.0420928    
    629000   298.20058      713.28687      54856.036     -20813.005      3335.9639     -17477.041      1.0399486    
    630000   297.16058     -149.28989      54786.953     -20862.473      3324.3295     -17538.144      1.0412599    
    631000   300.7753      -35.070336      54224.923     -20834.011      3364.7673     -17469.243      1.0520524    
    632000   299.57731     -451.90295      55147.469     -20720.961      3351.3654     -17369.596      1.0344529    
    633000   305.70662      17.467675      54951.516     -20777.72       3419.9339     -17357.786      1.0381416    
    634000   304.57676     -547.07832      55052.135     -20789.064      3407.2942     -17381.77       1.0362442    
    635000   299.58125     -121.47584      54676.735     -20876.07       3351.4095     -17524.661      1.0433589    
    636000   300.61326      732.95527      54714.67      -20756.936      3362.9546     -17393.981      1.0426355    
    637000   304.01241      567.93685      54760.705     -20946.227      3400.9808     -17545.246      1.041759     
    638000   300.48583      295.78141      54725.412     -20838.082      3361.529      -17476.553      1.0424308    
    639000   292.42782     -541.68258      54605.816     -20833.389      3271.3842     -17562.005      1.0447139    
    640000   305.627       -1473.179       54774.749     -20821.376      3419.0431     -17402.333      1.0414919    
    641000   293.33444     -39.560178      54456.41      -20763.691      3281.5265     -17482.165      1.0475802    
    642000   305.26917      556.01491      54532.047     -20930.614      3415.0402     -17515.574      1.0461272    
    643000   302.42554      265.91372      54721.882     -20888.899      3383.2285     -17505.671      1.0424981    
    644000   299.55755     -105.76797      54661.244     -20986.166      3351.1443     -17635.022      1.0436546    
    645000   297.50779     -1025.1632      54943.91      -20801.325      3328.2138     -17473.111      1.0382854    
    646000   303.4415       69.328411      54647.355     -20848.528      3394.594      -17453.934      1.0439198    
    647000   301.99849     -378.66683      54758.232     -20859.48       3378.4511     -17481.029      1.0418061    
    648000   297.91234      577.9304       54496.791     -20821.493      3332.7394     -17488.754      1.046804     
    649000   307.9534      -309.89004      54736.444     -20822.897      3445.0685     -17377.829      1.0422207    
    650000   297.74573      706.72597      54930.672     -20750.703      3330.8755     -17419.827      1.0385356    
    651000   298.40089     -331.34813      54707.053     -20779.924      3338.2048     -17441.719      1.0427807    
    652000   293.01197      25.657234      54567.041     -20840.248      3277.9191     -17562.328      1.0454563    
    653000   299.33134      70.21237       54958.35      -20839.674      3348.6137     -17491.06       1.0380126    
    654000   303.59809      340.1278       54703.564     -20858.379      3396.3458     -17462.033      1.0428472    
    655000   302.57747     -206.87653      54271.67      -20902.543      3384.9282     -17517.615      1.0511462    
    656000   293.66942      606.37083      54514.032     -20838.277      3285.274      -17553.003      1.0464729    
    657000   303.72292     -153.787        54940.989     -20898.465      3397.7422     -17500.723      1.0383406    
    658000   300.75437     -179.5959       54637.97      -20956.354      3364.5332     -17591.821      1.0440991    
    659000   299.55029     -294.1206       54893.306     -20851.259      3351.0631     -17500.196      1.0392425    
    660000   293.21224      157.28189      54159.878     -20907.585      3280.1595     -17627.426      1.0533158    
    661000   296.43701      564.89673      54349.11      -20885.367      3316.2349     -17569.132      1.0496484    
    662000   293.51847     -668.049        55292.918     -20801.862      3283.5853     -17518.276      1.0317317    
    663000   304.56075     -254.09789      54320.623     -20892.461      3407.115      -17485.346      1.0501989    
    664000   307.8403       639.29914      54439.031     -20838.925      3443.8033     -17395.121      1.0479146    
    665000   291.9686       1084.9608      54436.177     -20861.585      3266.2469     -17595.338      1.0479696    
    666000   297.32845      606.15561      54731.217     -20823.58       3326.2074     -17497.372      1.0423203    
    667000   299.57592      180.49856      54493.815     -20991.19       3351.3499     -17639.84       1.0468611    
    668000   297.60763     -346.68098      54510.127     -20864.258      3329.3306     -17534.927      1.0465479    
    669000   300.6312      -704.2512       54539.576     -20866.317      3363.1553     -17503.161      1.0459828    
    670000   292.28071     -117.38955      54796.77      -20782.791      3269.7385     -17513.053      1.0410734    
    671000   301.47619     -232.08994      54365.067     -20854.173      3372.6081     -17481.565      1.0493403    
    672000   301.94255     -673.65293      55783.3       -20969.368      3377.8253     -17591.542      1.0226619    
    673000   301.53527      70.088859      54875.216     -20917.789      3373.2691     -17544.52       1.0395851    
    674000   300.673       -80.218849      54897.93      -20834.239      3363.6229     -17470.616      1.039155     
    675000   303.01645      498.31679      54699.568     -20621.177      3389.8391     -17231.338      1.0429234    
    676000   309.89487      18.008727      54469.73      -20829.676      3466.7878     -17362.889      1.047324     
    677000   303.56108      502.62009      54629.966     -20919.814      3395.9317     -17523.883      1.0442521    
    678000   303.46282      285.20277      54529.875     -20999.438      3394.8325     -17604.606      1.0461689    
    679000   296.79845      305.99079      54918.201     -21010.203      3320.2784     -17689.924      1.0387714    
    680000   295.44762      201.60633      54919.44      -20890.191      3305.1667     -17585.025      1.038748     
    681000   301.20277     -686.48358      54589.422     -20928.625      3369.5494     -17559.076      1.0450277    
    682000   298.6386      -391.48104      55187.327     -20804.854      3340.864      -17463.99       1.0337058    
    683000   307.10864      445.49713      54704.657     -20880.055      3435.6183     -17444.436      1.0428263    
    684000   308.788        200.19497      54587.007     -20767.495      3454.4052     -17313.09       1.0450739    
    685000   298.81184     -597.02515      55046.941     -20720.219      3342.8022     -17377.416      1.036342     
    686000   294.12117      148.11324      54827.464     -20921.93       3290.3277     -17631.602      1.0404905    
    687000   296.46651     -12.917604      54640.994     -20786.762      3316.5649     -17470.197      1.0440414    
    688000   300.38989     -577.07221      54414.797     -20871.48       3360.4557     -17511.024      1.0483813    
    689000   294.38985     -79.396706      54613.103     -20774.988      3293.3334     -17481.655      1.0445745    
    690000   302.54438      48.099912      54236.076     -20786.224      3384.5579     -17401.666      1.051836     
    691000   308.10789     -556.93256      54132.399     -20935.792      3446.7968     -17488.996      1.0538505    
    692000   298.44401      333.22746      54684.883     -20760.961      3338.6872     -17422.273      1.0432034    
    693000   294.30364      32.937542      54597.311     -20872.226      3292.369      -17579.857      1.0448767    
    694000   302.21735      78.349279      54914.17      -20843.377      3380.8995     -17462.478      1.0388477    
    695000   300.70074     -338.91661      54682.414     -20925.58       3363.9332     -17561.647      1.0432505    
    696000   306.66179      529.35109      53845.03      -20850.724      3430.6193     -17420.105      1.0594749    
    697000   295.7254       503.93685      54338.374     -20850.12       3308.2742     -17541.846      1.0498558    
    698000   293.1699      -517.08175      54213.093     -20879.765      3279.6858     -17600.08       1.0522819    
    699000   294.09747      820.22241      54187.014     -20922.565      3290.0626     -17632.502      1.0527884    
    700000   301.5654      -194.76527      54846.698     -20844.598      3373.6062     -17470.992      1.0401257    
    701000   307.09353      783.34017      54689.312     -20915.315      3435.4492     -17479.866      1.0431189    
    702000   294.38333     -360.41196      54077.463     -20827.633      3293.2605     -17534.373      1.0549211    
    703000   294.8629       580.16261      54591.613     -20760.435      3298.6255     -17461.81       1.0449857    
    704000   297.7363      -483.91127      54602.434     -20888.55       3330.7701     -17557.78       1.0447787    
    705000   302.04841     -884.78392      55117.623     -20643.525      3379.0096     -17264.516      1.035013     
    706000   303.2928       400.88328      54608.104     -20868.39       3392.9306     -17475.459      1.0446702    
    707000   302.43967      303.79926      54543.653     -20703.337      3383.3866     -17319.95       1.0459046    
    708000   299.13571      121.96202      54539.066     -20845.685      3346.4253     -17499.26       1.0459926    
    709000   300.466        261.62536      53842.993     -21022.829      3361.3072     -17661.522      1.059515     
    710000   305.21697      493.07375      54105.055     -20913.895      3414.4561     -17499.439      1.0543831    
    711000   303.27941     -554.69428      54800.556     -20867.668      3392.7807     -17474.888      1.0410014    
    712000   302.7485      -19.352847      54869.946     -20775.086      3386.8415     -17388.244      1.039685     
    713000   302.72362      223.67872      54453.416     -20818.576      3386.5631     -17432.013      1.0476378    
    714000   297.0371       528.00654      54167.733     -20966.199      3322.9481     -17643.251      1.0531631    
    715000   294.16634     -493.82902      54814.825     -20824.621      3290.833      -17533.788      1.0407305    
    716000   305.51734     -429.28268      55160.565     -20782.144      3417.8164     -17364.328      1.0342073    
    717000   298.85532      116.77354      54754.744     -20985.327      3343.2885     -17642.038      1.0418724    
    718000   304.97285      1069.7458      54024.844     -20792.255      3411.7252     -17380.53       1.0559486    
    719000   299.31696      537.13908      54535.644     -20829.762      3348.4528     -17481.31       1.0460582    
    720000   302.88112      73.861488      54632.904     -20846.865      3388.3251     -17458.54       1.044196     
    721000   303.89294      246.78668      55073.925     -20834.32       3399.6443     -17434.675      1.0358343    
    722000   299.1284       1037.3056      54493.517     -20803.756      3346.3435     -17457.413      1.0468669    
    723000   301.28726      680.28598      54674.92      -20817.224      3370.4946     -17446.729      1.0433935    
    724000   302.69049     -405.72392      54768.993     -20744.281      3386.1925     -17358.089      1.0416014    
    725000   302.91135     -334.07701      54316.514     -20884.147      3388.6632     -17495.483      1.0502783    
    726000   299.67486      266.79947      54510.115     -20853.848      3352.4567     -17501.391      1.0465481    
    727000   296.57921      659.64569      55150.748     -20867.419      3317.8257     -17549.593      1.0343914    
    728000   297.46756      254.8763       54203.015     -20727.821      3327.7637     -17400.057      1.0524776    
    729000   299.6398      -76.714063      54600.079     -20908.753      3352.0645     -17556.688      1.0448237    
    730000   297.49961      178.45115      54138.404     -20962.677      3328.1222     -17634.555      1.0537336    
    731000   305.10096     -117.21842      54606.719     -20797.941      3413.1583     -17384.782      1.0446967    
    732000   295.77592      182.12789      55040.434     -20826.388      3308.8393     -17517.549      1.0364645    
    733000   299.50614     -255.49618      54683.739     -20938.915      3350.5693     -17588.346      1.0432253    
    734000   297.17965      102.80269      55032.886     -20829.898      3324.5428     -17505.355      1.0366067    
    735000   294.83493      730.5444       54987.279     -20846.095      3298.3125     -17547.782      1.0374665    
    736000   300.98788      249.37075      54844.293     -20762.448      3367.1454     -17395.302      1.0401713    
    737000   301.46662      542.6228       54900.169     -20957.869      3372.5011     -17585.368      1.0391126    
    738000   302.15336     -54.45186       54883.398     -20945.869      3380.1836     -17565.685      1.0394301    
    739000   300.22621     -29.743706      54493.887     -20864.092      3358.6246     -17505.467      1.0468598    
    740000   294.67452      685.20343      54580.298     -20809.742      3296.518      -17513.224      1.0452024    
    741000   299.30772     -548.53415      55250.962     -20807.761      3348.3496     -17459.412      1.0325152    
    742000   299.78201     -55.489723      55033.784     -20917.857      3353.6554     -17564.202      1.0365898    
    743000   303.74377      886.94811      54383.996     -21029.604      3397.9755     -17631.628      1.0489751    
    744000   302.07537     -35.813472      54205.666     -20837.746      3379.3111     -17458.435      1.0524261    
    745000   300.06968     -363.11988      54504.277     -20937.706      3356.8735     -17580.832      1.0466602    
    746000   294.10836     -455.94728      54973.5       -20908.932      3290.1844     -17618.748      1.0377265    
    747000   295.34078      13.028068      54696.814     -20781.255      3303.9714     -17477.283      1.0429759    
    748000   302.90037      649.90745      54115.053     -20913.096      3388.5404     -17524.556      1.0541883    
    749000   299.92316      517.35359      54354.677     -20835.077      3355.2344     -17479.843      1.0495409    
    750000   299.30473     -437.9334       54429.097     -21024.688      3348.3161     -17676.372      1.0481059    
    751000   295.58985     -491.08135      54761.706     -20987.313      3306.7578     -17680.556      1.04174      
    752000   290.16514     -922.03732      54350.581     -20999.049      3246.0716     -17752.977      1.04962      
    753000   303.85026      492.03968      54370.426     -20982.687      3399.1669     -17583.52       1.0492369    
    754000   310.62675      0.70654413     54865.851     -21012.636      3474.9753     -17537.661      1.0397626    
    755000   304.00567      141.60517      54578.095     -20907.635      3400.9053     -17506.73       1.0452446    
    756000   294.31183      167.95882      54729.236     -20897.824      3292.4606     -17605.363      1.042358     
    757000   296.79839     -880.11813      54892.992     -20972.245      3320.2777     -17651.967      1.0392485    
    758000   297.01742      373.58275      54799.222     -20808.308      3322.728      -17485.58       1.0410268    
    759000   295.94792      706.63522      54395.779     -20993.234      3310.7635     -17682.47       1.0487479    
    760000   302.92497      289.60229      54820.928     -20812.954      3388.8156     -17424.138      1.0406146    
    761000   295.52949     -489.79682      54664.995     -20934.387      3306.0826     -17628.305      1.043583     
    762000   307.13273      198.1807       54804.986     -20892.82       3435.8878     -17456.933      1.0409173    
    763000   296.92697      585.02948      54169.709     -20942.642      3321.7161     -17620.926      1.0531247    
    764000   290.23187      17.080915      54616.759     -21053.424      3246.8181     -17806.605      1.0445046    
    765000   300.39478      47.667518      54537.855     -20830.296      3360.5104     -17469.786      1.0460158    
    766000   292.68673      936.04778      54284.325     -20989.644      3274.2806     -17715.364      1.0509011    
    767000   300.58005      151.89534      54400.706     -20934.291      3362.5831     -17571.707      1.0486529    
    768000   303.04426     -518.67783      54776.234     -20915.092      3390.1501     -17524.942      1.0414637    
    769000   299.82083      539.60183      54235.652     -20934.844      3354.0896     -17580.754      1.0518442    
    770000   294.16766     -554.65536      54439.19      -20898.611      3290.8477     -17607.763      1.0479116    
    771000   299.4062      -349.5826       54654.176     -20795.272      3349.4512     -17445.821      1.0437896    
    772000   299.00316     -143.3813       54789.272     -20891.154      3344.9424     -17546.211      1.0412158    
    773000   298.51979     -288.64507      53921.545     -20850.541      3339.5349     -17511.006      1.0579715    
    774000   304.8596       555.49628      54337.414     -20905.822      3410.4583     -17495.364      1.0498744    
    775000   296.48217     -316.73667      54719.664     -20889.115      3316.7401     -17572.375      1.0425404    
    776000   301.02947     -327.11389      55103.908     -20806.734      3367.6107     -17439.123      1.0352706    
    777000   305.46736     -152.50503      54386.676     -20913.126      3417.2573     -17495.869      1.0489234    
    778000   299.09985     -577.77175      54526.36      -20804.335      3346.024      -17458.311      1.0462363    
    779000   298.42544     -163.67591      54739.366     -20836.772      3338.4795     -17498.293      1.0421651    
    780000   292.93489     -615.17314      55075.056     -20932.113      3277.0568     -17655.057      1.035813     
    781000   298.26777     -376.33345      54649.174     -20894.775      3336.7156     -17558.06       1.0438851    
    782000   299.83501     -149.66332      54859.278     -20810.451      3354.2483     -17456.203      1.0398871    
    783000   296.34295      105.67515      54905.485     -20777.315      3315.1827     -17462.132      1.039012     
    784000   299.11989     -218.00709      54942.672     -20869.82       3346.2483     -17523.572      1.0383088    
    785000   297.94501     -214.08819      54363.636     -20920.749      3333.1049     -17587.644      1.049368     
    786000   299.49543      280.44067      54400.105     -20906.574      3350.4495     -17556.125      1.0486645    
    787000   299.51427     -94.288909      54271.399     -20773.407      3350.6601     -17422.746      1.0511514    
    788000   297.68958     -108.57013      54338.005     -20697.27       3330.2474     -17367.022      1.0498629    
    789000   297.2079       196.00996      54298.356     -20795.622      3324.8589     -17470.763      1.0506296    
    790000   299.70538      56.825831      54241.308     -20935.143      3352.7981     -17582.345      1.0517345    
    791000   295.17912      659.87558      54627.151     -20692.582      3302.163      -17390.419      1.0443059    
    792000   300.45022      537.58948      54366.823     -20806.058      3361.1306     -17444.928      1.0493064    
    793000   301.8093       479.16436      54517.347     -20824.04       3376.3346     -17447.705      1.0464093    
    794000   294.14126     -195.52979      55035.084     -20737.976      3290.5524     -17447.424      1.0365653    
    795000   298.21067      256.73385      54458.592     -20790.653      3336.0769     -17454.577      1.0475382    
    796000   305.21694      111.0431       54220.207     -20878.887      3414.4559     -17464.431      1.0521439    
    797000   304.0469      -105.69304      54981.71      -20878.397      3401.3666     -17477.031      1.0375715    
    798000   301.37963      741.41127      54672.579     -20862.173      3371.528      -17490.645      1.0434382    
    799000   302.09768      515.83586      54356.604     -20976.97       3379.5607     -17597.409      1.0495037    
    800000   304.40843      360.95165      54500.497     -20901.935      3405.4111     -17496.524      1.0467328    
    801000   299.18066     -303.09737      54254.983     -21017.01       3346.9281     -17670.082      1.0514695    
    802000   295.28733      139.64675      54172.527     -20904.296      3303.3735     -17600.923      1.0530699    
    803000   306.43321      97.226736      53967.843     -20767.829      3428.0622     -17339.767      1.0570639    
    804000   296.29497     -647.96167      54818.04      -20828.614      3314.6459     -17513.968      1.0406694    
    805000   299.1338       69.059323      54914.598     -20801.779      3346.4039     -17455.375      1.0388396    
    806000   295.45523      370.07576      54760.3       -20820.142      3305.2518     -17514.89       1.0417667    
    807000   295.73513      396.59479      54890.424     -20839.008      3308.383      -17530.625      1.0392971    
    808000   299.62691     -5.9577364      54698.331     -20876.122      3351.9203     -17524.202      1.0429469    
    809000   303.51695     -71.192486      54712.042     -20771.399      3395.4381     -17375.961      1.0426856    
    810000   299.47271     -582.37885      54937.01      -20832.532      3350.1953     -17482.337      1.0384158    
    811000   298.12862     -662.21155      55352.085     -20901.932      3335.1589     -17566.773      1.0306289    
    812000   300.51568      298.99296      54659.421     -20713.872      3361.863      -17352.009      1.0436894    
    813000   299.5574       20.34151       55048.148     -20781.707      3351.1427     -17430.564      1.0363193    
    814000   295.46365      238.88863      54311.321     -20808.985      3305.346      -17503.639      1.0503787    
    815000   303.83151      325.09869      54164.334     -20856.389      3398.9571     -17457.432      1.0532292    
    816000   300.17907      736.55173      54548.196     -20896.448      3358.0973     -17538.351      1.0458175    
    817000   296.65151     -970.31617      55015.68      -20844.741      3318.6345     -17526.106      1.0369309    
    818000   300.60003     -61.265301      55072.998     -20841.059      3362.8065     -17478.252      1.0358517    
    819000   302.48252     -594.15688      55250.856     -20866.163      3383.8659     -17482.297      1.0325172    
    820000   299.75274     -38.661572      54811.532     -20794.591      3353.328      -17441.263      1.040793     
    821000   308.00813      648.29886      54328.882     -20976.128      3445.6809     -17530.448      1.0500392    
    822000   298.59223     -29.807285      53771.166     -20988.407      3340.3453     -17648.062      1.0609303    
    823000   304.95705     -101.73224      53970.895     -20736.689      3411.5485     -17325.141      1.0570041    
    824000   297.84633      212.65624      54776.466     -20733.699      3332.001      -17401.698      1.0414593    
    825000   306.43806     -72.818821      54607.598     -20936.54       3428.1165     -17508.423      1.0446799    
    826000   298.94857     -30.987565      54642.682     -20861.215      3344.3317     -17516.883      1.0440091    
    827000   298.81885     -776.2769       54739.375     -20871.561      3342.8805     -17528.681      1.0421649    
    828000   299.82113     -299.06971      54838.283     -20842.721      3354.093      -17488.628      1.0402853    
    829000   296.35982      809.21895      54471.259     -20858.232      3315.3714     -17542.861      1.0472946    
    830000   302.03254     -205.88773      54768.718     -20902.365      3378.832      -17523.533      1.0416066    
    831000   306.33019     -456.10863      54988.654     -20876.438      3426.9098     -17449.528      1.0374405    
    832000   299.2272       496.10777      54410.766     -20924.252      3347.4487     -17576.803      1.048459     
    833000   297.76596     -244.70399      54927.837     -20834.858      3331.1018     -17503.756      1.0385892    
    834000   296.81419      107.27221      54583.249     -20874.817      3320.4544     -17554.363      1.0451459    
    835000   302.92076     -852.51467      54897.327     -20758.4        3388.7685     -17369.631      1.0391664    
    836000   296.57713      879.35095      54266.365     -20899.651      3317.8025     -17581.848      1.0512489    
    837000   292.06858     -758.68439      54673.772     -20869.766      3267.3654     -17602.4        1.0434154    
    838000   301.09032     -141.48507      55011.273     -20888.799      3368.2914     -17520.508      1.037014     
    839000   297.72007      32.579337      54679.029     -20849.338      3330.5885     -17518.75       1.0433151    
    840000   303.3674      -108.18344      55188.435     -20853.96       3393.7651     -17460.195      1.033685     
    841000   304.56045      55.538842      54320.374     -20836.318      3407.1117     -17429.206      1.0502037    
    842000   297.56845     -224.68225      54782.325     -20869.561      3328.8923     -17540.668      1.0413479    
    843000   299.32558     -178.45194      55195.086     -20747.265      3348.5493     -17398.716      1.0335604    
    844000   299.92        -850.1639       54764.561     -20829.684      3355.199      -17474.485      1.0416856    
    845000   295.88469     -528.57717      55016.443     -20782.407      3310.0562     -17472.351      1.0369165    
    846000   295.45029      538.5162       54840.022     -20887.859      3305.1965     -17582.663      1.0402523    
    847000   302.57376     -493.2325       54702.638     -20763.535      3384.8866     -17378.648      1.0428648    
    848000   300.87703      44.2957        54441.035     -20884.294      3365.9054     -17518.388      1.0478761    
    849000   303.29738      107.01468      54964.278     -20889.362      3392.9817     -17496.38       1.0379006    
    850000   301.26147      287.71376      54251.097     -20881.108      3370.2061     -17510.902      1.0515448    
    851000   296.84794      598.23221      54369.425     -20932.997      3320.832      -17612.165      1.0492562    
    852000   301.48835     -434.95291      54527.408     -20813.378      3372.7442     -17440.634      1.0462162    
    853000   298.2631       339.66183      54286.22      -20803.326      3336.6634     -17466.662      1.0508644    
    854000   303.33756      639.68627      53982.045     -20787.428      3393.4313     -17393.997      1.0567858    
    855000   303.91379      253.93653      54292.88      -20880.398      3399.8775     -17480.52       1.0507355    
    856000   302.69347      477.94473      54342.023     -20977.481      3386.2259     -17591.255      1.0497853    
    857000   295.78875      39.260406      54760.496     -20911.048      3308.9828     -17602.065      1.041763     
    858000   302.72453     -342.7727       54665.629     -20997.344      3386.5733     -17610.771      1.0435709    
    859000   300.73062     -803.01661      54915.35      -20980.99       3364.2675     -17616.722      1.0388254    
    860000   303.79825     -182.22475      54777.11      -20833.418      3398.5849     -17434.834      1.041447     
    861000   307.95424      226.0992       54665.514     -20890.906      3445.0779     -17445.828      1.0435731    
    862000   301.40408     -732.59081      54997.875     -20981.504      3371.8015     -17609.703      1.0372666    
    863000   303.4028      -590.76376      54338.58      -20933.63       3394.1611     -17539.469      1.0498518    
    864000   301.33444      194.06088      54391.885     -20960.189      3371.0224     -17589.166      1.048823     
    865000   305.47542      541.45303      54362.939     -20976.877      3417.3475     -17559.53       1.0493814    
    866000   302.28297     -451.787        54727.257     -20893.465      3381.6335     -17511.831      1.0423957    
    867000   297.98954     -455.22483      54888.836     -20858.011      3333.6031     -17524.408      1.0393272    
    868000   293.85602      204.93761      54664.995     -20950.168      3287.3615     -17662.806      1.043583     
    869000   303.6788      -23.972093      54001.13      -20929.651      3397.2487     -17532.402      1.0564123    
    870000   303.00239      25.412561      54220.918     -20950.384      3389.6817     -17560.703      1.0521301    
    871000   302.02212     -931.45348      54636.409     -20893.715      3378.7155     -17515          1.044129     
    872000   296.30881     -266.57218      54369.314     -20840.369      3314.8008     -17525.569      1.0492584    
    873000   297.50478      105.51314      54703.473     -20847.484      3328.1801     -17519.304      1.0428489    
    874000   298.47157      1035.9837      54238.432     -20960.993      3338.9955     -17621.997      1.0517903    
    875000   303.09618      611.21308      54097.317     -20754.2        3390.7309     -17363.469      1.0545339    
    876000   302.39522     -190.52936      54528.941     -20991.948      3382.8894     -17609.059      1.0461868    
    877000   295.62907      270.30014      54504.167     -20819.001      3307.1965     -17511.804      1.0466623    
    878000   305.66401     -98.367304      54901.193     -20766.057      3419.4572     -17346.6        1.0390932    
    879000   298.34474      417.61383      54697.421     -20780.287      3337.5767     -17442.711      1.0429643    
    880000   299.56237     -59.624108      54612.934     -20742.202      3351.1983     -17391.004      1.0445778    
    881000   299.34984     -109.97566      54370.76      -20701.796      3348.8207     -17352.975      1.0492305    
    882000   298.85213      197.629        54347.221     -20849.294      3343.2528     -17506.042      1.0496849    
    883000   295.63239     -850.40599      54697.677     -20825.092      3307.2337     -17517.859      1.0429594    
    884000   301.97912     -62.857269      54802.734     -21001.383      3378.2344     -17623.149      1.0409601    
    885000   299.57332      240.32856      54688.923     -20807.191      3351.3208     -17455.87       1.0431264    
    886000   306.05937      400.61718      55086.199     -20820.81       3423.8801     -17396.929      1.0356034    
    887000   297.53939      506.45391      54737.394     -20703.331      3328.5673     -17374.764      1.0422027    
    888000   305.48103     -37.145187      54746.046     -20903.735      3417.4102     -17486.325      1.042038     
    889000   303.66103      386.14154      54931.943     -20866.596      3397.0499     -17469.546      1.0385116    
    890000   301.63763      263.17453      55002.023     -20876.263      3374.4141     -17501.848      1.0371883    
    891000   308.1295       676.18317      54228.006     -20919.187      3447.0386     -17472.148      1.0519925    
    892000   299.73169     -186.39412      54483.284     -20844.621      3353.0924     -17491.528      1.0470635    
    893000   310.11203      70.3263        54654.334     -20778.726      3469.2172     -17309.509      1.0437865    
    894000   302.2481       305.80558      54664.798     -20781.206      3381.2435     -17399.963      1.0435867    
    895000   293.39449     -953.53634      55078.877     -20852.914      3282.1984     -17570.716      1.0357411    
    896000   298.58397     -318.46173      55081.642     -20786.165      3340.2529     -17445.912      1.0356891    
    897000   307.82766      800.42162      54317.59      -20742.429      3443.6619     -17298.768      1.0502575    
    898000   297.2661       119.40663      54628.661     -20781.849      3325.5099     -17456.34       1.0442771    
    899000   304.3002       157.87281      54740.499     -20749.495      3404.2002     -17345.294      1.0421435    
    900000   306.36695      233.10603      54492.02      -20887.085      3427.321      -17459.764      1.0468956    
    901000   291.65574      357.08879      55120.788     -20737.203      3262.7469     -17474.456      1.0349536    
    902000   300.89188     -679.20188      54805.829     -20812.513      3366.0715     -17446.441      1.0409013    
    903000   300.22778     -117.89189      54879.842     -20803.081      3358.6422     -17444.439      1.0394975    
    904000   302.31054      222.15161      54229.329     -20911.187      3381.942      -17529.245      1.0519669    
    905000   300.12543      67.128898      54518.11      -20978.219      3357.4972     -17620.722      1.0463946    
    906000   304.06298      362.29822      54495.119     -20882.964      3401.5465     -17481.417      1.0468361    
    907000   302.33873      363.19766      54584.919     -20850.794      3382.2574     -17468.537      1.0451139    
    908000   298.0443      -1.0728105      54554.126     -20922.299      3334.2156     -17588.083      1.0457038    
    909000   299.06003      241.88836      54531.74      -20864.839      3345.5786     -17519.261      1.0461331    
    910000   299.03305     -312.54584      54492.144     -20822.404      3345.2768     -17477.127      1.0468933    
    911000   302.37834      238.52828      54810.091     -20856.326      3382.7005     -17473.625      1.0408203    
    912000   304.34538      281.51637      54712.835     -20775.633      3404.7057     -17370.927      1.0426705    
    913000   296.92651      406.60809      54671.842     -20822.605      3321.7109     -17500.895      1.0434523    
    914000   300.52951     -197.95161      54626.079     -20871.132      3362.0176     -17509.114      1.0443264    
    915000   297.0008       211.1295       54570.148     -20925.618      3322.542      -17603.076      1.0453968    
    916000   301.19442      197.55509      54574.17      -20927.297      3369.456      -17557.841      1.0453198    
    917000   296.10591      45.615874      54535.348     -20937.595      3312.5309     -17625.064      1.0460639    
    918000   301.20329     -758.34194      54338.772     -20914.247      3369.5552     -17544.692      1.0498481    
    919000   302.59167     -437.3808       54596.82      -21008.063      3385.087      -17622.976      1.0448861    
    920000   299.48541      314.94429      54310.348     -20856.49       3350.3374     -17506.153      1.0503976    
    921000   304.10522     -202.69458      54611.602     -20766.578      3402.0191     -17364.559      1.0446033    
    922000   297.67349     -935.70337      55093.817     -20807.501      3330.0674     -17477.434      1.0354602    
    923000   294.61089     -73.367819      55395.211     -20771.352      3295.8062     -17475.546      1.0298265    
    924000   302.60935      448.34194      54381.192     -20882.349      3385.2848     -17497.065      1.0490292    
    925000   295.64656     -148.99021      54459.374     -21009.798      3307.3922     -17702.406      1.0475232    
    926000   299.2843      -880.85062      55103.153     -20882.851      3348.0875     -17534.763      1.0352848    
    927000   296.94257      424.59772      54517.838     -20846.319      3321.8907     -17524.428      1.0463999    
    928000   299.4347       125.66114      54778.433     -20886.958      3349.7701     -17537.188      1.0414219    
    929000   296.75762     -452.25086      54513.879     -20891.817      3319.8216     -17571.996      1.0464758    
    930000   301.31955     -90.736538      54852.881     -20910.27       3370.8559     -17539.414      1.0400084    
    931000   296.55907      419.886        55117.198     -20924.874      3317.6004     -17607.273      1.035021     
    932000   298.2923       358.62628      54729         -20906.82       3336.99       -17569.83       1.0423625    
    933000   293.84173      387.75462      54509.414     -20916.883      3287.2015     -17629.682      1.0465616    
    934000   304.80332     -461.04466      55487.67      -20739.227      3409.8286     -17329.398      1.0281105    
    935000   304.73504     -734.03273      55108.845     -20915.942      3409.0648     -17506.877      1.0351779    
    936000   302.9067      -619.18153      54709.657     -20771.52       3388.6112     -17382.909      1.042731     
    937000   303.02008      360.5928       54935.309     -20880.493      3389.8797     -17490.613      1.0384479    
    938000   304.72852     -174.44849      54535.254     -20997.344      3408.9919     -17588.353      1.0460657    
    939000   301.73235     -466.38124      54592.199     -20845.7        3375.4738     -17470.226      1.0449745    
    940000   304.11254     -97.283392      55213.078     -20907.874      3402.101      -17505.773      1.0332236    
    941000   298.77431      775.54193      54396.957     -20830.397      3342.3823     -17488.014      1.0487252    
    942000   298.27736      721.23534      54218.989     -20829.088      3336.8228     -17492.265      1.0521675    
    943000   289.77604     -369.36135      54183.676     -20844.781      3241.7188     -17603.062      1.0528532    
    944000   296.90096      730.89979      54527.003     -20846.996      3321.4251     -17525.571      1.046224     
    945000   294.17725      156.16681      54436.839     -20854.651      3290.9551     -17563.696      1.0479568    
    946000   308.85726     -1426.9808      54971.428     -20816.839      3455.18       -17361.659      1.0377656    
    947000   291.69057     -971.95287      54900.103     -20760.983      3263.1367     -17497.847      1.0391138    
    948000   304.02017     -106.84855      54246.809     -20755.335      3401.0676     -17354.268      1.0516279    
    949000   296.99596      396.25205      54857.324     -20782.957      3322.4879     -17460.469      1.0399242    
    950000   306.60789     -75.547382      54939.458     -20819.69       3430.0164     -17389.674      1.0383695    
    951000   294.98149     -564.30461      54777.837     -20782.681      3299.952      -17482.729      1.0414332    
    952000   302.57522     -63.952914      54586.214     -20996.381      3384.903      -17611.478      1.0450891    
    953000   297.56421     -492.79292      54856.852     -20712.201      3328.8449     -17383.356      1.0399331    
    954000   301.36529      47.58396       54783.091     -20907.104      3371.3675     -17535.737      1.0413333    
    955000   298.08611      121.08453      55134.235     -20970.803      3334.6834     -17636.12       1.0347012    
    956000   294.42658     -270.98745      55015.425     -20932.431      3293.7443     -17638.687      1.0369357    
    957000   295.24327      101.18665      54589.211     -20929.624      3302.8806     -17626.743      1.0450317    
    958000   301.00639      1145.5128      54727.066     -20855.305      3367.3525     -17487.953      1.0423993    
    959000   304.72412     -33.059467      54618.927     -20835.675      3408.9427     -17426.732      1.0444632    
    960000   300.43141     -260.00245      55003.457     -20844.991      3360.9202     -17484.071      1.0371613    
    961000   296.98115     -682.25947      54875.454     -20763.862      3322.3222     -17441.54       1.0395806    
    962000   298.22972     -472.18714      54305.427     -20732.725      3336.2899     -17396.436      1.0504928    
    963000   305.54741      345.10408      54422.512     -20948.381      3418.1528     -17530.228      1.0482327    
    964000   297.28747     -494.59609      54682.022     -21039.887      3325.749      -17714.138      1.043258     
    965000   298.33387     -598.51273      55276.733     -20912.582      3337.4551     -17575.127      1.0320338    
    966000   307.28416     -127.6301       54721.636     -20926.546      3437.5818     -17488.964      1.0425028    
    967000   306.39978     -699.63046      54694.819     -20738.744      3427.6883     -17311.056      1.0430139    
    968000   297.58479     -761.69063      55110.363     -20744.931      3329.0752     -17415.856      1.0351494    
    969000   297.6558       506.53514      54218.654     -20867.405      3329.8695     -17537.535      1.052174     
    970000   304.9439      -1345.8974      54886.007     -20787.524      3411.4013     -17376.122      1.0393807    
    971000   294.29281      562.25287      53965.638     -20911.941      3292.2478     -17619.693      1.0571071    
    972000   295.05133     -41.522622      54215.423     -20875.654      3300.7334     -17574.921      1.0522367    
    973000   305.00612      424.15171      53810.174     -20892.239      3412.0974     -17480.141      1.0601612    
    974000   302.70265      603.77587      54407.507     -20828.817      3386.3286     -17442.488      1.0485218    
    975000   303.41758     -60.263836      54685.433     -20938.353      3394.3264     -17544.027      1.0431929    
    976000   293.25033      237.05983      54765.11      -20827.076      3280.5856     -17546.491      1.0416752    
    977000   297.62898     -315.2342       54493.218     -20827.206      3329.5695     -17497.637      1.0468726    
    978000   303.23723     -379.50857      54516.677     -20767.315      3392.3089     -17375.006      1.0464221    
    979000   301.89777     -877.17427      55048.923     -20751.125      3377.3243     -17373.801      1.0363047    
    980000   304.72013      396.65673      54495.974     -20959.188      3408.898      -17550.29       1.0468197    
    981000   302.20069      415.34964      54872.674     -20966.347      3380.7131     -17585.633      1.0396333    
    982000   306.25656     -303.51915      54588.294     -20837.761      3426.0861     -17411.675      1.0450493    
    983000   303.61989     -231.01437      54182.313     -20939.368      3396.5897     -17542.779      1.0528797    
    984000   297.69567      512.94393      54871.966     -20859.086      3330.3155     -17528.771      1.0396467    
    985000   299.03466      574.41458      54756.991     -20843.853      3345.2949     -17498.559      1.0418297    
    986000   302.16396     -487.64269      54853.548     -20751.27       3380.3022     -17370.968      1.0399958    
    987000   300.89939      603.48302      54618.185     -20957.369      3366.1554     -17591.214      1.0444774    
    988000   294.62883     -165.5821       54589.237     -20906.737      3296.0068     -17610.731      1.0450312    
    989000   296.2496       882.8955       53853.28      -21008.318      3314.1384     -17694.179      1.0593126    
    990000   306.65739      1185.1506      54223.445     -20876.649      3430.5702     -17446.079      1.052081     
    991000   294.69055      1017.4797      54399.324     -20859.348      3296.6974     -17562.651      1.0486795    
    992000   294.65238      313.95673      54797.041     -20882.837      3296.2703     -17586.567      1.0410682    
    993000   293.26983      792.76276      54261.852     -20967.965      3280.8038     -17687.161      1.0513364    
    994000   301.8059      -554.85975      54662.695     -20908.602      3376.2966     -17532.305      1.0436269    
    995000   305.33279      562.65724      54294.66      -20883.515      3415.7518     -17467.764      1.0507011    
    996000   304.65223      179.06973      54777.344     -20900.078      3408.1384     -17491.939      1.0414426    
    997000   298.95048      299.86645      55429.069     -20842.332      3344.3531     -17497.979      1.0291975    
    998000   301.22979     -324.98148      55104.491     -20829.128      3369.8517     -17459.276      1.0352597    
    999000   300.94977     -220.41896      54817.554     -20887.209      3366.7191     -17520.49       1.0406786    
   1000000   300.40735     -439.941        54902.307     -20927.651      3360.6511     -17567          1.0390721    
   1001000   300.65952     -270.42773      54336.484     -20859.649      3363.4721     -17496.176      1.0498923    
   1002000   298.72914     -728.27618      54890.295     -20884.423      3341.877      -17542.546      1.0392995    
   1003000   300.66177     -328.94982      55384.844     -20819.402      3363.4972     -17455.905      1.0300193    
   1004000   303.94753      383.83203      54873.61      -20870.579      3400.2549     -17470.324      1.0396155    
   1005000   299.92967     -384.23642      54651.701     -20914.376      3355.3073     -17559.069      1.0438368    
   1006000   304.9333       560.5455       54095.779     -20923.356      3411.2828     -17512.073      1.0545639    
   1007000   306.28406     -58.700797      54360.76      -20765.386      3426.3937     -17338.993      1.0494235    
   1008000   300.79846     -590.7315       54778.611     -20829.727      3365.0264     -17464.7        1.0414185    
   1009000   307.35906     -344.65975      54923.142     -20780.36       3438.4197     -17341.94       1.038678     
   1010000   302.61942     -111.9008       55039.166     -20723.412      3385.3974     -17338.015      1.0364884    
   1011000   299.08651     -746.2561       54936.282     -20880.778      3345.8748     -17534.903      1.0384295    
   1012000   291.95747     -860.79573      55002.796     -20736.767      3266.1224     -17470.645      1.0371738    
   1013000   305.07539     -655.07104      55254.609     -20870.101      3412.8724     -17457.229      1.032447     
   1014000   301.12904     -868.46966      55071.629     -20857.61       3368.7246     -17488.885      1.0358774    
   1015000   312.10424      876.34869      54308.989     -20738.171      3491.5039     -17246.668      1.0504239    
   1016000   302.39192     -208.55173      54794.79      -20867.316      3382.8524     -17484.463      1.041111     
   1017000   295.57324      332.93235      54239.422     -20913.144      3306.5719     -17606.572      1.0517711    
   1018000   297.15298     -22.836287      54683.935     -20840.462      3324.2445     -17516.217      1.0432215    
   1019000   304.15259     -410.68405      54295.286     -20935.41       3402.549      -17532.861      1.050689     
   1020000   292.41232     -141.06666      55321.084     -20844.34       3271.2109     -17573.129      1.0312064    
   1021000   304.86024     -232.09113      54734.741     -20760.845      3410.4655     -17350.379      1.0422532    
   1022000   300.76406     -24.424809      54950.329     -20931.763      3364.6416     -17567.121      1.0381641    
   1023000   296.57934     -412.42113      55050.667     -21030.236      3317.8272     -17712.409      1.0362719    
   1024000   303.32602      551.80753      54944.299     -20995.404      3393.3021     -17602.102      1.038278     
   1025000   301.23099      962.44099      54853.759     -20823.744      3369.865      -17453.879      1.0399918    
   1026000   298.83924     -903.28183      54781.45      -20887.382      3343.1086     -17544.273      1.0413645    
   1027000   304.93136      296.49456      54201.725     -21054.369      3411.2611     -17643.108      1.0525026    
   1028000   300.1504       35.625063      55164.856     -20716.111      3357.7766     -17358.335      1.0341268    
   1029000   302.2633      -571.99308      54975.342     -20939.179      3381.4136     -17557.765      1.0376917    
   1030000   300.01731      100.36958      54321.173     -20906.089      3356.2876     -17549.801      1.0501882    
   1031000   298.23781      473.74485      54648.124     -20883.918      3336.3805     -17547.538      1.0439051    
   1032000   304.4326      -480.52408      54585.155     -20899.725      3405.6815     -17494.044      1.0451094    
   1033000   295.70843      42.818892      54567.402     -20790.005      3308.0843     -17481.92       1.0454494    
   1034000   301.09246     -284.21676      54587.393     -20784.417      3368.3153     -17416.102      1.0450665    
   1035000   298.31433     -102.9296       54264.075     -20876.749      3337.2364     -17539.512      1.0512933    
   1036000   308.18346     -617.19356      54806.853     -20876.892      3447.6422     -17429.25       1.0408818    
   1037000   297.26004      600.95822      54680.503     -20720.029      3325.4422     -17394.587      1.043287     
   1038000   304.69885     -687.35628      54443.979     -20880.481      3408.66       -17471.821      1.0478194    
   1039000   298.97842     -44.474125      54651.019     -20907.978      3344.6656     -17563.312      1.0438498    
   1040000   303.87594      194.39226      54666.218     -20911.908      3399.4541     -17512.454      1.0435596    
   1041000   303.32907      242.11293      54857.408     -20878.868      3393.3362     -17485.532      1.0399226    
   1042000   296.35435     -234.21639      55025.361     -20882.788      3315.3103     -17567.478      1.0367484    
   1043000   299.38335      995.60561      54681.022     -20946.673      3349.1956     -17597.477      1.0432771    
   1044000   295.29284      59.281382      54191.56      -20963.343      3303.4351     -17659.908      1.0527       
   1045000   299.29124     -187.29549      54748.395     -20862.838      3348.1652     -17514.673      1.0419932    
   1046000   303.59242     -18.749641      54505.257     -20878.77       3396.2824     -17482.487      1.0466414    
   1047000   300.54982     -67.441333      54414.418     -20835.441      3362.2449     -17473.196      1.0483886    
   1048000   291.62244     -769.744        54950.04      -20887.681      3262.3745     -17625.307      1.0381695    
   1049000   301.55812     -739.69635      55171.186     -20938.911      3373.5247     -17565.387      1.0340082    
   1050000   294.76285      531.22739      54710.991     -20879.76       3297.5061     -17582.254      1.0427056    
   1051000   307.41709     -249.61049      54547.921     -20950.316      3439.0689     -17511.247      1.0458228    
   1052000   293.40633     -719.14468      54808.882     -20948.063      3282.3308     -17665.733      1.0408433    
   1053000   300.04677     -151.13252      54687.253     -20841.251      3356.6172     -17484.634      1.0431582    
   1054000   298.19709     -663.14845      54726.499     -20896.932      3335.9249     -17561.008      1.0424101    
   1055000   302.98639     -805.9855       54660.491     -20844.447      3389.5027     -17454.944      1.043669     
   1056000   296.35837     -135.43004      54741.371     -20878.578      3315.3551     -17563.223      1.0421269    
   1057000   301.32195     -773.26838      55412.012     -20896.208      3370.8827     -17525.326      1.0295143    
   1058000   302.94683     -135.34798      54822.303     -20840.911      3389.0602     -17451.85       1.0405885    
   1059000   304.48276      116.29576      54448.86      -20840.193      3406.2426     -17433.95       1.0477255    
   1060000   297.62         625.68334      54564.224     -20580.413      3329.469      -17250.944      1.0455103    
   1061000   297.01172      517.42926      54660.256     -20844.466      3322.6642     -17521.802      1.0436734    
   1062000   302.70174     -268.40773      54158.441     -20767.319      3386.3183     -17381          1.0533438    
   1063000   294.10636      509.67944      54421.376     -20874.742      3290.162      -17584.58       1.0482546    
   1064000   293.08614      521.5301       54740.152     -20845.342      3278.7488     -17566.593      1.0421502    
   1065000   299.06172      313.64346      54323.646     -20837.096      3345.5975     -17491.499      1.0501404    
   1066000   303.0886       167.40023      54177.848     -20874.823      3390.6461     -17484.177      1.0529665    
   1067000   299.87932     -567.99998      54666.114     -20852.005      3354.744      -17497.261      1.0435616    
   1068000   301.68777     -659.9729       54888.172     -20947.128      3374.975      -17572.153      1.0393397    
   1069000   304.37139      32.398752      55262.437     -20822.595      3404.9967     -17417.598      1.0323008    
   1070000   291.64656     -718.42011      54567.997     -20925.211      3262.6443     -17662.567      1.045438     
   1071000   294.60139      131.16428      54672.017     -20954.648      3295.6999     -17658.948      1.0434489    
   1072000   300.83839      56.478711      54903.215     -20864.781      3365.4731     -17499.307      1.039055     
   1073000   305.67194      569.69688      54711.779     -20783.084      3419.546      -17363.538      1.0426906    
   1074000   305.457        879.60359      54451.683     -20848.668      3417.1414     -17431.527      1.0476711    
   1075000   299.57943      492.0815       54400.384     -20888.821      3351.3892     -17537.432      1.0486591    
   1076000   295.60634      77.634528      54485.563     -20855.783      3306.9422     -17548.84       1.0470197    
   1077000   298.1796       79.913211      54125.255     -20754.813      3335.7293     -17419.084      1.0539896    
   1078000   297.06858     -384.99034      54949.681     -20820.625      3323.3003     -17497.325      1.0381763    
   1079000   298.40845     -251.5863       54836.014     -20893.32       3338.2894     -17555.03       1.0403283    
   1080000   295.99846     -23.477782      55077.23      -20768.465      3311.3289     -17457.136      1.0357721    
   1081000   298.04977      220.53866      54271.437     -20845.665      3334.2768     -17511.388      1.0511507    
   1082000   294.69449      112.66379      54701.103     -20779.021      3296.7413     -17482.279      1.0428941    
   1083000   300.63097      282.84258      54351.301     -20814.941      3363.1527     -17451.788      1.0496061    
   1084000   302.72292     -84.654852      54888.15      -20838.417      3386.5553     -17451.861      1.0393401    
   1085000   303.16998      594.7292       54298.976     -20841.458      3391.5565     -17449.902      1.0506176    
   1086000   298.58162     -959.51794      54897.268     -20927.32       3340.2266     -17587.093      1.0391675    
   1087000   298.50197     -236.68003      54552.635     -20792.529      3339.3356     -17453.193      1.0457324    
   1088000   298.92015      326.59244      54824.34      -20876.475      3344.0138     -17532.461      1.0405498    
   1089000   301.92263     -688.16111      54727.718     -20841.657      3377.6025     -17464.055      1.0423869    
   1090000   297.45743      13.137803      54481.678     -20826.903      3327.6504     -17499.253      1.0470944    
   1091000   298.41529     -56.33636       54746.752     -20821.889      3338.3659     -17483.523      1.0420245    
   1092000   308.09386      616.75703      54752.936     -20897.992      3446.6398     -17451.353      1.0419068    
   1093000   293.97942      95.585574      54397.808     -20778.537      3288.742      -17489.795      1.0487088    
   1094000   306.67714      1155.5062      54368.172     -20857.128      3430.7911     -17426.337      1.0492804    
   1095000   302.45356      442.94229      54616.914     -20976.471      3383.542      -17592.929      1.0445017    
   1096000   299.01555      745.75868      54283.158     -20754.579      3345.081      -17409.498      1.0509237    
   1097000   307.40179      6.3493782      54517.889     -20872.509      3438.8977     -17433.611      1.0463989    
   1098000   304.3068      -74.753774      54729.873     -20892.466      3404.2742     -17488.192      1.0423459    
   1099000   302.18848     -394.78114      54955.989     -20828.494      3380.5765     -17447.918      1.0380572    
   1100000   298.96479      127.84309      54824.489     -20869.624      3344.5132     -17525.111      1.040547     
   1101000   295.12445     -129.89618      54932.6       -20807.188      3301.5514     -17505.636      1.0384991    
   1102000   298.01134      799.87325      54744.55      -20905.51       3333.847      -17571.663      1.0420664    
   1103000   298.35194      338.98121      54607.182     -20923.912      3337.6572     -17586.255      1.0446878    
   1104000   299.01589      586.19781      54377.191     -20829.437      3345.0848     -17484.353      1.0491064    
   1105000   299.22243     -266.61065      55074.497     -20886.165      3347.3954     -17538.769      1.0358235    
   1106000   303.03025      724.19751      54224.637     -20898.86       3389.9934     -17508.867      1.0520579    
   1107000   296.50911     -976.32972      54921.928     -20811.705      3317.0415     -17494.663      1.0387009    
   1108000   299.45577      938.60478      54493.784     -20921.424      3350.0058     -17571.418      1.0468617    
   1109000   302.87148      70.463771      54611.247     -20979.09       3388.2172     -17590.873      1.0446101    
   1110000   296.96746     -688.03674      54817.271     -20760.778      3322.1691     -17438.609      1.040684     
   1111000   300.93987      369.95258      54736.372     -20928.503      3366.6084     -17561.894      1.0422221    
   1112000   303.97634      119.79517      54397.026     -20915.324      3400.5772     -17514.747      1.0487238    
   1113000   298.8615       393.47884      54797.821     -20819.038      3343.3577     -17475.681      1.0410534    
   1114000   298.19004      405.40187      54129.943     -20926.164      3335.8461     -17590.318      1.0538984    
   1115000   297.0785      -6.8501126      54521.544     -20871.717      3323.4112     -17548.306      1.0463287    
   1116000   298.25313      693.08981      54203.265     -20859.774      3336.5518     -17523.222      1.0524727    
   1117000   305.89313      583.99456      54755.027     -20856.199      3422.0204     -17434.178      1.041867     
   1118000   298.68549      769.07933      54267.371     -20779.397      3341.3886     -17438.009      1.0512294    
   1119000   301.97094     -202.01251      54971.744     -20893.027      3378.1429     -17514.884      1.0377597    
   1120000   300.65053      89.605378      54651.852     -20838.505      3363.3715     -17475.134      1.0438339    
   1121000   307.13714     -591.86617      54879.979     -20894.519      3435.9371     -17458.582      1.0394949    
   1122000   305.44365      545.35975      54955.449     -20960.618      3416.992      -17543.626      1.0380674    
   1123000   298.85375      196.15556      54885.395     -20889.046      3343.2709     -17545.775      1.0393923    
   1124000   297.22467      354.60799      54753.681     -20879.896      3325.0464     -17554.85       1.0418926    
   1125000   303.68199      57.507611      54758.705     -20932.999      3397.2844     -17535.715      1.0417971    
   1126000   306.13992      718.64559      54423.515     -20842.702      3424.7812     -17417.921      1.0482134    
   1127000   298.3708       16.87337       53999.453     -20754.685      3337.8682     -17416.817      1.0564451    
   1128000   309.4567       49.654164      54332.772     -20866.118      3461.886      -17404.232      1.0499641    
   1129000   300.76376     -363.26564      54577.909     -20829.608      3364.6382     -17464.97       1.0452481    
   1130000   296.547       -349.43929      54327.195     -20834.758      3317.4654     -17517.292      1.0500718    
   1131000   305.96271     -1196.4271      54404.566     -20816.138      3422.7988     -17393.339      1.0485785    
   1132000   296.57971     -314.29715      54665.163     -20790.746      3317.8313     -17472.915      1.0435798    
   1133000   296.16766      90.621668      54943.883     -20819.728      3313.2217     -17506.507      1.0382859    
   1134000   299.23302      573.97892      54388.521     -20769.66       3347.5138     -17422.146      1.0488878    
   1135000   294.68337      435.47232      55052.269     -20787.43       3296.617      -17490.812      1.0362417    
   1136000   301.91748     -710.66938      55054.334     -20845.028      3377.5448     -17467.483      1.0362028    
   1137000   305.31604      55.199898      54920.748     -20864.278      3415.5644     -17448.713      1.0387232    
   1138000   293.64322     -113.59725      54863.794     -20948.761      3284.9809     -17663.78       1.0398015    
   1139000   307.42276      162.60928      54518.198     -20926.602      3439.1323     -17487.47       1.0463929    
   1140000   297.82492      761.6081       54571.136     -20819.071      3331.7615     -17487.31       1.0453779    
   1141000   302.79406     -280.01791      55234.988     -20805.539      3387.3511     -17418.188      1.0328138    
   1142000   298.9099       45.14305       54876.295     -20788.13       3343.8991     -17444.231      1.0395647    
   1143000   301.38894     -270.29865      54855.625     -20973.309      3371.6321     -17601.677      1.0399564    
   1144000   303.02357     -294.07162      55016.67      -20945.393      3389.9186     -17555.474      1.0369122    
   1145000   302.52589     -915.12282      55080.71      -20815.109      3384.3511     -17430.758      1.0357066    
   1146000   300.36654      639.34134      54725.266     -20882.669      3360.1945     -17522.474      1.0424336    
   1147000   305.07987     -458.59571      55274.976     -20822.466      3412.9225     -17409.544      1.0320666    
   1148000   301.87756     -84.342258      53640.944     -20840.111      3377.0983     -17463.013      1.0635059    
   1149000   294.52286      123.26513      54529.189     -20975.702      3294.8214     -17680.88       1.046182     
   1150000   298.73669     -111.73699      54658.045     -20876.946      3341.9615     -17534.985      1.0437157    
   1151000   297.54219     -734.83028      54533.572     -20883.807      3328.5986     -17555.208      1.0460979    
   1152000   294.8217       142.95401      55092.982     -20875.029      3298.1645     -17576.865      1.035476     
   1153000   309.27157      144.96938      54245.125     -20911.207      3459.8149     -17451.392      1.0516606    
   1154000   305.76586      651.87904      54689.21      -20817.725      3420.5966     -17397.129      1.0431209    
   1155000   302.69299     -494.61536      54694.586     -20847.239      3386.2205     -17461.019      1.0430184    
   1156000   307.52282      681.38125      54823.795     -20808.659      3440.2516     -17368.407      1.0405602    
   1157000   301.182        116.25958      54777.953     -20842.858      3369.317      -17473.541      1.041431     
   1158000   298.04417      1394.554       54452.212     -20845.64       3334.2142     -17511.426      1.047661     
   1159000   296.6303      -171.21762      54917.626     -20892.769      3318.3972     -17574.372      1.0387823    
   1160000   307.51551     -64.385839      54818.797     -20904.841      3440.1699     -17464.671      1.040655     
   1161000   293.31538     -46.386193      54650.072     -20909.642      3281.3133     -17628.329      1.0438679    
   1162000   294.75839      300.51961      54239.361     -20861.806      3297.4563     -17564.35       1.0517723    
   1163000   302.83794      18.441756      54204.214     -20928.207      3387.842      -17540.365      1.0524543    
   1164000   301.01743     -173.1376       54454.12      -20716.802      3367.476      -17349.326      1.0476243    
   1165000   302.58387     -487.1405       54587.877     -20942.312      3384.9998     -17557.312      1.0450573    
   1166000   299.22845     -606.38822      54749.523     -20813.526      3347.4627     -17466.063      1.0419718    
   1167000   296.02624     -1216.3398      54823.943     -20915.087      3311.6397     -17603.447      1.0405574    
   1168000   298.51215     -181.72931      54304.531     -20698.342      3339.4495     -17358.893      1.0505101    
   1169000   300.2074      -434.58352      54259.791     -20787.484      3358.4142     -17429.07       1.0513763    
   1170000   297.57701      245.49885      54743.266     -20912.106      3328.9881     -17583.118      1.0420909    
   1171000   298.5422      -558.46132      55061.698     -20846.91       3339.7856     -17507.124      1.0360643    
   1172000   301.04402      85.400772      54268.774     -20891.291      3367.7735     -17523.517      1.0512023    
   1173000   299.99344     -882.23322      55001.843     -20860.867      3356.0207     -17504.846      1.0371917    
   1174000   300.50459     -223.00651      54728.864     -20794.663      3361.7389     -17432.924      1.0423651    
   1175000   306.31244      1018.1188      54010.703     -20936.922      3426.7111     -17510.211      1.0562251    
   1176000   306.62962      361.94416      54343.211     -20882.583      3430.2595     -17452.324      1.0497624    
   1177000   295.12111     -251.16229      54668.155     -20839.817      3301.5139     -17538.303      1.0435227    
   1178000   298.59178      136.84554      54766.361     -20814.042      3340.3403     -17473.702      1.0416514    
   1179000   295.30294      43.3427        54076.428     -20853.031      3303.5481     -17549.483      1.0549413    
   1180000   297.84314     -789.66923      55430.951     -20778.213      3331.9653     -17446.248      1.0291625    
   1181000   300.38167      465.27294      55068.678     -20875.681      3360.3637     -17515.318      1.0359329    
   1182000   295.84732     -423.53829      54885.02      -20812.692      3309.6381     -17503.054      1.0393994    
   1183000   296.08032      108.15803      54879.538     -20935.182      3312.2446     -17622.937      1.0395032    
   1184000   301.26704     -424.57944      54751.323     -20935.489      3370.2684     -17565.221      1.0419375    
   1185000   298.75771      495.39144      54419.673     -20844.573      3342.1966     -17502.377      1.0482874    
   1186000   303.98299      57.298528      54332.557     -20930.571      3400.6517     -17529.919      1.0499682    
   1187000   297.17183     -687.95204      54591.335     -20697.06       3324.4554     -17372.605      1.0449911    
   1188000   301.74855     -251.73356      54643.862     -20888.59       3375.655      -17512.935      1.0439866    
   1189000   303.02754      627.8346       54667.798     -20804.908      3389.9631     -17414.945      1.0435295    
   1190000   301.14963      90.441905      54931.701     -20803.041      3368.9549     -17434.086      1.0385161    
   1191000   300.01349     -500.26511      55155.109     -20856.747      3356.245      -17500.502      1.0343096    
   1192000   298.68816     -254.97945      54173.794     -20886.429      3341.4185     -17545.011      1.0530453    
   1193000   296.4535      -853.47712      54480.243     -20845.526      3316.4194     -17529.107      1.0471219    
   1194000   294.48554      364.99047      54318.028     -20873.425      3294.4038     -17579.021      1.0502491    
   1195000   302.40731      114.83698      54976.38      -20903.952      3383.0245     -17520.927      1.0376721    
   1196000   299.96945      34.303198      54752.921     -20807.037      3355.7523     -17451.285      1.0419071    
   1197000   296.12516      346.45537      54120.736     -20844.735      3312.7463     -17531.989      1.0540776    
   1198000   295.75338      794.3094       54763.043     -20826.052      3308.5872     -17517.465      1.0417145    
   1199000   296.00379     -510.93984      54915.942     -20989.765      3311.3886     -17678.377      1.0388142    
   1200000   303.97968     -746.82227      54891.314     -20937.205      3400.6146     -17536.59       1.0392802    
   1201000   298.18399      201.49971      54067.671     -20885.048      3335.7784     -17549.269      1.0551122    
   1202000   301.19849     -64.269195      54217.405     -20871.329      3369.5016     -17501.827      1.0521982    
   1203000   304.58283     -494.01901      54779.515     -20815.719      3407.3621     -17408.357      1.0414013    
   1204000   301.93121      154.74249      54572.661     -20932.554      3377.6984     -17554.856      1.0453486    
   1205000   296.25796      354.12569      55259.908     -20696.001      3314.2319     -17381.769      1.032348     
   1206000   294.93116      336.52039      54483.794     -20975.175      3299.389      -17675.786      1.0470537    
   1207000   299.35277      4.5795484      54994.775     -20796.957      3348.8535     -17448.103      1.037325     
   1208000   301.22406     -140.63321      54843.118     -20896.956      3369.7876     -17527.168      1.0401935    
   1209000   300.04895      65.693109      54788.251     -20937.655      3356.6416     -17581.013      1.0412352    
   1210000   307.40767      318.18753      54315.323     -21003.301      3438.9635     -17564.338      1.0503014    
   1211000   297.65339     -414.65083      54840.011     -20822.114      3329.8426     -17492.271      1.0402525    
   1212000   300.21731     -223.6723       54650.035     -20814.208      3358.5251     -17455.683      1.0438686    
   1213000   300.09952      188.54838      54846.5       -20803.45       3357.2073     -17446.243      1.0401294    
   1214000   301.59477     -466.02186      54585.253     -20903.079      3373.9347     -17529.144      1.0451075    
   1215000   302.32778     -943.1782       54315.298     -21040.973      3382.1348     -17658.838      1.0503018    
   1216000   302.9584       90.089363      54767.337     -20908.449      3389.1896     -17519.259      1.0416328    
   1217000   303.24013     -388.65808      54557.501     -20802.151      3392.3413     -17409.809      1.0456391    
   1218000   300.56057     -563.59109      54242.36      -20937.23       3362.3651     -17574.865      1.0517142    
   1219000   295.27694      284.29545      54595.887     -20807.055      3303.2572     -17503.798      1.0449039    
   1220000   306.55752      651.5171       54685.427     -20843.599      3429.4529     -17414.146      1.0431931    
   1221000   304.32765     -549.54374      55075.129     -20863.26       3404.5074     -17458.753      1.0358116    
   1222000   294.37911      60.331298      55134.752     -20770.886      3293.2132     -17477.673      1.0346915    
   1223000   300.3918       487.25012      54998.038     -20864.084      3360.4771     -17503.607      1.0372635    
   1224000   300.82333     -359.31067      55211.28      -20981.37       3365.3047     -17616.066      1.0332573    
   1225000   296.94315     -680.81558      54733.116     -20881.785      3321.8971     -17559.888      1.0422841    
   1226000   295.96958     -564.22156      54620.156     -20898.482      3311.0058     -17587.476      1.0444397    
   1227000   307.31231     -69.722361      54456.348     -20947.313      3437.8967     -17509.417      1.0475814    
   1228000   300.67541      71.476399      54429.187     -20830.786      3363.6498     -17467.136      1.0481042    
   1229000   299.82186     -606.05029      54664.637     -20789.909      3354.1012     -17435.807      1.0435898    
   1230000   298.47181      446.72537      55259.945     -20933.435      3338.9982     -17594.437      1.0323474    
   1231000   303.63         63.989893      54263.129     -20905.589      3396.7028     -17508.886      1.0513116    
   1232000   299.37001      135.45705      55388.726     -20798.733      3349.0464     -17449.687      1.0299471    
   1233000   297.63837     -1045.6439      54911.03      -20886.901      3329.6745     -17557.226      1.0389071    
   1234000   306.1806      -60.371546      54400.596     -20838.049      3425.2362     -17412.813      1.048655     
   1235000   292.6865       7.1957548      54379.627     -20858.028      3274.2781     -17583.75       1.0490594    
   1236000   298.17548     -647.32463      54930.904     -20960.599      3335.6832     -17624.915      1.0385312    
   1237000   296.15389      224.2759       54732.178     -20989.31       3313.0677     -17676.242      1.042302     
   1238000   295.17867     -649.20408      54307.788     -20867.14       3302.1579     -17564.982      1.0504471    
   1239000   301.36746      278.95127      54714.356     -20735.965      3371.3918     -17364.573      1.0426415    
   1240000   298.31318     -604.57379      54679.004     -20763.331      3337.2236     -17426.107      1.0433156    
   1241000   301.27246      339.96934      55084.086     -20865.41       3370.329      -17495.081      1.0356432    
   1242000   297.70882     -627.32098      54414.331     -20790.373      3330.4627     -17459.91       1.0483903    
   1243000   299.34262      56.966503      54252.271     -21004.229      3348.74       -17655.489      1.051522     
   1244000   301.86298     -465.93595      54617.897     -20832.498      3376.9352     -17455.563      1.0444829    
   1245000   302.26834     -702.8756       54594.149     -20952.575      3381.4699     -17571.105      1.0449372    
   1246000   303.6316       711.46265      54193.401     -20840.773      3396.7207     -17444.053      1.0526643    
   1247000   305.10368      294.02464      54875.429     -20931.72       3413.1888     -17518.532      1.0395811    
   1248000   304.76053      94.272816      55032.66      -20774.662      3409.3499     -17365.312      1.0366109    
   1249000   294.72922     -47.749204      54659.228     -20864.972      3297.13       -17567.842      1.0436931    
   1250000   299.27758     -229.6481       55020.483     -20916.878      3348.0123     -17568.866      1.0368404    
   1251000   299.82446     -90.678872      54587.387     -20848.826      3354.1302     -17494.696      1.0450667    
   1252000   300.95064     -303.03221      54391.987     -21025.841      3366.7288     -17659.112      1.048821     
   1253000   300.18734     -96.850084      54586.755     -20833.413      3358.1898     -17475.223      1.0450787    
   1254000   304.10331     -858.22281      54687.697     -20863.612      3401.9976     -17461.614      1.0431497    
   1255000   305.3119       159.91893      54594.167     -20896.421      3415.5181     -17480.903      1.0449369    
   1256000   298.29219      77.560288      54570.818     -20848.359      3336.9888     -17511.37       1.045384     
   1257000   303.73876      532.81584      54436.375     -20795.358      3397.9194     -17397.439      1.0479658    
   1258000   297.73113     -333.20968      54878.87      -20743.408      3330.7122     -17412.696      1.0395159    
   1259000   305.62366     -809.24277      55169.143     -20792.365      3419.0058     -17373.36       1.0340465    
   1260000   296.36653      182.92237      54782.804     -20920.253      3315.4465     -17604.806      1.0413388    
   1261000   301.2966      -120.60718      55300.071     -20895.642      3370.5991     -17525.043      1.0315983    
   1262000   301.6297       301.73848      54824.361     -20863.22       3374.3255     -17488.895      1.0405494    
   1263000   297.28602     -518.86776      55024.558     -20835.238      3325.7328     -17509.506      1.0367636    
   1264000   298.49008     -634.11359      54577.722     -20880.33       3339.2026     -17541.127      1.0452517    
   1265000   296.84205      1109.1406      54453.502     -20946.195      3320.7661     -17625.429      1.0476362    
   1266000   304.64437     -446.27242      54297.774     -20865.421      3408.0505     -17457.371      1.0506408    
   1267000   304.31412     -416.75573      54569.97      -20873.255      3404.356      -17468.899      1.0454002    
   1268000   301.01018     -842.16971      54564.204     -20918.01       3367.3949     -17550.615      1.0455107    
   1269000   306.97901      204.7789       54511.696     -20946.747      3434.1681     -17512.579      1.0465177    
   1270000   294.06263     -496.10715      54911.145     -20800.334      3289.6728     -17510.661      1.0389049    
   1271000   299.30884     -839.06261      54348.183     -20780.684      3348.362      -17432.322      1.0496663    
   1272000   299.76412      289.71077      54450.05      -20863.533      3353.4552     -17510.078      1.0477026    
   1273000   303.95101      347.29101      54831.662     -20816.868      3400.2939     -17416.574      1.0404109    
   1274000   299.93707      453.18027      54247.584     -20874.149      3355.3901     -17518.759      1.0516129    
   1275000   299.19146     -1009.1102      54786.153     -20886.365      3347.0489     -17539.316      1.0412751    
   1276000   303.3627      -76.092163      54722.45      -20908.179      3393.7125     -17514.467      1.0424873    
   1277000   300.3284       697.57007      54441.332     -20803.986      3359.7678     -17444.218      1.0478703    
   1278000   301.53513     -136.33673      54707.133     -20959.322      3373.2675     -17586.054      1.0427791    
   1279000   306.22969      56.707099      54990.736     -20640.156      3425.7855     -17214.371      1.0374012    
   1280000   302.21059      67.337513      54675.338     -20772.435      3380.8239     -17391.612      1.0433856    
   1281000   302.53697      22.544341      54414.417     -20773.224      3384.4751     -17388.748      1.0483887    
   1282000   291.38381     -256.29966      54910.827     -20827.089      3259.7049     -17567.384      1.0389109    
   1283000   298.02096     -102.52232      54778.455     -20856.66       3333.9545     -17522.706      1.0414214    
   1284000   302.6348      -323.60687      55178.535     -20810.61       3385.5695     -17425.04       1.0338705    
   1285000   294.14679     -657.60286      54496.288     -20786.448      3290.6143     -17495.834      1.0468136    
   1286000   301.83022     -1304.3701      54289.686     -20863.936      3376.5686     -17487.367      1.0507973    
   1287000   299.79639      450.36119      54509.082     -20866.419      3353.8162     -17512.602      1.0465679    
   1288000   301.08805     -318.68515      54854.319     -20987.263      3368.266      -17618.997      1.0399812    
   1289000   308.25733      451.61472      54394.661     -20845.561      3448.4686     -17397.093      1.0487694    
   1290000   302.26603     -246.69855      55242.625     -21017.995      3381.4441     -17636.551      1.032671     
   1291000   305.16537     -85.757588      55002.475     -20804.832      3413.8789     -17390.953      1.0371798    
   1292000   301.71248      164.04694      54577.588     -20780.274      3375.2515     -17405.022      1.0452543    
   1293000   293.58437      978.58839      54813.508     -20735.577      3284.3225     -17451.255      1.0407555    
   1294000   299.75768     -243.8409       54568.751     -20911.653      3353.3832     -17558.27       1.0454236    
   1295000   296.22455     -78.291242      54228.571     -20947.075      3313.8581     -17633.217      1.0519816    
   1296000   302.83061      332.71494      54389.019     -20664.643      3387.76       -17276.883      1.0488782    
   1297000   299.26871      71.590863      54416.938     -20865.106      3347.9131     -17517.193      1.0483401    
   1298000   294.2821      -665.40856      54952.194     -20882.926      3292.128      -17590.798      1.0381288    
   1299000   296.81851      72.187141      55034.042     -20889.207      3320.5027     -17568.704      1.0365849    
   1300000   300.68775     -156.72735      54765.788     -20928.139      3363.7879     -17564.351      1.0416623    
   1301000   302.0214      -450.50686      54156.442     -20747.277      3378.7074     -17368.57       1.0533827    
   1302000   294.94335      50.388781      54613.858     -20901.973      3299.5254     -17602.448      1.0445601    
   1303000   305.68732     -495.8858       54934.444     -20783.863      3419.718      -17364.145      1.0384643    
   1304000   300.07608     -320.41271      54467.112     -20868.002      3356.9452     -17511.057      1.0473744    
   1305000   291.42956      579.01366      53938.183     -20834.069      3260.2167     -17573.852      1.0576451    
   1306000   302.2069      -337.24608      54787.914     -20804.065      3380.7825     -17423.282      1.0412416    
   1307000   299.98671      62.456916      55145.52      -20961.496      3355.9453     -17605.551      1.0344894    
   1308000   295.17016      294.66031      54459.356     -20835.741      3302.0627     -17533.678      1.0475235    
   1309000   301.84032      424.53592      54665.612     -20918.766      3376.6817     -17542.085      1.0435712    
   1310000   298.58048      420.67162      54647.413     -20840.119      3340.2138     -17499.906      1.0439187    
   1311000   299.42819      150.28696      55090.308     -20784.635      3349.6972     -17434.937      1.0355262    
   1312000   291.83774      162.59617      54680.025     -20894.459      3264.783      -17629.676      1.0432961    
   1313000   303.18584      66.54939       54808.066     -20759.645      3391.7339     -17367.911      1.0408588    
   1314000   297.24145     -262.95846      54376.655     -20855.567      3325.2342     -17530.333      1.0491167    
   1315000   300.14259     -454.79967      54931.401     -20861.653      3357.6892     -17503.964      1.0385218    
   1316000   308.06696     -33.68077       54833.464     -20794.205      3446.339      -17347.866      1.0403767    
   1317000   301.40953     -310.37389      54806.085     -20908.074      3371.8624     -17536.212      1.0408964    
   1318000   298.88606     -302.97195      54922.878     -20971.823      3343.6324     -17628.19       1.038683     
   1319000   295.14779     -50.237579      54654.933     -20936.247      3301.8125     -17634.435      1.0437751    
   1320000   304.30317      77.970057      54847.399     -20929.289      3404.2335     -17525.056      1.0401124    
   1321000   294.71958      121.02703      54479.459     -20784.912      3297.022      -17487.89       1.047137     
   1322000   294.1093       253.28159      55311.079     -20864.165      3290.1949     -17573.97       1.031393     
   1323000   294.76092     -265.74449      54534.252     -20883.716      3297.4845     -17586.231      1.0460849    
   1324000   297.60485     -377.40579      54600.722     -20869.781      3329.2996     -17540.482      1.0448114    
   1325000   301.43199     -1134.1059      55000.977     -20753.122      3372.1137     -17381.009      1.0372081    
   1326000   302.07604     -318.56825      54701.751     -20800.982      3379.3187     -17421.663      1.0428817    
   1327000   301.13746      216.35944      54895.327     -20797.997      3368.8187     -17429.178      1.0392043    
   1328000   302.72589      601.69672      55042.758     -20719.468      3386.5885     -17332.88       1.0364208    
   1329000   292.97417     -705.96224      54981.966     -20880.79       3277.4963     -17603.294      1.0375667    
   1330000   301.30774     -155.26188      54842.639     -20925.469      3370.7236     -17554.745      1.0402026    
   1331000   296.43667     -196.4911       54761.298     -20911.933      3316.2312     -17595.702      1.0417477    
   1332000   296.87438      440.21459      54513.959     -20934.014      3321.1278     -17612.886      1.0464743    
   1333000   294.2896      -331.91679      54850.442     -20863.731      3292.212      -17571.519      1.0400546    
   1334000   293.54339     -171.87646      54305.495     -20907.212      3283.8641     -17623.348      1.0504914    
   1335000   297.85065     -383.45964      54637.169     -20816.243      3332.0493     -17484.194      1.0441145    
   1336000   300.86094      1215.1979      54862.957     -20833.312      3365.7253     -17467.586      1.0398174    
   1337000   305.74891     -168.76073      55289.792     -20859.385      3420.407      -17438.978      1.0317901    
   1338000   299.13715     -409.39819      55031.293     -20752.094      3346.4413     -17405.653      1.0366367    
   1339000   307.04455      353.4642       54881.508     -20846.291      3434.9013     -17411.389      1.0394659    
   1340000   298.95605      635.4815       54057.836     -20883.164      3344.4154     -17538.748      1.0553041    
   1341000   293.72389      793.82873      53850.389     -20859.01       3285.8833     -17573.127      1.0593695    
   1342000   306.66352      215.23468      54512.3       -20809.413      3430.6387     -17378.774      1.0465062    
   1343000   298.75648     -225.05042      54545.694     -20941.122      3342.1828     -17598.94       1.0458655    
   1344000   295.45905     -679.82594      54984.33      -20899.65       3305.2946     -17594.355      1.0375221    
   1345000   295.54582      206.18699      55140.02      -20830.476      3306.2652     -17524.211      1.0345926    
   1346000   296.90373      169.58258      54404.243     -20871.859      3321.4561     -17550.403      1.0485847    
   1347000   302.60611      126.32931      54679.321     -20860.211      3385.2486     -17474.963      1.0433095    
   1348000   300.86261     -143.70682      54579.997     -20897.974      3365.744      -17532.23       1.0452081    
   1349000   299.29348     -500.78541      54737.06      -20948.052      3348.1902     -17599.862      1.042209     
   1350000   302.95191      35.324775      55143.33      -20716.791      3389.117      -17327.674      1.0345305    
   1351000   299.01665      432.98614      54884.95      -20853.254      3345.0933     -17508.16       1.0394007    
   1352000   303.90378     -76.505454      54891.042     -20789.739      3399.7655     -17389.974      1.0392854    
   1353000   301.31538      146.19355      54704.474     -20952.905      3370.8091     -17582.096      1.0428298    
   1354000   303.62472     -377.76705      54936.863     -20851.955      3396.6437     -17455.311      1.0384186    
   1355000   306.36653     -1028.5314      54589.372     -20859.137      3427.3162     -17431.821      1.0450286    
   1356000   296.4431       35.367621      54270.227     -20816.797      3316.303      -17500.494      1.0511741    
   1357000   303.27333      405.45968      54798.111     -20805.334      3392.7127     -17412.621      1.0410479    
   1358000   293.0653       155.3697       54221.925     -20914.311      3278.5157     -17635.796      1.0521105    
   1359000   302.81064      217.12697      54838.385     -20834.759      3387.5366     -17447.223      1.0402833    
   1360000   305.98808     -437.88829      54417.114     -20947.185      3423.0826     -17524.102      1.0483367    
   1361000   302.40675     -269.92537      54568.555     -20981.901      3383.0183     -17598.882      1.0454273    
   1362000   300.97765     -1424.3467      54912.627     -20946.232      3367.031      -17579.201      1.0388769    
   1363000   291.80842      225.94697      54268.349     -20924.029      3264.455      -17659.574      1.0512105    
   1364000   297.86559      243.19868      54762.633     -20895.068      3332.2164     -17562.852      1.0417223    
   1365000   302.96627      210.0361       53978.308     -20831.409      3389.2777     -17442.132      1.0568589    
   1366000   298.50367     -358.6615       54598.456     -20863.983      3339.3546     -17524.629      1.0448548    
   1367000   298.84527     -1.1906391      54558.167     -20765.667      3343.176      -17422.491      1.0456264    
   1368000   308.41079      727.74311      54238.716     -20858.107      3450.1854     -17407.921      1.0517848    
   1369000   295.61562      348.20402      54656.45      -20994.814      3307.0461     -17687.768      1.0437461    
   1370000   301.39155     -173.35033      54375.409     -21016.97       3371.6613     -17645.308      1.0491407    
   1371000   299.68904      742.1794       54443.513     -20906.701      3352.6154     -17554.085      1.0478284    
   1372000   296.5861       91.424519      55105.559     -20767.45       3317.9028     -17449.547      1.0352396    
   1373000   306.55325      196.82166      55037.449     -20884.473      3429.4051     -17455.068      1.0365207    
   1374000   296.88046      569.65833      54784.109     -20833.21       3321.1958     -17512.014      1.041314     
   1375000   296.3989       16.858255      54553.486     -20749.515      3315.8086     -17433.707      1.0457161    
   1376000   300.77656      471.50513      54288.427     -20970.676      3364.7813     -17605.895      1.0508217    
   1377000   300.71447      56.58053       54684.198     -20804.317      3364.0868     -17440.231      1.0432165    
   1378000   295.87059      665.98154      54569.3       -20830.277      3309.8984     -17520.379      1.045413     
   1379000   293.20277     -49.020968      54705.897     -20930.622      3280.0535     -17650.568      1.0428027    
   1380000   294.61094      612.3251       54275.662     -20870.778      3295.8067     -17574.971      1.0510689    
   1381000   295.00591      299.27437      54566.525     -20742.855      3300.2252     -17442.63       1.0454662    
   1382000   309.47158     -292.96756      54637.447     -20784.021      3462.0525     -17321.968      1.0441091    
   1383000   294.99075      273.01641      54692.843     -20748.376      3300.0556     -17448.32       1.0430516    
   1384000   295.63934      4.4866924      54918.156     -20901.975      3307.3114     -17594.664      1.0387723    
   1385000   297.56877     -252.11248      54972.803     -20953.503      3328.8959     -17624.607      1.0377397    
   1386000   301.96798      243.98109      54280.139     -20837.623      3378.1098     -17459.513      1.0509822    
   1387000   296.55998      754.81522      54365.16      -20782.191      3317.6106     -17464.58       1.0493385    
   1388000   304.71284      310.02704      54518.085     -20794.941      3408.8165     -17386.124      1.0463951    
   1389000   299.0439       357.63694      54521.169     -20847.967      3345.3982     -17502.569      1.0463359    
   1390000   299.30835      212.06414      54192.748     -20813.496      3348.3566     -17465.139      1.052677     
   1391000   304.14289     -315.26106      54991.838     -20772.027      3402.4404     -17369.587      1.0373804    
   1392000   296.03614     -437.55981      54807.535     -20815.633      3311.7504     -17503.882      1.0408689    
   1393000   303.64751      202.68452      54400.593     -20874.579      3396.8987     -17477.68       1.0486551    
   1394000   305.94742     -212.12625      54022.893     -20782.61       3422.6277     -17359.982      1.0559867    
   1395000   298.3766      -173.00936      54632.364     -20766.592      3337.9331     -17428.659      1.0442063    
   1396000   300.2504      -427.63502      54409.869     -20749.492      3358.8953     -17390.596      1.0484763    
   1397000   295.56093     -112.02195      54724.837     -20769.874      3306.4343     -17463.439      1.0424418    
   1398000   289.28534      268.9145       53991.858     -20851.367      3236.2294     -17615.137      1.0565937    
   1399000   299.05529      586.20199      54450.509     -20896.15       3345.5256     -17550.625      1.0476938    
   1400000   304.7895       535.95         54513.244     -20984.361      3409.6741     -17574.687      1.046488     
   1401000   301.83139      490.85202      54191.885     -20827.975      3376.5817     -17451.393      1.0526937    
   1402000   291.41885     -438.77541      54818.15      -20759.513      3260.0969     -17499.416      1.0406673    
   1403000   298.10016     -136.14433      54547.841     -20888.574      3334.8406     -17553.733      1.0458243    
   1404000   299.78965     -233.80036      55335.948     -20881.998      3353.7409     -17528.257      1.0309294    
   1405000   298.26574     -31.725484      55173.049     -20897.966      3336.6929     -17561.273      1.0339733    
   1406000   305.28257     -544.2165       55312.516     -20834.965      3415.19       -17419.775      1.0313662    
   1407000   302.51288      135.33143      54479.088     -20946.439      3384.2055     -17562.233      1.0471441    
   1408000   298.75288      610.97369      54497.699     -20863.718      3342.1426     -17521.576      1.0467865    
   1409000   295.51323      230.56567      54670.863     -20892.935      3305.9006     -17587.034      1.043471     
   1410000   301.5532      -788.1593       54730.969     -20938.79       3373.4697     -17565.32       1.042325     
   1411000   300.54932      340.83821      55066.652     -20775.648      3362.2393     -17413.409      1.0359711    
   1412000   303.30856     -88.906123      54758.063     -20706.85       3393.1069     -17313.744      1.0418093    
   1413000   302.93693      630.85085      54729.553     -20848.745      3388.9495     -17459.796      1.042352     
   1414000   298.92459      619.82859      54766.491     -21000.879      3344.0635     -17656.815      1.0416489    
   1415000   300.65775     -160.21397      54973.45      -20834.05       3363.4522     -17470.597      1.0377274    
   1416000   295.34954      380.51209      55056.131     -20986.485      3304.0694     -17682.416      1.036169     
   1417000   299.18354      430.72658      54919.481     -20918.654      3346.9604     -17571.694      1.0387472    
   1418000   294.86085      94.898343      54664.277     -20977.709      3298.6025     -17679.106      1.0435967    
   1419000   303.42239     -387.37916      54976.708     -20838.732      3394.3803     -17444.352      1.0376659    
   1420000   303.37978      1006.6682      54685.549     -20972.652      3393.9035     -17578.749      1.0431907    
   1421000   300.77326      437.45431      54679.542     -20938.441      3364.7444     -17573.696      1.0433053    
   1422000   298.74446     -392.23109      54471.49      -20861.491      3342.0483     -17519.443      1.0472902    
   1423000   302.46645     -711.11075      54636.128     -20828.362      3383.6862     -17444.675      1.0441343    
   1424000   296.28778     -199.7157       54594.615     -20909.243      3314.5655     -17594.677      1.0449283    
   1425000   297.81416      93.448795      54706.006     -20901.271      3331.641      -17569.63       1.0428006    
   1426000   297.44994     -92.435993      54931.415     -20786.094      3327.5665     -17458.528      1.0385215    
   1427000   298.38514      1.5401229      55298.294     -20836.36       3338.0286     -17498.332      1.0316314    
   1428000   300.17978      203.4487       54417.911     -20975.107      3358.1052     -17617.002      1.0483213    
   1429000   308.28549      43.355696      54269.393     -20942.935      3448.7837     -17494.151      1.0511903    
   1430000   303.57297      307.77676      54375.383     -20890.63       3396.0648     -17494.565      1.0491413    
   1431000   302.49764     -949.27631      55023.641     -20992.455      3384.035      -17608.42       1.0367808    
   1432000   303.14667     -763.99969      54948.226     -20847.798      3391.2958     -17456.502      1.0382038    
   1433000   297.82013     -862.90577      54849.345     -20850.555      3331.7079     -17518.847      1.0400755    
   1434000   306.13057      38.483656      54893.021     -20862.797      3424.6766     -17438.12       1.0392479    
   1435000   297.51929     -287.26137      54770.772     -20738.555      3328.3424     -17410.213      1.0415675    
   1436000   301.06914      688.25298      54344.806     -20807.012      3368.0545     -17438.958      1.0497315    
   1437000   296.84855      1241.0692      54517.389     -20914.477      3320.8388     -17593.638      1.0464085    
   1438000   301.66659      75.313189      54331.316     -20893.295      3374.7382     -17518.557      1.0499922    
   1439000   303.33317     -172.97367      54203.357     -20904.386      3393.3822     -17511.004      1.0524709    
   1440000   296.8373       561.65816      53867.623     -20830.822      3320.713      -17510.109      1.0590305    
   1441000   297.08067      997.80979      54630.208     -20832.156      3323.4356     -17508.721      1.0442475    
   1442000   308.28542     -76.685248      54999.443     -20788.758      3448.7829     -17339.975      1.037237     
   1443000   300.55282     -671.0657       54560.825     -20756.583      3362.2784     -17394.304      1.0455754    
   1444000   293.46007     -211.59222      54076.867     -20816.665      3282.9319     -17533.733      1.0549328    
   1445000   300.04075     -154.52564      54913.94      -20775.081      3356.55       -17418.531      1.038852     
   1446000   302.08067      896.98578      54450.467     -20855.733      3379.3705     -17476.363      1.0476945    
   1447000   300.59288      742.75569      54057.445     -20982.719      3362.7266     -17619.992      1.0553118    
   1448000   299.39695     -678.05719      54050.15      -20903.668      3349.3477     -17554.32       1.0554542    
   1449000   302.36329      243.81759      54544.357     -20836.898      3382.5322     -17454.366      1.0458911    
   1450000   302.21722      55.812183      54388.463     -20899.608      3380.8981     -17518.71       1.0488889    
   1451000   305.19908      18.496804      54909.546     -20867.537      3414.2561     -17453.281      1.0389352    
   1452000   299.93224      68.433993      54636.153     -20790.62       3355.336      -17435.284      1.0441339    
   1453000   304.25167      265.3738       54921.237     -20891.552      3403.6574     -17487.894      1.038714     
   1454000   300.34623      245.3766       54385.902     -20853.172      3359.9673     -17493.204      1.0489383    
   1455000   305.19666      124.63494      54474.861     -20823.158      3414.229      -17408.929      1.0472254    
   1456000   299.23181     -93.796756      54412.201     -20825.559      3347.5003     -17478.059      1.0484314    
   1457000   299.00334     -534.22233      54585.578     -20764.424      3344.9445     -17419.479      1.0451013    
   1458000   304.65151     -80.696173      54249.785     -20896.236      3408.1304     -17488.105      1.0515702    
   1459000   302.05733     -292.56564      54470.304     -20780.753      3379.1093     -17401.644      1.047313     
   1460000   302.78144     -423.15603      54270.029     -20825.744      3387.21       -17438.534      1.0511779    
   1461000   307.01689      387.34875      54806.985     -20782.835      3434.5918     -17348.243      1.0408793    
   1462000   292.21624     -208.8045       54160.219     -20887.584      3269.0172     -17618.567      1.0533092    
   1463000   297.64109     -357.47639      54300.859     -20763.563      3329.705      -17433.858      1.0505811    
   1464000   291.2755      -85.131307      54635.612     -20834.052      3258.4932     -17575.559      1.0441442    
   1465000   299.14624      450.1427       54671.633     -20965.314      3346.5431     -17618.771      1.0434563    
   1466000   301.34837     -419.92471      54891.858     -20957.5        3371.1782     -17586.322      1.0392699    
   1467000   300.45014     -245.39074      54547.808     -20905.219      3361.1297     -17544.089      1.0458249    
   1468000   298.66405      109.47035      54339.991     -20793.169      3341.1488     -17452.021      1.0498246    
   1469000   304.33175      531.65335      54814.399     -20781.522      3404.5533     -17376.969      1.0407385    
   1470000   292.15783      112.35428      55189.859     -20823.005      3268.3638     -17554.641      1.0336583    
   1471000   297.88813      146.94568      54573.69      -21005.034      3332.4686     -17672.565      1.0453289    
   1472000   298.15613      541.40238      54761.263     -20912.216      3335.4667     -17576.749      1.0417484    
   1473000   300.06751      469.67237      54438.655     -20991.188      3356.8493     -17634.339      1.0479219    
   1474000   297.84137      122.96047      54985.205     -20803.647      3331.9455     -17471.701      1.0375056    
   1475000   290.00959     -750.83763      54729.083     -20895.366      3244.3316     -17651.035      1.0423609    
   1476000   299.52005      564.97259      54503.026     -20849.581      3350.7248     -17498.856      1.0466842    
   1477000   296.75877     -400.73454      54799.229     -20841.77       3319.8345     -17521.936      1.0410266    
   1478000   305.16667      726.25322      54753.18      -20910.629      3413.8935     -17496.735      1.0419022    
   1479000   303.00523      147.33592      55018.819     -20792.836      3389.7135     -17403.122      1.0368717    
   1480000   298.92269     -344.90225      54710.074     -20904.615      3344.0422     -17560.573      1.0427231    
   1481000   297.60425      340.08621      54466.276     -20865.172      3329.2928     -17535.879      1.0473904    
   1482000   297.34892      763.00574      54675.991     -20934.49       3326.4365     -17608.053      1.0433731    
   1483000   302.36099     -20.700873      54933.059     -20861.005      3382.5063     -17478.499      1.0384905    
   1484000   296.89507      85.456266      54594.706     -20900.898      3321.3593     -17579.539      1.0449266    
   1485000   293.40803      63.160331      54983.201     -20840.365      3282.3498     -17558.015      1.0375434    
   1486000   297.66266      514.98024      54646.969     -20864.144      3329.9463     -17534.197      1.0439272    
   1487000   307.06781     -110.17921      54468.793     -20747.331      3435.1615     -17312.17       1.0473421    
   1488000   298.28842      68.14804       54703.245     -20869.703      3336.9466     -17532.756      1.0428533    
   1489000   297.52894     -67.51095       54421.055     -20936.139      3328.4504     -17607.689      1.0482608    
   1490000   294.87066      34.070565      54278.436     -20838.367      3298.7123     -17539.655      1.0510151    
   1491000   296.903       -870.35681      54411.409     -20977.629      3321.4479     -17656.181      1.0484466    
   1492000   290.03611     -700.8148       54368.195     -20794.425      3244.6282     -17549.797      1.04928      
   1493000   295.64015     -287.12966      54664.365     -20865.621      3307.3205     -17558.3        1.043595     
   1494000   305.87213     -336.54339      54364.955     -20841.887      3421.7854     -17420.102      1.0493425    
   1495000   301.80115     -652.65656      54744.531     -20864.183      3376.2435     -17487.939      1.0420668    
   1496000   300.7259      -4.4315144      54865.497     -20856.894      3364.2146     -17492.679      1.0397693    
   1497000   296.13413     -205.72108      55002.023     -20937.861      3312.8466     -17625.015      1.0371884    
   1498000   298.51586      234.91139      54468.678     -20948.103      3339.491      -17608.612      1.0473443    
   1499000   301.82404     -70.009532      54535.323     -20821.06       3376.4995     -17444.56       1.0460644    
   1500000   298.44148      188.25141      54407.938     -20807.868      3338.6589     -17469.209      1.0485135    
   1501000   292.97167      62.318069      53928.278     -20799.027      3277.4683     -17521.559      1.0578394    
   1502000   295.95563      558.72257      54767.55      -20863.415      3310.8498     -17552.565      1.0416288    
   1503000   296.19539      741.39084      54464.675     -20994.138      3313.532      -17680.606      1.0474213    
   1504000   298.2058      -941.03867      54864.942     -20855.105      3336.0224     -17519.082      1.0397798    
   1505000   297.73508      24.071115      54514.413     -20791.716      3330.7564     -17460.96       1.0464656    
   1506000   296.68246     -102.03357      54604.572     -20780.885      3318.9808     -17461.904      1.0447378    
   1507000   298.68243      202.65591      54728.431     -20963.342      3341.3544     -17621.987      1.0423733    
   1508000   299.91789      27.107801      54225.169     -20953.746      3355.1755     -17598.57       1.0520476    
   1509000   300.50769      434.45864      54409.117     -20964.534      3361.7735     -17602.76       1.0484908    
   1510000   297.38323     -281.12242      55037.752     -20735.751      3326.8203     -17408.93       1.036515     
   1511000   301.88649      9.3729191      54350.256     -20817.661      3377.1982     -17440.463      1.0496263    
   1512000   289.71552      432.87641      54728.29      -20978.337      3241.0417     -17737.296      1.042376     
   1513000   309.26963     -712.29813      54688.483     -20976.646      3459.7932     -17516.853      1.0431348    
   1514000   293.3602      -768.74698      55113.283     -20863.824      3281.8147     -17582.01       1.0350945    
   1515000   299.20686      381.99788      55254.852     -20807.225      3347.2212     -17460.004      1.0324425    
   1516000   296.60164      779.04976      54811.877     -20833.43       3318.0767     -17515.353      1.0407864    
   1517000   296.8999       695.24999      54397.251     -20808.598      3321.4133     -17487.185      1.0487195    
   1518000   296.5448      -1114.8088      54710.681     -20724.376      3317.4408     -17406.935      1.0427115    
   1519000   301.04795     -644.70171      54853.408     -20716.865      3367.8174     -17349.048      1.0399984    
   1520000   301.55108      170.39216      54380.119     -20895.937      3373.4459     -17522.491      1.0490499    
   1521000   296.68955     -545.88502      55305.288     -20947.383      3319.0601     -17628.323      1.031501     
   1522000   303.148        31.293427      54487.875     -20837.895      3391.3106     -17446.584      1.0469753    
   1523000   299.13733     -118.30404      54716.5       -20846.839      3346.4433     -17500.395      1.0426006    
   1524000   295.39516     -101.49167      54327.101     -20899.515      3304.5798     -17594.935      1.0500737    
   1525000   300.3703      -628.94006      54818.514     -20886.592      3360.2365     -17526.356      1.0406604    
   1526000   302.60888     -534.77084      54521.304     -20970.957      3385.2795     -17585.678      1.0463333    
   1527000   299.3295      -457.18332      54694.935     -20903.388      3348.5931     -17554.795      1.0430117    
   1528000   299.32781     -58.419487      54705.809     -20892.211      3348.5742     -17543.636      1.0428044    
   1529000   299.55445     -107.2914       54662.386     -21048.139      3351.1097     -17697.029      1.0436328    
   1530000   303.07212      118.05557      54502.975     -20925.189      3390.4618     -17534.727      1.0466852    
   1531000   301.56535     -165.63308      54899.059     -20817.084      3373.6056     -17443.478      1.0391336    
   1532000   300.92946      219.26422      55073.71      -20726.356      3366.4919     -17359.864      1.0358383    
   1533000   296.06759      214.55602      54480.749     -20843.988      3312.1023     -17531.886      1.0471122    
   1534000   298.66291      25.437234      54686.925     -20838.814      3341.136      -17497.678      1.0431645    
   1535000   300.44109      106.92894      54797.816     -20928.552      3361.0285     -17567.523      1.0410535    
   1536000   297.18591     -546.37539      54654.579     -20768.803      3324.6129     -17444.19       1.0437819    
   1537000   294.50648      672.18187      54367.271     -20908.613      3294.6382     -17613.975      1.0492978    
   1538000   292.05344     -140.64038      54200.87      -20853.163      3267.1961     -17585.967      1.0525192    
   1539000   301.09165      157.60478      54192.819     -20987.685      3368.3064     -17619.379      1.0526756    
   1540000   297.73341     -552.72691      54905.655     -20785.065      3330.7378     -17454.327      1.0390088    
   1541000   298.83106      645.83325      54792.816     -20896.017      3343.0171     -17553          1.0411485    
   1542000   301.48737      158.74659      54376.158     -20785.142      3372.7332     -17412.409      1.0491263    
   1543000   304.59173     -15.010781      54576.345     -21004.487      3407.4617     -17597.025      1.0452781    
   1544000   298.89499      418.58032      55113.831     -20858.479      3343.7323     -17514.747      1.0350842    
   1545000   294.57374      197.02085      54400.639     -20819.695      3295.3906     -17524.304      1.0486542    
   1546000   303.72616     -139.8751       54600.444     -20750.715      3397.7785     -17352.937      1.0448167    
   1547000   295.99241     -445.37765      55129.882     -20954.909      3311.2612     -17643.647      1.0347829    
   1548000   293.33915     -160.74061      54544.054     -20763.858      3281.5792     -17482.279      1.0458969    
   1549000   304.39294     -290.96755      54475.256     -20837.45       3405.2378     -17432.212      1.0472178    
   1550000   298.03602     -672.57601      55042.907     -20871.136      3334.1231     -17537.013      1.036418     
   1551000   299.92107      925.30515      54516.763     -20987.946      3355.211      -17632.735      1.0464205    
   1552000   299.47958      601.30155      54672.728     -20832.281      3350.2721     -17482.009      1.0434354    
   1553000   293.78684     -5.8785137      54510.272     -20794.336      3286.5875     -17507.749      1.0465451    
   1554000   293.87412      39.924735      54367.019     -20776.211      3287.564      -17488.647      1.0493027    
   1555000   299.03214     -177.0802       54499.164     -20800.671      3345.2666     -17455.405      1.0467584    
   1556000   293.58379      460.02124      54500.141     -20944.267      3284.316      -17659.951      1.0467396    
   1557000   298.65476      659.68573      54158.172     -20877.106      3341.0448     -17536.061      1.053349     
   1558000   298.35785      103.78529      54206.888     -20886.693      3337.7233     -17548.97       1.0524024    
   1559000   297.03169      419.69519      54635.137     -20933.065      3322.8876     -17610.178      1.0441533    
   1560000   301.86847      777.69755      54552.753     -20845.064      3376.9966     -17468.068      1.0457301    
   1561000   295.26577     -275.84576      54743.233     -20807.521      3303.1323     -17504.389      1.0420915    
   1562000   298.50039     -475.89633      55135.34      -20829          3339.318      -17489.682      1.0346804    
   1563000   305.19635      135.50359      54510.449     -20892.126      3414.2254     -17477.901      1.0465417    
   1564000   298.66108     -194.64063      54820.391     -20972.789      3341.1155     -17631.674      1.0406248    
   1565000   300.83031     -732.81018      55236.809     -20933.724      3365.3827     -17568.341      1.0327797    
   1566000   297.54935      36.817479      54852.276     -20977.521      3328.6787     -17648.842      1.0400199    
   1567000   295.54895      168.01533      55291.235     -20857.144      3306.3002     -17550.844      1.0317631    
   1568000   309.64572     -292.50437      54767.448     -20804.687      3464.0005     -17340.686      1.0416307    
   1569000   300.90618      55.101095      55246.049     -20809.524      3366.2314     -17443.293      1.032607     
   1570000   296.90569      236.34571      54690.129     -20959.241      3321.478      -17637.763      1.0431034    
   1571000   304.88801      254.90721      55021.426     -20754.066      3410.7761     -17343.29       1.0368226    
   1572000   301.46597      137.8589       54874.88      -20726.097      3372.4938     -17353.603      1.0395915    
   1573000   310.45437      480.19993      54109.576     -20756.015      3473.0469     -17282.968      1.054295     
   1574000   305.09701      33.902489      54771.243     -20670.457      3413.1141     -17257.343      1.0415586    
   1575000   299.01549      670.00861      54797.036     -20855.243      3345.0804     -17510.162      1.0410683    
   1576000   301.129       -169.37735      55433.671     -20885.38       3368.7241     -17516.656      1.029112     
   1577000   296.22511     -1497.1388      54865.701     -20880.406      3313.8645     -17566.541      1.0397654    
   1578000   298.1062       444.6957       54826.242     -20885.18       3334.9082     -17550.272      1.0405137    
   1579000   299.73266      76.280556      54771.566     -20989.466      3353.1034     -17636.362      1.0415524    
   1580000   295.78415     -13.408419      53999.288     -20912.648      3308.9315     -17603.717      1.0564483    
   1581000   300.39418      603.41627      54473.711     -20887.321      3360.5037     -17526.818      1.0472475    
   1582000   301.20842     -248.12461      54994.76      -20877.536      3369.6126     -17507.924      1.0373253    
   1583000   305.42608     -256.37614      54868.342     -20788.353      3416.7955     -17371.558      1.0397154    
   1584000   294.20152      347.96701      54546.107     -20884.377      3291.2265     -17593.151      1.0458575    
   1585000   300.92262     -707.60351      54572.415     -20809.015      3366.4153     -17442.599      1.0453534    
   1586000   304.54788     -16.054705      54770.153     -20770.76       3406.9711     -17363.789      1.0415793    
   1587000   301.38641     -90.69277       54457.34      -20882.411      3371.6038     -17510.807      1.0475623    
   1588000   303.89273     -43.883362      54424.474     -20873.835      3399.642      -17474.193      1.0481949    
   1589000   299.68391     -516.35767      54892.262     -20873.121      3352.5579     -17520.563      1.0392623    
   1590000   298.1224      -259.77829      54496.964     -20876.537      3335.0894     -17541.448      1.0468007    
   1591000   300.98741      1086.2541      54368.388     -20899.171      3367.1402     -17532.031      1.0492762    
   1592000   301.08888     -407.62519      54830.6       -20920.801      3368.2753     -17552.526      1.040431     
   1593000   301.58203      725.34885      54041.474     -20827.575      3373.7921     -17453.783      1.0556236    
   1594000   304.00435      160.3674       54318.205     -20712.056      3400.8906     -17311.165      1.0502456    
   1595000   300.56371      1002.2794      54735.905     -20837.956      3362.4002     -17475.556      1.042231     
   1596000   297.70185     -81.551415      54585.514     -20956.032      3330.3847     -17625.647      1.0451025    
   1597000   304.52209     -1147.0756      54873.471     -20844.347      3406.6826     -17437.664      1.0396182    
   1598000   291.87742     -437.7762       54558.431     -20894.132      3265.2269     -17628.905      1.0456213    
   1599000   296.24836     -497.25273      54794.943     -20842.452      3314.1245     -17528.327      1.0411081    
   1600000   296.64539     -196.10434      54697.777     -20769.558      3318.5661     -17450.992      1.0429575    
   1601000   301.78356     -272.70556      55114.877     -20803.286      3376.0467     -17427.24       1.0350646    
   1602000   298.37048      38.309772      55083.498     -20771.196      3337.8646     -17433.332      1.0356542    
   1603000   304.2342      -139.47439      54640.789     -20905.713      3403.462      -17502.251      1.0440453    
   1604000   296.35968     -267.42611      54253.752     -20956.703      3315.3698     -17641.333      1.0514933    
   1605000   301.266        157.73369      54101.191     -20870.48       3370.2567     -17500.223      1.0544585    
   1606000   299.61416      583.46212      54285.322     -20937.936      3351.7777     -17586.159      1.0508818    
   1607000   305.89608      342.16034      54386.259     -20820.851      3422.0534     -17398.797      1.0489314    
   1608000   301.03666      621.40392      54361.625     -20664.498      3367.6911     -17296.807      1.0494068    
   1609000   298.53061     -579.17892      54865.65      -20922.622      3339.656      -17582.967      1.0397664    
   1610000   302.0101      -648.30234      54888.578     -20942.485      3378.581      -17563.904      1.039332     
   1611000   295.5634      -82.995521      55021.217     -20910.502      3306.4619     -17604.04       1.0368265    
   1612000   301.31504     -117.46385      54537.182     -20871.766      3370.8054     -17500.96       1.0460287    
   1613000   294.74253     -413.56083      54811.832     -20868.226      3297.2788     -17570.948      1.0407873    
   1614000   295.00801     -92.993054      54680.887     -20896.927      3300.2488     -17596.679      1.0432797    
   1615000   302.64233     -186.08178      54752.376     -20939.973      3385.6537     -17554.32       1.0419175    
   1616000   303.35235      285.82185      55002.109     -20895.292      3393.5967     -17501.695      1.0371867    
   1617000   297.0209      -412.73021      54470.201     -20986.676      3322.7669     -17663.909      1.047315     
   1618000   302.17185     -326.57583      54835.701     -20949.871      3380.3905     -17569.48       1.0403342    
   1619000   297.4555      -152.56898      55146.186     -20865.859      3327.6287     -17538.23       1.0344769    
   1620000   301.77673     -351.45266      54673.031     -20906.984      3375.9703     -17531.014      1.0434296    
   1621000   300.32497      892.58771      54162.588     -20854.856      3359.7295     -17495.126      1.0532631    
   1622000   298.2395      -585.22906      54574.491     -20883.604      3336.3994     -17547.204      1.0453136    
   1623000   299.99269     -38.03691       54758.032     -20992.918      3356.0123     -17636.906      1.0418099    
   1624000   302.00497     -89.687046      54396.293     -20828.529      3378.5236     -17450.005      1.048738     
   1625000   304.45464     -344.42072      54141.004     -20918.1        3405.928      -17512.172      1.053683     
   1626000   302.34495      111.04617      54472.822     -20784.869      3382.3269     -17402.542      1.0472646    
   1627000   304.88301      410.42341      54572.953     -20958.69       3410.7201     -17547.97       1.0453431    
   1628000   298.831        75.41379       54613.939     -20785.549      3343.0165     -17442.533      1.0445586    
   1629000   302.93468     -630.71714      55058.95      -20877.759      3388.9242     -17488.835      1.036116     
   1630000   307.03718      522.0693       55132.385     -20722.917      3434.8188     -17288.098      1.0347359    
   1631000   306.59864      73.591422      54699.14      -20828.133      3429.9129     -17398.22       1.0429315    
   1632000   296.49886     -64.490011      54292.522     -20728.268      3316.9269     -17411.341      1.0507424    
   1633000   291.12735      379.25667      54650.763     -20921.485      3256.8359     -17664.649      1.0438547    
   1634000   303.49695      582.84208      54720.086     -20819.937      3395.2143     -17424.723      1.0425323    
   1635000   304.01935      325.79653      54934.723     -20833.681      3401.0584     -17432.623      1.038459     
   1636000   298.46022     -154.38516      54919.969     -20871.899      3338.8685     -17533.03       1.038738     
   1637000   301.00204     -231.27895      54903.979     -20881.214      3367.3038     -17513.91       1.0390405    
   1638000   303.88347     -455.15953      54722.497     -20759.35       3399.5383     -17359.812      1.0424864    
   1639000   303.22706      933.87595      53818.839     -20942.823      3392.1951     -17550.628      1.0599905    
   1640000   306.55033     -130.0572       54785.027     -20860.958      3429.3725     -17431.586      1.0412965    
   1641000   300.39218      483.95872      54287.698     -20956.209      3360.4813     -17595.728      1.0508358    
   1642000   294.78064     -20.188938      54508.583     -20886.946      3297.7051     -17589.241      1.0465775    
   1643000   308.33112      281.739        54516.157     -20814.052      3449.2941     -17364.758      1.0464321    
   1644000   301.26452      12.346534      54181.631     -20851.047      3370.2402     -17480.807      1.052893     
   1645000   301.0614       502.48931      54788.713     -20877.633      3367.9679     -17509.666      1.0412264    
   1646000   296.25896      854.21094      54448.763     -20882.279      3314.2431     -17568.036      1.0477273    
   1647000   305.90025      28.165284      54135.451     -20900.242      3422.1        -17478.142      1.0537911    
   1648000   290.64168     -432.18816      55113.607     -20827.166      3251.4027     -17575.764      1.0350884    
   1649000   298.31902      427.88549      54532.929     -20762.163      3337.289      -17424.874      1.0461103    
   1650000   298.23023      121.57288      54716.625     -20841.087      3336.2956     -17504.791      1.0425983    
   1651000   301.69297      12.741325      54500.031     -20881.579      3375.0332     -17506.546      1.0467417    
   1652000   303.61684      287.03789      54139.618     -20947.898      3396.5556     -17551.342      1.05371      
   1653000   294.09921      99.192426      54789.31      -20796.459      3290.082      -17506.377      1.0412151    
   1654000   304.05511     -225.56103      54800.256     -20922.903      3401.4585     -17521.445      1.0410071    
   1655000   295.31771     -702.79703      54700.492     -20737.831      3303.7134     -17434.118      1.0429058    
   1656000   291.05928     -416.56556      54461.114     -20857.783      3256.0744     -17601.708      1.0474897    
   1657000   302.0724      -256.63275      54606.351     -20708.913      3379.2779     -17329.635      1.0447037    
   1658000   296.66158      307.73204      54861.705     -20869.84       3318.7472     -17551.092      1.0398411    
   1659000   291.01097     -192.82428      54230.034     -20959.618      3255.534      -17704.084      1.0519532    
   1660000   298.60543      725.76728      54027.996     -20803.806      3340.493      -17463.313      1.055887     
   1661000   293.36257     -52.448125      54808.4       -20857.454      3281.8412     -17575.613      1.0408525    
   1662000   290.26056     -431.82198      54637.983     -20698.777      3247.1392     -17451.638      1.0440989    
   1663000   302.0714      -362.11859      53899.004     -20768.694      3379.2667     -17389.427      1.058414     
   1664000   293.17669      598.47736      54279.738     -20937.952      3279.7618     -17658.19       1.0509899    
   1665000   302.72994     -346.37211      54689.406     -20911.386      3386.6338     -17524.752      1.0431171    
   1666000   300.57543     -584.17929      54378.068     -20794.774      3362.5313     -17432.243      1.0490894    
   1667000   304.85718      276.61882      54805.2       -21016.356      3410.4313     -17605.925      1.0409132    
   1668000   302.06939      641.82616      54320.141     -20796.721      3379.2443     -17417.477      1.0502082    
   1669000   299.09539     -668.96917      54504.966     -20864.081      3345.9742     -17518.106      1.046647     
   1670000   301.0416      -99.350235      55363.148     -20857.044      3367.7464     -17489.298      1.0304229    
   1671000   299.37208      366.98841      54705.016     -20905.372      3349.0696     -17556.302      1.0428195    
   1672000   291.4639      -312.23266      55184.303     -20730.873      3260.6008     -17470.272      1.0337624    
   1673000   307.91589     -292.14196      54808.038     -20939.813      3444.6489     -17495.164      1.0408593    
   1674000   299.63802      349.34712      54753.173     -20909.129      3352.0446     -17557.085      1.0419023    
   1675000   291.44835      869.15312      53924.673     -20888.763      3260.4269     -17628.336      1.0579101    
   1676000   300.77428     -762.63699      54309.154     -20759.854      3364.7558     -17395.098      1.0504207    
   1677000   295.61947     -643.12264      54562.746     -20806.088      3307.0891     -17498.999      1.0455386    
   1678000   302.58106     -122.51323      54575.918     -20849.068      3384.9683     -17464.099      1.0452863    
   1679000   300.80161     -419.66801      54614.166     -20779.32       3365.0616     -17414.258      1.0445542    
   1680000   297.82957     -452.88681      54628.575     -20771.38       3331.8134     -17439.566      1.0442787    
   1681000   302.66751      760.58256      54723.653     -20817.764      3385.9355     -17431.828      1.0424644    
   1682000   308.15961     -283.63761      54505.65      -20886.221      3447.3754     -17438.845      1.0466338    
   1683000   298.48821      204.80507      54618.516     -20947.157      3339.1816     -17607.975      1.044471     
   1684000   302.65952      130.11445      54819.569     -20885.473      3385.846      -17499.627      1.0406404    
   1685000   301.97983      405.71514      54514.868     -20758.131      3378.2424     -17379.889      1.0464569    
   1686000   305.07629     -159.94633      54268.37      -20926.131      3412.8824     -17513.248      1.0512101    
   1687000   296.1131       595.14669      54755.632     -20834.808      3312.6113     -17522.197      1.0418555    
   1688000   307.6298       124.65607      54618.97      -20809.285      3441.4484     -17367.837      1.0444624    
   1689000   297.20848      331.89004      54498.919     -20920.441      3324.8654     -17595.575      1.0467631    
   1690000   302.73503     -214.53788      54610.259     -21026.789      3386.6907     -17640.098      1.0446289    
   1691000   296.20704     -273.10208      55272.626     -20915.647      3313.6622     -17601.985      1.0321105    
   1692000   298.18283     -253.24639      54601.548     -20732.078      3335.7654     -17396.313      1.0447956    
   1693000   304.61694     -0.45282804     54744.84      -20755.184      3407.7436     -17347.44       1.0420609    
   1694000   296.16445      434.41094      54719.317     -20838.952      3313.1858     -17525.766      1.042547     
   1695000   302.24         780.59717      54398.76      -20788.799      3381.1528     -17407.646      1.0486904    
   1696000   302.77922      326.06149      54391.013     -20795.98       3387.1851     -17408.795      1.0488398    
   1697000   293.50098     -691.13511      54152.739     -20834.509      3283.3896     -17551.12       1.0534547    
   1698000   307.13433      575.33837      54424.846     -20877.05       3435.9056     -17441.145      1.0481878    
   1699000   303.12447      432.09622      54568.421     -20856.17       3391.0474     -17465.122      1.0454299    
   1700000   295.35196     -605.95439      54937.569     -20889.891      3304.0965     -17585.794      1.0384052    
   1701000   294.2751      -111.98032      54895.625     -20803.11       3292.0497     -17511.06       1.0391986    
   1702000   298.07956     -887.49995      54540.273     -20917.177      3334.6101     -17582.567      1.0459694    
   1703000   296.7088      -580.41157      54861.529     -20964.985      3319.2754     -17645.71       1.0398445    
   1704000   294.61051      80.702094      54974.702     -20817.08       3295.8019     -17521.278      1.0377038    
   1705000   302.29708     -554.1          54518.166     -20920.251      3381.7914     -17538.459      1.0463935    
   1706000   297.58786     -450.62091      54151.452     -20832.429      3329.1095     -17503.32       1.0534797    
   1707000   297.22501      565.03425      54353.913     -20825.42       3325.0503     -17500.369      1.0495557    
   1708000   298.2669       425.32305      55109.246     -20876.647      3336.7058     -17539.941      1.0351703    
   1709000   300.19156     -720.57578      54886.483     -20802.34       3358.237      -17444.103      1.0393717    
   1710000   300.30235      275.63506      54609.068     -20757.539      3359.4764     -17398.063      1.0446517    
   1711000   298.63588     -349.63855      54480.028     -20874.978      3340.8336     -17534.144      1.0471261    
   1712000   305.85843     -61.755574      54533.969     -20876.302      3421.6322     -17454.67       1.0460903    
   1713000   295.66467      386.88898      54471.193     -20982.217      3307.5947     -17674.622      1.0472959    
   1714000   304.34715      97.945296      54570.235     -20869.476      3404.7256     -17464.75       1.0453951    
   1715000   295.93674     -901.96547      54709.925     -20887.921      3310.6384     -17577.283      1.0427259    
   1716000   298.03681      105.71909      54300.292     -20892.45       3334.1318     -17558.318      1.0505921    
   1717000   304.01552      397.42621      54489.343     -20819.68       3401.0155     -17418.664      1.0469471    
   1718000   299.65034      218.54799      54579.174     -20799.36       3352.1824     -17447.177      1.0452239    
   1719000   293.0327      -186.17536      54843.493     -20857.945      3278.151      -17579.794      1.0401864    
   1720000   300.32442     -78.667001      54667.351     -20871.093      3359.7233     -17511.37       1.043538     
   1721000   301.12467      430.46273      54680.731     -20882.027      3368.6757     -17513.352      1.0432827    
   1722000   299.65082      137.62854      54458.923     -20820.909      3352.1878     -17468.721      1.0475319    
   1723000   297.4728      -29.104423      54747.055     -20738.893      3327.8222     -17411.071      1.0420187    
   1724000   297.17869     -806.81861      54886.847     -20859.854      3324.5321     -17535.322      1.0393648    
   1725000   295.82849     -127.15514      54660.322     -20953.321      3309.4274     -17643.894      1.0436722    
   1726000   296.45785      239.55804      54326.037     -20858.923      3316.468      -17542.455      1.0500942    
   1727000   299.88165      162.84007      54989.541     -20744.561      3354.77       -17389.791      1.0374238    
   1728000   296.23727     -432.28594      55010.257     -20849.734      3314.0005     -17535.734      1.0370331    
   1729000   296.82908     -157.93694      55134.509     -20899.308      3320.621      -17578.687      1.034696     
   1730000   298.57566      439.84781      54181.746     -20890.934      3340.1599     -17550.774      1.0528907    
   1731000   297.25184      33.467518      53958.132     -20785.17       3325.3504     -17459.82       1.0572541    
   1732000   300.63354     -546.46672      54436.215     -20877.077      3363.1814     -17513.895      1.0479688    
   1733000   304.23676      309.61024      54518.314     -20860.195      3403.4906     -17456.705      1.0463907    
   1734000   295.64944     -883.23984      55285.507     -20897.081      3307.4245     -17589.657      1.03187      
   1735000   301.37526     -49.98412       54461.316     -20784.948      3371.479      -17413.469      1.0474858    
   1736000   302.17838      1181.5585      54726.855     -20834.051      3380.4635     -17453.587      1.0424034    
   1737000   303.41604     -427.59905      54767.816     -20862.44       3394.3092     -17468.131      1.0416237    
   1738000   295.79188      616.28108      54345.513     -20816.329      3309.0179     -17507.311      1.0497179    
   1739000   306.52873      437.48606      54308.413     -20832.868      3429.1308     -17403.737      1.050435     
   1740000   295.56968      295.48237      54773.154     -20752.911      3306.5322     -17446.378      1.0415222    
   1741000   301.42915      594.66015      54618.721     -20802.339      3372.0819     -17430.257      1.0444671    
   1742000   308.21485     -842.10559      54730.712     -20821.292      3447.9934     -17373.298      1.0423299    
   1743000   299.16238      217.17361      54250.244     -20781.582      3346.7236     -17434.858      1.0515613    
   1744000   300.01458     -128.26594      54851.485     -20705.823      3356.2571     -17349.566      1.0400349    
   1745000   299.91824     -396.11849      54872.571     -20831.57       3355.1794     -17476.391      1.0396352    
   1746000   283.46818     -695.3422       55113.411     -20984.156      3171.1529     -17813.003      1.0350921    
   1747000   305.16023      513.21254      54351.74      -20770.442      3413.8215     -17356.62       1.0495976    
   1748000   302.1978       554.72607      54013.471     -20834.57       3380.6808     -17453.889      1.0561709    
   1749000   306.53609     -436.47183      54792.49      -20865.54       3429.2131     -17436.327      1.0411547    
   1750000   299.44426     -471.13476      54759.849     -20872.89       3349.8769     -17523.013      1.0417753    
   1751000   304.21953      537.80913      54335.932     -20857.121      3403.2978     -17453.823      1.049903     
   1752000   296.12178     -252.44072      55005.864     -20878.035      3312.7084     -17565.327      1.0371159    
   1753000   302.63683     -83.020843      55080.443     -20856.186      3385.5922     -17470.594      1.0357117    
   1754000   304.04864     -76.858876      54527.998     -20858.214      3401.3861     -17456.828      1.0462049    
   1755000   300.81275      147.18317      54493.805     -20869.233      3365.1862     -17504.047      1.0468613    
   1756000   296.64241      212.71402      54798.454     -21014.125      3318.5328     -17695.592      1.0410414    
   1757000   297.9056      -61.97292       54716.952     -20703.077      3332.664      -17370.413      1.042592     
   1758000   301.55645     -90.806618      54529.111     -20976.976      3373.506      -17603.47       1.0461835    
   1759000   301.65733     -329.27915      54892.312     -20881.17       3374.6345     -17506.535      1.0392613    
   1760000   301.18019      124.29257      54703.654     -20800.911      3369.2968     -17431.614      1.0428455    
   1761000   300.41316      148.60098      54385.629     -20842.333      3360.716      -17481.617      1.0489436    
   1762000   303.234       -449.68604      55184.423     -20884.82       3392.2728     -17492.547      1.0337601    
   1763000   304.92273      954.42453      55216.427     -20861.059      3411.1645     -17449.895      1.033161     
   1764000   307.62705     -157.37887      54673.732     -20849.916      3441.4177     -17408.498      1.0434162    
   1765000   292.22934     -146.64697      55090.186     -20900.928      3269.1638     -17631.764      1.0355285    
   1766000   299.85863      23.178488      54613.507     -20973.382      3354.5125     -17618.87       1.0445668    
   1767000   305.80725      229.25242      54882.096     -20918.401      3421.0596     -17497.341      1.0394548    
   1768000   300.02647     -81.794381      54046.739     -20914.959      3356.3902     -17558.568      1.0555208    
   1769000   298.82705      498.26981      54624.753     -20901.388      3342.9722     -17558.415      1.0443518    
   1770000   295.31923      97.354845      54623.326     -20905.426      3303.7303     -17601.696      1.044379     
   1771000   298.98312     -344.67974      54359.596     -20818.215      3344.7182     -17473.497      1.049446     
   1772000   303.62429     -115.71281      54936.279     -20899.647      3396.6389     -17503.008      1.0384296    
   1773000   296.30094     -259.85619      55009.783     -20814.313      3314.7127     -17499.601      1.037042     
   1774000   304.32799     -162.43974      54614.322     -20845.694      3404.5112     -17441.183      1.0445512    
   1775000   295.25049     -148.67655      54790.562     -20820.424      3302.9613     -17517.463      1.0411913    
   1776000   306.34529      249.98114      54151.633     -20919.208      3427.0786     -17492.129      1.0534762    
   1777000   303.59839     -752.66106      55133.478     -20845.275      3396.3491     -17448.926      1.0347154    
   1778000   293.51269     -42.285194      54802.696     -20757.243      3283.5207     -17473.722      1.0409608    
   1779000   299.08312     -150.16306      54843.889     -20800.593      3345.8369     -17454.756      1.0401789    
   1780000   305.11161     -758.01609      54877.653     -20846.279      3413.2775     -17433.001      1.0395389    
   1781000   296.64145     -268.22021      54094.773     -20906.988      3318.5221     -17588.466      1.0545835    
   1782000   298.4272       374.09327      54772.95      -20841.414      3338.4991     -17502.915      1.0415261    
   1783000   308.68812      87.658273      54360.593     -20741.29       3453.2879     -17288.002      1.0494267    
   1784000   298.97517      535.21095      54177.762     -20731.549      3344.6293     -17386.92       1.0529681    
   1785000   296.01626      152.84949      54855.177     -20886.793      3311.5281     -17575.265      1.0399649    
   1786000   303.30316     -483.12872      54337.713     -20853.599      3393.0464     -17460.552      1.0498686    
   1787000   294.63247     -48.890409      54491.891     -20869.26       3296.0476     -17573.213      1.0468981    
   1788000   304.94791     -6.3578365      54285.577     -20794.069      3411.4462     -17382.623      1.0508769    
   1789000   293.88709     -120.49552      54769.469     -20855.227      3287.7091     -17567.518      1.0415923    
   1790000   296.25061     -45.705623      54933.85      -20757.578      3314.1497     -17443.428      1.0384755    
   1791000   295.63804      8.2139534      54282.493     -20948.724      3307.2969     -17641.427      1.0509366    
   1792000   302.82737      800.37778      54753.673     -20889.101      3387.7238     -17501.377      1.0418928    
   1793000   297.99878     -49.907693      54889.323     -20801.03       3333.7064     -17467.323      1.0393179    
   1794000   309.92951      229.81057      54599.472     -20874.224      3467.1752     -17407.049      1.0448353    
   1795000   303.21199      202.98912      54564.915     -20894.898      3392.0265     -17502.871      1.0454971    
   1796000   303.13769      452.68545      54575.241     -20816.115      3391.1953     -17424.92       1.0452992    
   1797000   298.89577     -74.786143      54398.259     -20727.279      3343.741      -17383.538      1.0487001    
   1798000   298.02592     -984.17558      54896.318     -20766.049      3334.0101     -17432.039      1.0391855    
   1799000   303.15199      268.15655      54595.045     -20921.278      3391.3553     -17529.923      1.0449201    
   1800000   300.3807      -362.19388      53928.649     -20882.064      3360.3529     -17521.711      1.0578321    
   1801000   298.14437      1013.0044      54289.324     -20863.286      3335.3352     -17527.951      1.0508044    
   1802000   300.04684      233.87272      54324.075     -20849.887      3356.618      -17493.269      1.0501322    
   1803000   300.58057     -451.40901      54961.14      -20835.019      3362.5888     -17472.43       1.0379599    
   1804000   299.71481      142.99074      54503.863     -20872.416      3352.9036     -17519.513      1.0466682    
   1805000   298.76858      24.560307      54230.703     -20838.078      3342.3182     -17495.76       1.0519402    
   1806000   292.64441     -156.83269      54772.102     -20825.497      3273.8071     -17551.689      1.0415422    
   1807000   297.64264     -629.2234       54499.561     -20707.565      3329.7223     -17377.843      1.0467508    
   1808000   295.85736      332.46886      54416.736     -20867.451      3309.7504     -17557.7        1.048344     
   1809000   301.58696     -370.5468       54612.516     -20878.117      3373.8474     -17504.27       1.0445858    
   1810000   298.91791     -218.24666      54392.171     -20904.593      3343.9887     -17560.604      1.0488174    
   1811000   299.74374     -0.1348038      54798.128     -20819.247      3353.2273     -17466.02       1.0410476    
   1812000   296.27094      574.30747      54864.762     -20746.819      3314.3771     -17432.442      1.0397832    
   1813000   310.48742     -147.21738      54672.945     -20841.142      3473.4165     -17367.726      1.0434312    
   1814000   304.73848      482.42522      54562.854     -20944.086      3409.1033     -17534.982      1.0455365    
   1815000   296.62581     -174.33474      54727.925     -20840.085      3318.347      -17521.738      1.042383     
   1816000   307.77098      533.26627      54706.058     -20847.749      3443.0279     -17404.721      1.0427996    
   1817000   290.85452     -109.43847      54059.988     -20888.767      3253.7837     -17634.983      1.0552621    
   1818000   304.79385     -880.84034      55461.839     -20834.713      3409.7227     -17424.991      1.0285894    
   1819000   299.38147     -1.1845486      54599.85      -20943.753      3349.1746     -17594.579      1.0448281    
   1820000   300.44583      327.46544      54653.152     -20752.071      3361.0815     -17390.99       1.0438091    
   1821000   301.6672      -259.44734      54898.542     -20802.461      3374.7449     -17427.716      1.0391434    
   1822000   299.68485      3.1386996      54878.366     -20742.348      3352.5685     -17389.78       1.0395254    
   1823000   305.5086      -53.944352      54414.727     -20785.35       3417.7187     -17367.631      1.0483827    
   1824000   301.06586     -20.699953      55070.964     -20768.523      3368.0178     -17400.506      1.0358899    
   1825000   304.48935      133.8315       54380.968     -20858.043      3406.3163     -17451.726      1.0490335    
   1826000   306.19987     -178.32843      54985.474     -20779.086      3425.4518     -17353.634      1.0375005    
   1827000   300.33325     -454.17778      54313.33      -20906.778      3359.8221     -17546.956      1.0503399    
   1828000   301.47815     -52.29179       55391.905     -20781.812      3372.63       -17409.182      1.029888     
   1829000   301.96792      154.82415      54556.195     -20782.784      3378.1092     -17404.675      1.0456642    
   1830000   303.90047     -353.48789      54891.415     -20789.808      3399.7285     -17390.08       1.0392783    
   1831000   300.26135      85.884157      55119.81      -20826.396      3359.0177     -17467.378      1.034972     
   1832000   293.32558     -192.06831      54843.792     -20907.339      3281.4274     -17625.911      1.0401808    
   1833000   301.21137     -159.88594      55542.291     -20869.365      3369.6456     -17499.72       1.0270995    
   1834000   299.49157      489.43789      54933.686     -20953.74       3350.4063     -17603.334      1.0384786    
   1835000   298.29345      959.04076      54953.118     -20839.645      3337.0029     -17502.642      1.0381114    
   1836000   294.52153     -218.81457      53989.165     -20981.071      3294.8065     -17686.264      1.0566464    
   1837000   304.87302     -122.00602      54157.988     -20755.242      3410.6084     -17344.634      1.0533526    
   1838000   297.39361     -717.84902      55041.507     -20793.915      3326.9364     -17466.978      1.0364443    
   1839000   292.91016      486.56425      54729.017     -20818.712      3276.7802     -17541.932      1.0423622    
   1840000   298.55706     -792.91622      54741.604     -20824.636      3339.9519     -17484.684      1.0421225    
   1841000   297.84914     -337.88738      54752.321     -20759.648      3332.0324     -17427.616      1.0419185    
   1842000   302.63013      143.10133      54652.426     -20738.872      3385.5172     -17353.355      1.043823     
   1843000   297.18814      95.427748      54507.368     -20787.514      3324.6378     -17462.876      1.0466008    
   1844000   296.3045       1092.691       54236.253     -20737.304      3314.7526     -17422.551      1.0518326    
   1845000   300.41051     -278.35113      54515.052     -20883.158      3360.6864     -17522.472      1.0464533    
   1846000   297.7587      -327.44093      54372.885     -20858.165      3331.0207     -17527.145      1.0491895    
   1847000   302.01002      125.60124      54037.496     -20893.634      3378.5801     -17515.054      1.0557013    
   1848000   303.09912      125.3615       54730.826     -20727.706      3390.7638     -17336.942      1.0423277    
   1849000   297.12113     -716.84311      54645.509     -20899.063      3323.8882     -17575.174      1.0439551    
   1850000   297.69627     -1427.473       55218.279     -20944.694      3330.3222     -17614.372      1.0331263    
   1851000   301.10102     -433.05584      54846.852     -20988.688      3368.4111     -17620.277      1.0401227    
   1852000   298.80241     -513.38567      55147.18      -20852.469      3342.6966     -17509.772      1.0344583    
   1853000   297.95496     -26.304275      54394.82      -20742.165      3333.2162     -17408.948      1.0487664    
   1854000   300.226       -976.13061      54599.329     -20850.601      3358.6223     -17491.978      1.0448381    
   1855000   303.80682      799.24264      54994.553     -20940.219      3398.6809     -17541.538      1.0373292    
   1856000   300.83834     -47.573883      54761.826     -20817.968      3365.4725     -17452.496      1.0417377    
   1857000   299.46163      436.50996      54481.139     -20817.969      3350.0712     -17467.898      1.0471047    
   1858000   301.06618      634.48418      54833.071     -20733.74       3368.0214     -17365.719      1.0403842    
   1859000   303.97016     -98.48458       54665.658     -20724.089      3400.5082     -17323.581      1.0435703    
   1860000   301.25623     -255.9162       54791.456     -20762.488      3370.1475     -17392.341      1.0411743    
   1861000   297.98049      88.694697      54364.365     -20845.013      3333.5018     -17511.511      1.0493539    
   1862000   297.59129      153.68948      54306.348     -20907.539      3329.1479     -17578.391      1.0504749    
   1863000   297.29828     -361.02202      54547.27      -20795.254      3325.8699     -17469.384      1.0458352    
   1864000   305.32902      418.16437      54165.776     -20902.93       3415.7097     -17487.22       1.0532012    
   1865000   300.40134     -165.53894      55172.882     -20885.166      3360.5838     -17524.582      1.0339764    
   1866000   305.76559      284.44124      54020.317     -20945.52       3420.5936     -17524.926      1.0560371    
   1867000   306.08326     -319.76886      54590.208     -20900.091      3424.1473     -17475.944      1.0450127    
   1868000   291.66071     -286.74747      54758.811     -20819.288      3262.8026     -17556.485      1.041795     
   1869000   299.45803      140.41829      54419.362     -21000.512      3350.0311     -17650.481      1.0482934    
   1870000   300.35511      405.49558      54365.56      -20804.085      3360.0667     -17444.019      1.0493308    
   1871000   301.19248      93.339862      54835.065     -20916.571      3369.4343     -17547.137      1.0403463    
   1872000   305.55941      73.771535      54829.236     -20778.819      3418.287      -17360.532      1.0404569    
   1873000   303.68711      268.93378      54309.195     -20737.941      3397.3417     -17340.599      1.0504199    
   1874000   297.87608      474.96615      54566.358     -20900.598      3332.3338     -17568.264      1.0454694    
   1875000   298.90235      782.6713       55037.611     -20861.904      3343.8146     -17518.089      1.0365177    
   1876000   310.54175     -34.480155      55027.99      -20880.227      3474.0244     -17406.203      1.0366989    
   1877000   294.47167      49.868058      54888.978     -20858.041      3294.2487     -17563.792      1.0393245    
   1878000   297.74878      46.379172      54532.038     -20946.424      3330.9096     -17615.514      1.0461274    
   1879000   297.88468      167.48163      54166.792     -20918.779      3332.43       -17586.349      1.0531814    
   1880000   294.14046      733.08723      54526.056     -20863.501      3290.5435     -17572.957      1.0462421    
   1881000   301.25396      94.810557      54641.15      -20848.332      3370.122      -17478.21       1.0440384    
   1882000   298.04876     -123.46484      54500.731     -20933.493      3334.2655     -17599.228      1.0467283    
   1883000   291.88254     -344.18024      54445.409     -20813.749      3265.2842     -17548.465      1.0477919    
   1884000   298.47069      7.3911649      54767.291     -20744.475      3338.9857     -17405.49       1.0416337    
   1885000   300.07755      103.63219      54208.709     -20880.845      3356.9616     -17523.883      1.052367     
   1886000   302.96783      65.022243      54764.307     -20899.128      3389.295      -17509.833      1.0416905    
   1887000   299.49497      195.80292      54736.526     -20879.227      3350.4443     -17528.783      1.0422192    
   1888000   301.34148     -344.96394      54132.237     -20783.289      3371.1012     -17412.188      1.0538537    
   1889000   304.25648      511.40754      54671.919     -20761.497      3403.7112     -17357.786      1.0434508    
   1890000   302.43053      315.30122      54289.428     -20700.708      3383.2843     -17317.424      1.0508023    
   1891000   297.76078      704.67759      54532.67      -20972.859      3331.0439     -17641.815      1.0461152    
   1892000   297.16917     -428.07034      55165.998     -20843.245      3324.4256     -17518.819      1.0341054    
   1893000   296.60418     -103.72259      54846.019     -20872.278      3318.105      -17554.173      1.0401385    
   1894000   298.25692     -186.33589      55131.483     -20898.388      3336.5942     -17561.793      1.0347528    
   1895000   288.12193      683.19496      54749.111     -20799.645      3223.2143     -17576.43       1.0419796    
   1896000   304.94127     -372.65672      54945.994     -20974.498      3411.3719     -17563.127      1.038246     
   1897000   298.92514      200.44408      54392.765     -20926.116      3344.0696     -17582.046      1.048806     
   1898000   296.17147     -34.086512      54190.798     -20808.055      3313.2643     -17494.79       1.0527148    
   1899000   296.88303     -525.7647       54606.547     -20888.463      3321.2246     -17567.238      1.0447       
   1900000   301.69063     -748.39211      54831.047     -20828.879      3375.0071     -17453.872      1.0404225    
   1901000   300.73049     -603.08513      54429.829     -20953.051      3364.266      -17588.785      1.0480918    
   1902000   306.35786      3.2362905      54447.119     -20893.977      3427.2193     -17466.758      1.047759     
   1903000   306.38338      398.25065      54691.842     -20821.921      3427.5048     -17394.416      1.0430707    
   1904000   301.49004      169.36728      54419.815     -20865.453      3372.7631     -17492.69       1.0482847    
   1905000   306.36044      445.65653      55164.606     -20807.605      3427.2481     -17380.357      1.0341315    
   1906000   296.94124     -339.72313      54963.39      -20890.232      3321.8757     -17568.356      1.0379174    
   1907000   302.57861     -320.7153       54542.643     -20897.793      3384.9409     -17512.852      1.045924     
   1908000   304.4121       372.10796      54821.47      -20911.403      3405.4521     -17505.95       1.0406043    
   1909000   300.67616      98.689859      54853.998     -20937.843      3363.6582     -17574.185      1.0399872    
   1910000   302.30105      444.47908      54813.51      -20845.251      3381.8358     -17463.415      1.0407554    
   1911000   302.63852      93.367803      55170.067     -20882.217      3385.6111     -17496.606      1.0340291    
   1912000   297.34191      280.04856      54803.451     -20951.624      3326.358      -17625.266      1.0409464    
   1913000   297.09057      680.29306      55132.304     -20961.846      3323.5462     -17638.3        1.0347374    
   1914000   298.77013      249.16961      55118.057     -20857.204      3342.3355     -17514.869      1.0350049    
   1915000   308.13795      374.39129      54625.08      -20882.347      3447.1331     -17435.214      1.0443455    
   1916000   297.78314      499.85729      54416.112     -20978.355      3331.2941     -17647.061      1.048356     
   1917000   298.43858      86.335091      54626.638     -20888.578      3338.6265     -17549.952      1.0443157    
   1918000   299.98537      258.53964      54113.677     -20909.128      3355.9304     -17553.198      1.0542151    
   1919000   299.10336      374.8019       54285.261     -20851.41       3346.0634     -17505.347      1.050883     
   1920000   298.48643     -258.18332      54159.521     -20824.787      3339.1618     -17485.625      1.0533228    
   1921000   304.76469      409.27971      54279.115     -20837.606      3409.3965     -17428.209      1.051002     
   1922000   298.76891     -520.40832      54394.915     -20802.287      3342.3219     -17459.965      1.0487645    
   1923000   301.27803      69.471724      55107.153     -20864.856      3370.3914     -17494.464      1.0352097    
   1924000   298.40004      344.07506      54283.296     -20920.344      3338.1953     -17582.148      1.050921     
   1925000   302.83935     -211.35741      54289.244     -20862.438      3387.8578     -17474.58       1.0508059    
   1926000   295.8634      -314.56305      55145.197     -20843.712      3309.818      -17533.894      1.0344955    
   1927000   302.58186     -59.609717      54315.271     -20855.962      3384.9772     -17470.985      1.0503024    
   1928000   300.01992     -110.65816      54841.829     -20878.389      3356.3169     -17522.073      1.040218     
   1929000   304.46176     -420.8711       54885.437     -20797.099      3406.0077     -17391.092      1.0393915    
   1930000   299.14627     -696.21334      54976.503     -20898.988      3346.5433     -17552.444      1.0376698    
   1931000   300.35855      148.34869      54775.133     -20847.003      3360.1051     -17486.898      1.0414846    
   1932000   304.87083     -116.02019      54618.758     -20884.037      3410.5839     -17473.453      1.0444664    
   1933000   291.39031     -560.45391      54530.372     -20983.989      3259.7776     -17724.212      1.0461593    
   1934000   301.81773     -224.27829      54996.05      -20974.766      3376.4289     -17598.337      1.037301     
   1935000   305.84311     -238.03684      54526.228     -20786.604      3421.4608     -17365.144      1.0462388    
   1936000   298.97326      1012.847       53664.814     -20880.904      3344.6079     -17536.297      1.0630328    
   1937000   306.60958      80.924112      54390.871     -20807.2        3430.0353     -17377.165      1.0488425    
   1938000   299.27281      488.07057      54473.103     -20857.676      3347.959      -17509.717      1.0472592    
   1939000   296.84966      324.27993      54495.714     -20848.269      3320.8513     -17527.418      1.0468247    
   1940000   299.86996      442.75596      54874.399     -20918.469      3354.6393     -17563.83       1.0396006    
   1941000   304.86883      76.390267      54663.676     -20956.433      3410.5615     -17545.871      1.0436081    
   1942000   303.36686      39.317732      54646.059     -20886.012      3393.759      -17492.253      1.0439446    
   1943000   306.66868     -194.28118      53950.137     -20931.563      3430.6964     -17500.866      1.0574108    
   1944000   295.78598      126.05919      54431.281     -20886.933      3308.9519     -17577.981      1.0480638    
   1945000   302.37716      235.93455      54516.601     -20815.302      3382.6873     -17432.615      1.0464236    
   1946000   297.6498       356.22564      54224.367     -20975.067      3329.8024     -17645.265      1.0520631    
   1947000   298.71977      338.30063      54121.656     -20778.835      3341.7722     -17437.063      1.0540597    
   1948000   297.99609      737.15908      54097.702     -20847.159      3333.6763     -17513.482      1.0545264    
   1949000   305.98468      391.59762      54080.701     -20736.815      3423.0445     -17313.771      1.054858     
   1950000   296.96306     -1216.1075      54760.469     -20851.823      3322.1199     -17529.703      1.0417635    
   1951000   297.48299      456.93529      54779.311     -20872.204      3327.9362     -17544.267      1.0414052    
   1952000   303.06388     -92.268392      54286.167     -20914.891      3390.3696     -17524.522      1.0508655    
   1953000   296.26741      47.592747      54443.633     -20902.265      3314.3376     -17587.927      1.0478261    
   1954000   298.07188      264.46784      54622.843     -20866.168      3334.5242     -17531.644      1.0443883    
   1955000   302.95566     -872.38492      54786.191     -20887.777      3389.1589     -17498.618      1.0412744    
   1956000   302.4486       179.01568      54647.457     -20831.82       3383.4865     -17448.334      1.0439179    
   1957000   294.05729     -12.719634      55182.996     -20846.297      3289.613      -17556.684      1.0337869    
   1958000   301.11552     -858.71719      54777.449     -20945.309      3368.5734     -17576.736      1.0414406    
   1959000   303.82891     -142.54858      54456.079     -20967.275      3398.928      -17568.347      1.0475866    
   1960000   291.80688     -17.294651      54884.048     -20834.962      3264.4377     -17570.525      1.0394178    
   1961000   296.09641      603.77436      54587.7       -20879.024      3312.4247     -17566.599      1.0450607    
   1962000   299.83758     -296.61231      54922.784     -20847.335      3354.277      -17493.058      1.0386847    
   1963000   298.97849     -72.064998      54267.024     -20879.005      3344.6664     -17534.338      1.0512362    
   1964000   299.05356      555.022        54035.604     -20864.465      3345.5063     -17518.958      1.0557383    
   1965000   298.9889      -68.748205      54855.051     -20923.794      3344.7829     -17579.011      1.0399673    
   1966000   298.26275      147.37752      54773.905     -20826.302      3336.6595     -17489.642      1.041508     
   1967000   292.82084     -418.63481      55005.28      -20922.232      3275.7809     -17646.451      1.0371269    
   1968000   297.40754     -272.10086      54379.696     -21002.355      3327.0922     -17675.263      1.0490581    
   1969000   301.99329     -277.48692      54297.501     -20924.592      3378.3929     -17546.2        1.0506461    
   1970000   300.23224     -425.85065      54229.924     -20859.601      3358.6921     -17500.908      1.0519553    
   1971000   305.40549      55.911419      54465.171     -20749.501      3416.5652     -17332.936      1.0474117    
   1972000   297.51597      714.35015      54334.535     -20859.419      3328.3052     -17531.114      1.04993      
   1973000   299.93064     -517.75743      54681.175     -20750.023      3355.3181     -17394.705      1.0432742    
   1974000   305.93469      83.886588      54586.127     -21003.949      3422.4853     -17581.463      1.0450908    
   1975000   300.23496      259.73874      54828.749     -20759.801      3358.7225     -17401.078      1.0404661    
   1976000   298.60041     -167.54396      54371.577     -20944.334      3340.4368     -17603.897      1.0492147    
   1977000   303.29918     -546.37933      54468.521     -20908.789      3393.0019     -17515.787      1.0473473    
   1978000   303.69877     -453.93843      54322.552     -20907.95       3397.4721     -17510.477      1.0501616    
   1979000   298.88224     -121.27894      54361.039     -20847.021      3343.5896     -17503.431      1.0494181    
   1980000   294.92533     -360.14636      54188.795     -20952.593      3299.3238     -17653.27       1.0527538    
   1981000   300.0424      -1540.2898      54912.914     -20851.634      3356.5684     -17495.066      1.0388714    
   1982000   289.60334     -617.54684      54470.839     -20912.331      3239.7868     -17672.545      1.0473027    
   1983000   299.11242      414.16203      54523.013     -20948.601      3346.1647     -17602.437      1.0463005    
   1984000   299.95814      378.10833      54489.379     -20868.774      3355.6257     -17513.148      1.0469464    
   1985000   308.64809      384.22337      54623.156     -20852.45       3452.8401     -17399.61       1.0443823    
   1986000   304.96919     -82.09726       54621.053     -20954.71       3411.6843     -17543.026      1.0444225    
   1987000   298.92414     -249.35774      55420.782     -20806.968      3344.0584     -17462.91       1.0293514    
   1988000   296.15028      187.35048      54787.937     -20943.702      3313.0273     -17630.675      1.0412412    
   1989000   303.07389     -518.94536      54738.69      -20955.68       3390.4815     -17565.199      1.042178     
   1990000   297.59778     -164.84284      54896.773     -20937.151      3329.2204     -17607.931      1.0391769    
   1991000   296.09787     -851.4409       54898.236     -20920.046      3312.441      -17607.605      1.0391492    
   1992000   304.04576     -498.2181       54859.165     -20887.378      3401.3539     -17486.024      1.0398893    
   1993000   300.56191      601.03084      54569.45      -20854.57       3362.3801     -17492.19       1.0454102    
   1994000   298.02894      692.50166      54304.379     -20778.714      3334.0439     -17444.67       1.050513     
   1995000   295.8014      -460.72532      55047.261     -20858.919      3309.1244     -17549.794      1.036336     
   1996000   300.50103      26.877802      55222.829     -20852.384      3361.699      -17490.685      1.0330412    
   1997000   302.19273      106.61264      54792.852     -20884.319      3380.624      -17503.695      1.0411478    
   1998000   298.02586      167.17484      54721.282     -20900.329      3334.0094     -17566.32       1.0425095    
   1999000   296.42847     -348.58969      54978.773     -20860.192      3316.1394     -17544.053      1.037627     
   2000000   301.88338     -591.14962      54656.495     -20842.011      3377.1634     -17464.847      1.0437453    
   2001000   292.63945     -1162.4906      55118.762     -20933.606      3273.7517     -17659.855      1.0349916    
   2002000   305.49009     -743.96564      55261.336     -21004.636      3417.5116     -17587.125      1.0323214    
   2003000   302.64975      76.123943      55007.213     -20943.559      3385.7368     -17557.822      1.0370905    
   2004000   293.05939      473.63607      54555.566     -20848.842      3278.4495     -17570.393      1.0456762    
   2005000   298.4681       362.3897       54309.783     -20779.922      3338.9567     -17440.966      1.0504085    
   2006000   299.9865       563.43515      54281.497     -20885.028      3355.943      -17529.085      1.0509559    
   2007000   300.38412     -35.995507      53917.626     -20878.738      3360.3912     -17518.347      1.0580484    
   2008000   305.41206      152.19484      54412.163     -20963.897      3416.6387     -17547.258      1.0484321    
   2009000   296.49001      122.02804      54788.505     -20826.526      3316.8278     -17509.698      1.0412304    
   2010000   302.51197      251.21808      54718.338     -20805.615      3384.1954     -17421.42       1.0425656    
   2011000   296.26859     -1240.5522      54832.907     -21053.908      3314.3509     -17739.558      1.0403872    
   2012000   303.25349      464.12491      54865.125     -20896.071      3392.4907     -17503.581      1.0397763    
   2013000   295.36062     -287.08585      55108.631     -20784.691      3304.1934     -17480.498      1.0351819    
   2014000   298.76993     -524.09903      54578.621     -20876.566      3342.3332     -17534.233      1.0452345    
   2015000   294.48434      554.74981      54619.592     -20908.179      3294.3904     -17613.789      1.0444505    
   2016000   292.2894      -634.53286      54885.997     -20833.018      3269.8357     -17563.182      1.0393809    
   2017000   298.03371      909.82464      55000.409     -20828.171      3334.0972     -17494.074      1.0372188    
   2018000   290.61682     -325.44367      55060.808     -20781.873      3251.1246     -17530.748      1.036081     
   2019000   305.65175     -279.28103      55034.004     -20848.321      3419.32       -17429.001      1.0365856    
   2020000   307.58991      352.75375      54324.023     -20894.013      3441.0022     -17453.011      1.0501332    
   2021000   303.64295     -469.01147      54252.512     -20966.713      3396.8476     -17569.865      1.0515173    
   2022000   298.35294      426.86702      54706.478     -20831.205      3337.6684     -17493.536      1.0427916    
   2023000   304.14169      180.11605      54807.29      -20751.67       3402.4271     -17349.243      1.0408735    
   2024000   302.72942      599.53933      54321.994     -20912.85       3386.628      -17526.222      1.0501724    
   2025000   297.34781      141.3943       54339.182     -20867.117      3326.424      -17540.693      1.0498402    
   2026000   292.7261       325.74909      54485.956     -20833.341      3274.7211     -17558.62       1.0470121    
   2027000   298.3702      -190.21519      54616.155     -20850.983      3337.8614     -17513.122      1.0445162    
   2028000   297.56157     -27.465399      54843.477     -20887.668      3328.8154     -17558.853      1.0401867    
   2029000   302.25325      654.68745      54595.583     -20771.983      3381.3011     -17390.682      1.0449098    
   2030000   296.79152     -92.184737      54643.27      -20898.084      3320.2009     -17577.883      1.0439979    
   2031000   296.63303      4.4019247      54374.513     -20845.202      3318.4278     -17526.774      1.049158     
   2032000   301.49654      289.82546      54643.857     -20997.912      3372.8358     -17625.076      1.0439867    
   2033000   300.18866      107.81322      54629.691     -20984.125      3358.2046     -17625.921      1.0442574    
   2034000   297.63605      15.365686      54257.834     -20857.224      3329.6485     -17527.576      1.0514142    
   2035000   298.44135     -296.26776      54206.818     -20870.615      3338.6574     -17531.957      1.0524037    
   2036000   304.94824      368.65573      54586.864     -20816.309      3411.4499     -17404.859      1.0450767    
   2037000   300.06553      440.33437      54694.723     -20796.533      3356.8271     -17439.706      1.0430157    
   2038000   305.10192     -183.87791      54594.007     -20808.861      3413.1691     -17395.692      1.0449399    
   2039000   297.70547     -105.67989      55009.621     -20868.995      3330.4252     -17538.57       1.0370451    
   2040000   299.23094      98.746612      54925.871     -20863.15       3347.4905     -17515.66       1.0386264    
   2041000   296.82673     -230.9343       54658.99      -20965.714      3320.5947     -17645.119      1.0436976    
   2042000   306.96807     -713.02535      54884.892     -20787.843      3434.0457     -17353.797      1.0394018    
   2043000   304.45361      142.97957      54855.273     -20750.778      3405.9165     -17344.861      1.0399631    
   2044000   294.56484     -166.20639      54391.031     -20853.667      3295.291      -17558.375      1.0488394    
   2045000   294.97607      85.237375      54698.215     -20836.918      3299.8914     -17537.027      1.0429492    
   2046000   296.10075      357.22947      54403.525     -20846.348      3312.4732     -17533.875      1.0485986    
   2047000   301.43169      7.70308        54803.846     -20798.929      3372.1104     -17426.819      1.0409389    
   2048000   301.75699     -529.26926      55178.603     -20777.23       3375.7494     -17401.481      1.0338692    
   2049000   298.41867      304.5721       54258.667     -20863.537      3338.4038     -17525.133      1.0513981    
   2050000   305.04227      344.81409      54558.611     -20859.847      3412.5018     -17447.345      1.0456179    
   2051000   302.54212      166.26531      55064.489     -20799.821      3384.5327     -17415.288      1.0360117    
   2052000   303.81235     -775.90873      54742.079     -20931.542      3398.7427     -17532.799      1.0421135    
   2053000   303.24902     -946.89602      54369.173     -20877.941      3392.4408     -17485.5        1.0492611    
   2054000   299.29689      655.72724      55041.941     -20859.564      3348.2283     -17511.336      1.0364362    
   2055000   305.0816      -150.95972      54290.377     -20908.558      3412.9417     -17495.616      1.050784     
   2056000   295.819       -107.93036      54534.878     -20833.975      3309.3212     -17524.654      1.0460729    
   2057000   294.87447      6.1526729      54574.644     -20917.495      3298.7549     -17618.74       1.0453107    
   2058000   300.15854      337.12273      54430.448     -20960.455      3357.8676     -17602.587      1.0480799    
   2059000   298.95406     -148.89559      54978.794     -20958.487      3344.3932     -17614.094      1.0376266    
   2060000   301.07506      542.67439      54466.625     -20818.773      3368.1208     -17450.653      1.0473838    
   2061000   296.96297      173.24472      54735.412     -20836.036      3322.1189     -17513.917      1.0422404    
   2062000   296.24889     -306.66344      54452.046     -20770.838      3314.1304     -17456.707      1.0476642    
   2063000   300.99812      1211.0792      54217.409     -20946.019      3367.26       -17578.759      1.0521982    
   2064000   305.68004     -21.640518      54232.957     -20966.886      3419.6365     -17547.25       1.0518965    
   2065000   299.0676      -45.895143      54827.591     -20850.135      3345.6633     -17504.471      1.0404881    
   2066000   296.59086     -181.19094      54914.703     -20827.441      3317.9561     -17509.485      1.0388376    
   2067000   297.36868      634.31666      54810.912     -20713.305      3326.6576     -17386.647      1.0408048    
   2068000   296.83544      1037.447       54472.572     -20722.423      3320.6921     -17401.731      1.0472694    
   2069000   305.51987      13.862383      54367.487     -20933.467      3417.8447     -17515.622      1.0492936    
   2070000   295.5698       423.9687       54512.803     -20756.685      3306.5334     -17450.152      1.0464965    
   2071000   294.21417     -152.91709      55049.885     -20759.591      3291.3681     -17468.223      1.0362866    
   2072000   296.31079      188.99396      54375.919     -20835.052      3314.8229     -17520.229      1.0491309    
   2073000   294.82251     -640.76187      54488.335     -20768.213      3298.1735     -17470.04       1.0469664    
   2074000   306.5792      -619.5029       54781.422     -20802.516      3429.6954     -17372.82       1.041365     
   2075000   300.38243      357.57525      54676.055     -20881.27       3360.3723     -17520.898      1.0433719    
   2076000   294.36504      118.66339      54765.616     -20889.52       3293.0558     -17596.464      1.0416656    
   2077000   301.72819      178.33362      54375.44      -20848.494      3375.4273     -17473.067      1.0491402    
   2078000   299.85885     -382.88758      54596.053     -20886.373      3354.515      -17531.858      1.0449008    
   2079000   298.17522     -30.053512      54895.075     -20811.415      3335.6802     -17475.734      1.039209     
   2080000   299.92315      863.19204      54163.674     -20906.485      3355.2344     -17551.251      1.053242     
   2081000   302.71523     -241.29858      54639.057     -20825.522      3386.4693     -17439.052      1.0440784    
   2082000   303.02318     -14.853477      54468.527     -20692.538      3389.9143     -17302.624      1.0473472    
   2083000   302.3813       90.364831      54247.987     -20809.302      3382.7336     -17426.568      1.0516051    
   2084000   309.20815      268.62786      54309.247     -20828.169      3459.1055     -17369.064      1.0504189    
   2085000   303.29805      43.194259      54459.078     -20727.053      3392.9892     -17334.063      1.0475289    
   2086000   295.73945      193.31842      54222.486     -20931.314      3308.4313     -17622.883      1.0520996    
   2087000   303.95751      895.04084      54195.466     -20753.602      3400.3666     -17353.235      1.0526242    
   2088000   301.70099      137.41623      55106.434     -20848.222      3375.123      -17473.099      1.0352232    
   2089000   299.83786      58.963787      54759.105     -20824.533      3354.2801     -17470.252      1.0417894    
   2090000   292.66105      301.15466      54349.79      -20743.075      3273.9933     -17469.082      1.0496353    
   2091000   297.30385      350.03813      55034.338     -20713.326      3325.9323     -17387.393      1.0365793    
   2092000   296.24578     -278.13584      54750.201     -20871.598      3314.0956     -17557.502      1.0419589    
   2093000   295.6016       715.10585      54444.16      -20856.733      3306.8892     -17549.844      1.0478159    
   2094000   300.27399     -386.84326      54597.954     -20896.776      3359.1592     -17537.617      1.0448644    
   2095000   305.69533      133.16334      54365.21      -20837.88       3419.8076     -17418.073      1.0493376    
   2096000   306.6487      -158.37675      54737.994     -20837.434      3430.4729     -17406.961      1.0421912    
   2097000   299.47103     -670.76797      54819.324     -20867.465      3350.1764     -17517.288      1.040645     
   2098000   304.37191      697.26445      54775.83      -20812.276      3405.0025     -17407.274      1.0414713    
   2099000   307.63179      208.23968      54451.041     -20899.597      3441.4707     -17458.127      1.0476835    
   2100000   306.85535     -534.97471      54729.1       -20886.695      3432.7847     -17453.91       1.0423606    
   2101000   297.56107     -1596.4732      55078.778     -20915.221      3328.8097     -17586.411      1.035743     
   2102000   303.86125      631.05086      55071.371     -20900.725      3399.2898     -17501.435      1.0358823    
   2103000   306.96452     -16.652051      54523.423     -20785.742      3434.006      -17351.736      1.0462927    
   2104000   303.41209      575.53389      54339.463     -20899.494      3394.265      -17505.229      1.0498348    
   2105000   304.31594      303.69496      54332.896     -20940.191      3404.3763     -17535.814      1.0499617    
   2106000   300.0338      -52.000574      54347.082     -20905.521      3356.4722     -17549.049      1.0496876    
   2107000   296.33487     -157.74709      54874.91      -20838.342      3315.0923     -17523.25       1.0395909    
   2108000   304.53938     -472.45447      54147.855     -20901.067      3406.876      -17494.191      1.0535497    
   2109000   302.49103     -90.749321      54601.695     -20952.311      3383.9611     -17568.35       1.0447928    
   2110000   299.76875     -621.18279      54764.886     -20740.768      3353.5071     -17387.261      1.0416795    
   2111000   301.98137     -62.427989      54746.263     -20824.757      3378.2595     -17446.498      1.0420338    
   2112000   293.51103     -68.025315      54995.63      -20781.538      3283.502      -17498.036      1.0373089    
   2113000   300.12929     -54.077402      54509.561     -20875.288      3357.5404     -17517.748      1.0465587    
   2114000   299.72645     -615.34881      54532.284     -20873.042      3353.0339     -17520.008      1.0461227    
   2115000   300.10139      182.16891      54886.611     -20797.247      3357.2282     -17440.019      1.0393693    
   2116000   305.24822      24.810379      54216.777     -20670.913      3414.8057     -17256.108      1.0522104    
   2117000   303.58623      84.039618      54390.473     -20751.902      3396.2131     -17355.689      1.0488502    
   2118000   303.75         130.49555      54808.758     -20869.849      3398.0452     -17471.804      1.0408456    
   2119000   302.88551     -401.65367      54956.342     -20842.925      3388.3742     -17454.551      1.0380505    
   2120000   305.06462      252.34257      54836.438     -20790.036      3412.7518     -17377.284      1.0403203    
   2121000   299.06727      102.6943       54686.649     -20820.726      3345.6596     -17475.067      1.0431697    
   2122000   293.82157      999.06784      54580.585     -20831.962      3286.976      -17544.986      1.0451969    
   2123000   307.63795      495.05161      55096.346     -20877.736      3441.5396     -17436.196      1.0354127    
   2124000   298.32569      344.50357      54695.27      -20872.222      3337.3636     -17534.858      1.0430053    
   2125000   298.74983     -594.28803      55295.473     -20820.964      3342.1084     -17478.855      1.031684     
   2126000   302.72183     -202.32405      54407.703     -20893.375      3386.543      -17506.832      1.048518     
   2127000   298.10102      54.461191      54886.846     -20815.971      3334.8502     -17481.121      1.0393648    
   2128000   304.11073     -271.94265      53930.794     -20921.089      3402.0807     -17519.008      1.0577901    
   2129000   300.14241     -795.61688      54744.12      -20862.171      3357.6872     -17504.484      1.0420746    
   2130000   297.31121      541.02372      54585.265     -20814.448      3326.0146     -17488.433      1.0451073    
   2131000   307.94227     -370.30106      54617.693     -20818.566      3444.944      -17373.622      1.0444868    
   2132000   299.89408     -337.76922      54303.476     -20925.995      3354.9091     -17571.086      1.0505305    
   2133000   298.1954       728.33328      53954.491     -20802.02       3335.906      -17466.114      1.0573255    
   2134000   304.26006      498.552        54368.093     -20937.125      3403.7512     -17533.373      1.0492819    
   2135000   301.52185     -542.26698      54616.243     -20880.088      3373.1189     -17506.969      1.0445145    
   2136000   298.93583      66.427395      54753.226     -20963.035      3344.1892     -17618.846      1.0419013    
   2137000   297.64989      346.4357       55011.6       -20815.136      3329.8034     -17485.333      1.0370078    
   2138000   298.05663     -481.90672      54894.548     -20995.535      3334.3536     -17661.182      1.039219     
   2139000   299.89858      295.1875       54606.212     -20806.701      3354.9594     -17451.742      1.0447064    
   2140000   297.30908     -365.93511      54681.133     -20814.03       3325.9908     -17488.04       1.043275     
   2141000   302.62024      3.0339706      54648.169     -20799.769      3385.4066     -17414.363      1.0439043    
   2142000   295.45763     -835.49351      55187.136     -20931.596      3305.2786     -17626.318      1.0337093    
   2143000   304.69065      658.10411      54188.193     -20917.919      3408.5683     -17509.351      1.0527655    
   2144000   292.31817     -374.8197       54419.464     -20831.766      3270.1575     -17561.609      1.0482914    
   2145000   296.54772      191.34303      54314.598     -20867.052      3317.4735     -17549.578      1.0503154    
   2146000   300.33996      696.99359      54028.291     -20741.523      3359.8972     -17381.626      1.0558812    
   2147000   292.67348     -372.83621      54143.061     -20868.793      3274.1324     -17594.66       1.053643     
   2148000   301.1229      -285.12982      54573.965     -20963.137      3368.6559     -17594.481      1.0453237    
   2149000   298.67138     -17.567099      54412.823     -20787.129      3341.2307     -17445.898      1.0484194    
   2150000   305.75619      742.64724      54291.541     -20896.285      3420.4885     -17475.796      1.0507614    
   2151000   301.46242      501.12623      54485.153     -20812.725      3372.4541     -17440.271      1.0470276    
   2152000   302.39788      187.21049      53838.363     -20913.023      3382.9191     -17530.104      1.0596061    
   2153000   299.64086     -159.95323      54841.822     -20842.001      3352.0763     -17489.925      1.0402181    
   2154000   301.43213     -373.84156      54613.565     -20996.205      3372.1152     -17624.09       1.0445657    
   2155000   301.37289      463.07717      54610.577     -20812.504      3371.4525     -17441.051      1.0446229    
   2156000   301.09837     -576.62663      54803.425     -20872.377      3368.3815     -17503.996      1.0409469    
   2157000   298.78947     -723.70869      54917.181     -20799.376      3342.5518     -17456.824      1.0387907    
   2158000   300.14716      561.62005      54016.078     -20960.173      3357.7403     -17602.433      1.05612      
   2159000   294.71052     -572.01309      54792.1       -20828.535      3296.9208     -17531.615      1.0411621    
   2160000   299.46203      984.98455      54093.375     -20944.711      3350.0758     -17594.635      1.0546108    
   2161000   298.31953     -251.26101      54695.795     -20886.535      3337.2946     -17549.241      1.0429953    
   2162000   302.87        -393.60702      54672.109     -20920.287      3388.2007     -17532.086      1.0434472    
   2163000   305.62599      144.01448      54738.094     -20780.488      3419.0318     -17361.456      1.0421893    
   2164000   304.43285     -439.02001      55013.975     -20886.774      3405.6843     -17481.09       1.036963     
   2165000   300.77294     -442.93182      55185.679     -20788.863      3364.7409     -17424.122      1.0337366    
   2166000   301.45998      255.80863      54620.196     -20815.33       3372.4268     -17442.904      1.0444389    
   2167000   294.4378       202.7855       54341.952     -20758.648      3293.8698     -17464.779      1.0497867    
   2168000   301.92871     -465.68786      54180.412     -20829.44       3377.6705     -17451.77       1.0529167    
   2169000   299.75057      430.77587      54016.672     -21067.877      3353.3037     -17714.573      1.0561083    
   2170000   301.27515      276.12125      53897.127     -20972.618      3370.3591     -17602.259      1.0584508    
   2171000   304.39274      466.17066      54545.58      -20869.107      3405.2355     -17463.871      1.0458677    
   2172000   301.0758      -578.4514       54676.905     -20982.426      3368.129      -17614.297      1.0433557    
   2173000   300.48239      1110.3171      54842.235     -20918.913      3361.4905     -17557.423      1.0402103    
   2174000   297.04837      226.15024      54590.558     -20908.175      3323.0742     -17585.101      1.045006     
   2175000   299.22682      435.16752      54367.059     -20913.057      3347.4445     -17565.612      1.0493019    
   2176000   303.85748      104.2877       54698.796     -20795.679      3399.2476     -17396.432      1.0429381    
   2177000   297.18952      283.19397      55055.899     -20930.062      3324.6532     -17605.409      1.0361734    
   2178000   296.5676      -5.1461851      55152.229     -20748.65       3317.6958     -17430.955      1.0343636    
   2179000   300.69804      421.84898      54789.102     -20827.111      3363.903      -17463.208      1.0412191    
   2180000   304.13066     -374.73848      55004.7       -20701.791      3402.3037     -17299.487      1.0371379    
   2181000   303.10331      1008.9928      54649.947     -20898.383      3390.8107     -17507.572      1.0438703    
   2182000   295.96641     -301.04774      54828.203     -20882.433      3310.9704     -17571.462      1.0404765    
   2183000   302.36243      1353.3534      54491.249     -20905.683      3382.5225     -17523.161      1.0469105    
   2184000   301.65917     -76.676401      54525.293     -20802.146      3374.6551     -17427.491      1.0462568    
   2185000   295.81982      717.9648       54848.235     -20759.795      3309.3305     -17450.464      1.0400965    
   2186000   300.17734      1056.6238      54049.523     -20864.136      3358.078      -17506.058      1.0554664    
   2187000   294.9634      -566.55551      55225.164     -20884.29       3299.7496     -17584.54       1.0329975    
   2188000   304.33984     -397.67167      55034.794     -20924.674      3404.6437     -17520.03       1.0365707    
   2189000   300.39086      254.3724       54599.956     -20845.41       3360.4666     -17484.944      1.0448261    
   2190000   302.12887     -691.25325      55127.546     -20892.299      3379.9097     -17512.389      1.0348267    
   2191000   300.30811      321.34238      54289.56      -20858.309      3359.5409     -17498.769      1.0507998    
   2192000   295.29456     -177.37044      54497.465     -20839.255      3303.4543     -17535.801      1.046791     
   2193000   296.85796     -14.515315      55412.258     -20943.095      3320.9441     -17622.151      1.0295097    
   2194000   297.4734      -358.30012      55124.902     -20895.967      3327.829      -17568.138      1.0348763    
   2195000   297.25213     -758.04296      54457.287     -20939.823      3325.3537     -17614.469      1.0475633    
   2196000   297.81108     -209.63906      54861.647     -20963.355      3331.6066     -17631.748      1.0398422    
   2197000   297.96972      189.24233      54830.784     -20768.549      3333.3814     -17435.168      1.0404275    
   2198000   307.79767      256.63382      54658.086     -20900.831      3443.3264     -17457.504      1.0437149    
   2199000   298.17177      1202.3183      54307.753     -21048.844      3335.6417     -17713.202      1.0504478    
   2200000   298.76204      38.886253      54404.909     -20862.031      3342.245      -17519.786      1.0485719    
   2201000   299.65009      35.846981      54654.099     -20830.195      3352.1796     -17478.016      1.043791     
   2202000   297.81868      579.12223      54187.992     -20738.399      3331.6917     -17406.707      1.0527694    
   2203000   302.65394      437.16907      54357.058     -20922.702      3385.7836     -17536.918      1.0494949    
   2204000   300.90533     -348.24146      54727.673     -20871.758      3366.2219     -17505.536      1.0423878    
   2205000   293.80842     -170.60779      54684.484     -20826.474      3286.829      -17539.645      1.043211     
   2206000   296.65128     -38.907774      54943.926     -20843.892      3318.632      -17525.26       1.0382851    
   2207000   304.3494       357.21507      54682.081     -20929.145      3404.7507     -17524.394      1.0432569    
   2208000   295.94083     -968.1067       55320.027     -20859.181      3310.6842     -17548.497      1.0312261    
   2209000   295.60678     -236.72551      54971.43      -20850.375      3306.9472     -17543.428      1.0377656    
   2210000   295.46395     -818.37789      55058.984     -20843.196      3305.3493     -17537.847      1.0361153    
   2211000   292.69863      426.36051      54818.012     -20786.103      3274.4138     -17511.689      1.0406699    
   2212000   302.65976     -222.50143      55270.137     -20901.006      3385.8487     -17515.158      1.032157     
   2213000   302.29176      572.30599      54400.452     -20897.653      3381.7319     -17515.921      1.0486578    
   2214000   295.2374       171.29062      54624.012     -20842.206      3302.8149     -17539.391      1.0443659    
   2215000   308.20717     -465.16977      54859.638     -20902.182      3447.9075     -17454.275      1.0398803    
   2216000   294.92242      511.3577       54228.916     -20850.547      3299.2912     -17551.255      1.0519749    
   2217000   303.55276      574.10727      54883.172     -20835.146      3395.8387     -17439.308      1.0394344    
   2218000   304.99742      170.09467      54297.77      -21008.003      3412          -17596.003      1.0506409    
   2219000   292.59501     -21.109611      54465.506     -20895.41       3273.2545     -17622.156      1.0474053    
   2220000   300.18594     -504.37714      54939.493     -20873.518      3358.1741     -17515.344      1.0383688    
   2221000   298.12165     -499.18198      55201.843     -20999.982      3335.081      -17664.901      1.0334339    
   2222000   303.8908       11.922218      54851.262     -21059.751      3399.6203     -17660.131      1.0400391    
   2223000   295.50443      833.41158      54015.681     -20866.266      3305.8022     -17560.464      1.0561277    
   2224000   301.25573     -280.20389      54579.645     -20860.898      3370.1419     -17490.756      1.0452149    
   2225000   302.06475      476.19032      54818.439     -20850.694      3379.1924     -17471.501      1.0406618    
   2226000   297.09366      266.05559      54748.114     -20873.878      3323.5809     -17550.297      1.0419986    
   2227000   301.42988     -361.58902      54616.423     -20836.525      3372.09       -17464.435      1.0445111    
   2228000   297.44875      112.63654      54545.433     -20905.671      3327.5532     -17578.117      1.0458705    
   2229000   302.98882     -227.10507      54821.871     -20853.797      3389.5299     -17464.267      1.0405967    
   2230000   300.63626      841.40958      54517.978     -20904.972      3363.2118     -17541.76       1.0463972    
   2231000   307.20043      751.67103      54632.619     -20815.788      3436.6451     -17379.143      1.0442014    
   2232000   294.624        293.44998      54332.561     -20934.756      3295.9528     -17638.803      1.0499681    
   2233000   298.35261      913.66624      53899.084     -20946.513      3337.6647     -17608.849      1.0584124    
   2234000   298.00532      229.16568      54104.579     -20909.278      3333.7796     -17575.498      1.0543924    
   2235000   292.54381     -334.94708      54793.434     -20884.775      3272.6818     -17612.093      1.0411367    
   2236000   299.22935      380.56157      54509.269     -20930.254      3347.4728     -17582.781      1.0465643    
   2237000   295.15555      90.389994      54265.296     -20985.023      3301.8992     -17683.124      1.0512696    
   2238000   299.73776      221.25771      54671.427     -20843.483      3353.1603     -17490.323      1.0434602    
   2239000   300.55006     -136.19735      54902.425     -20808.652      3362.2476     -17446.404      1.0390699    
   2240000   294.91761     -851.38628      54644.032     -20891.639      3299.2374     -17592.402      1.0439833    
   2241000   296.05422      381.3696       54323.092     -20929.992      3311.9527     -17618.04       1.0501512    
   2242000   294.60557      401.83266      54760.354     -20885.828      3295.7466     -17590.081      1.0417657    
   2243000   305.19063     -128.99784      55153.919     -20908.206      3414.1615     -17494.044      1.0343319    
   2244000   306.80021      90.814948      54679.746     -20913.1        3432.1678     -17480.932      1.0433014    
   2245000   298.62004      232.38037      54209.966     -20900.459      3340.6564     -17559.802      1.0523426    
   2246000   296.72497      121.49771      54029.876     -20894.861      3319.4564     -17575.405      1.0558502    
   2247000   296.34531     -218.08407      54462.958     -20783.585      3315.2091     -17468.376      1.0474543    
   2248000   298.48933      223.40187      54659.496     -20887.175      3339.1943     -17547.98       1.043688     
   2249000   302.06877     -1157.9714      54671.487     -20759.078      3379.2373     -17379.841      1.043459     
   2250000   301.12568      373.56363      54260.156     -20722.676      3368.687      -17353.989      1.0513692    
   2251000   299.22959     -606.49764      54377.187     -20861.841      3347.4755     -17514.365      1.0491065    
   2252000   306.20125     -618.94285      54734.55      -20899.301      3425.4673     -17473.833      1.0422568    
   2253000   295.62224      355.62919      54301.204     -20902.732      3307.1201     -17595.612      1.0505744    
   2254000   302.79168     -196.29659      54714.739     -20957.361      3387.3245     -17570.036      1.0426342    
   2255000   298.02212     -244.93728      54546.24      -20801.049      3333.9675     -17467.081      1.045855     
   2256000   296.14254      6.4315333      54905.88      -20855.767      3312.9407     -17542.826      1.0390045    
   2257000   297.23052      608.30495      54518.196     -20840.892      3325.1119     -17515.78       1.046393     
   2258000   303.81474      556.2746       54342.643     -20922.668      3398.7695     -17523.899      1.0497733    
   2259000   300.50879     -126.18639      54125.634     -20932.418      3361.7858     -17570.632      1.0539823    
   2260000   309.40874     -59.967333      55029.352     -20809.038      3461.3495     -17347.689      1.0366733    
   2261000   304.02092      547.01196      54833.388     -20760.421      3401.076      -17359.345      1.0403781    
   2262000   302.75268     -244.87546      55048.599     -20855.537      3386.8882     -17468.649      1.0363108    
   2263000   298.44495      578.37542      54318.704     -20829.562      3338.6977     -17490.864      1.050236     
   2264000   300.5119      -437.37039      54426.199     -20868.7        3361.8206     -17506.879      1.0481617    
   2265000   296.92619      223.90545      54172.962     -20838.918      3321.7074     -17517.211      1.0530614    
   2266000   304.39567      151.41047      54568.356     -20832.255      3405.2683     -17426.987      1.0454311    
   2267000   300.27479      244.93887      54470.27      -20881.431      3359.1681     -17522.263      1.0473137    
   2268000   302.10578      206.58972      54633.754     -20898.514      3379.6514     -17518.863      1.0441797    
   2269000   296.39868      1113.7593      54209.909     -20907.274      3315.8062     -17591.468      1.0523437    
   2270000   296.81963     -441.00042      53828.797     -20893.8        3320.5153     -17573.285      1.0597944    
   2271000   290.84424     -229.32934      54862.826     -20797.978      3253.6687     -17544.309      1.0398199    
   2272000   302.33095     -108.89331      54972.952     -20847.559      3382.1703     -17465.388      1.0377368    
   2273000   289.99504      543.20411      54227.608     -20888.579      3244.1687     -17644.411      1.0520003    
   2274000   304.83263     -25.430171      54424.925     -20901.824      3410.1566     -17491.667      1.0481862    
   2275000   302.08979      213.25978      54386.781     -20939.742      3379.4725     -17560.27       1.0489214    
   2276000   300.20915      572.36014      54077.337     -20807.428      3358.4338     -17448.994      1.0549236    
   2277000   306.26879     -663.24147      54421.817     -20783.948      3426.2228     -17357.725      1.0482461    
   2278000   304.31266     -136.502        54183.842     -20827.021      3404.3397     -17422.681      1.05285      
   2279000   292.32137     -507.27302      54328.904     -20962.613      3270.1934     -17692.419      1.0500388    
   2280000   306.30421      791.66357      54211.202     -21010.297      3426.6191     -17583.677      1.0523186    
   2281000   301.88346     -364.02241      54148.717     -20792.007      3377.1643     -17414.843      1.0535329    
   2282000   293.49003     -76.052921      54533.23      -20955.125      3283.2671     -17671.858      1.0461045    
   2283000   308.95956     -350.29632      54236.955     -20914.006      3456.3244     -17457.682      1.051819     
   2284000   300.78026      562.61554      54757.537     -20852.753      3364.8228     -17487.93       1.0418193    
   2285000   298.20276      117.29651      54876.469     -20802.733      3335.9883     -17466.745      1.0395614    
   2286000   303.20007     -220.76642      54500.012     -20869.773      3391.8932     -17477.88       1.0467421    
   2287000   294.68936      370.7012       54331.327     -20700.272      3296.684      -17403.588      1.049992     
   2288000   302.61636      26.921006      54817.997     -20778.515      3385.3632     -17393.152      1.0406702    
   2289000   298.81794     -304.22649      54299.578     -20988.108      3342.8703     -17645.238      1.0506059    
   2290000   303.77953     -23.69288       55149.021     -20934.265      3398.3756     -17535.89       1.0344238    
   2291000   302.13883     -879.66791      55338.565     -20887.06       3380.0211     -17507.039      1.0308807    
   2292000   301.86857      211.68295      54662.442     -20926.524      3376.9977     -17549.526      1.0436317    
   2293000   295.97097      0.19928591     54562.602     -20913.679      3311.0214     -17602.658      1.0455414    
   2294000   302.70137     -202.0525       54322.932     -20992.18       3386.3142     -17605.866      1.0501542    
   2295000   299.98164      735.72897      54331.005     -20794.448      3355.8887     -17438.56       1.0499982    
   2296000   301.86958     -79.649295      54401.765     -20792.186      3377.009      -17415.177      1.0486325    
   2297000   300.31376     -140.31949      54483.834     -20799.413      3359.6041     -17439.808      1.0470529    
   2298000   304.31471     -35.513447      54552.063     -20794.234      3404.3626     -17389.871      1.0457434    
   2299000   294.97269     -666.80924      54273.816     -20842.442      3299.8536     -17542.589      1.0511046    
   2300000   301.10824     -412.4129       54399.71      -20770.869      3368.4919     -17402.377      1.0486721    
   2301000   304.72738     -171.8234       54522.118     -20856.324      3408.9791     -17447.345      1.0463177    
   2302000   297.09915     -21.977845      54522.224     -20970.873      3323.6422     -17647.231      1.0463157    
   2303000   301.36951      166.3024       54838.603     -20759.645      3371.4148     -17388.23       1.0402792    
   2304000   302.62173      274.47824      54340.496     -20800.411      3385.4233     -17414.988      1.0498148    
   2305000   288.8208      -210.41367      54785.726     -20867.839      3231.0326     -17636.806      1.0412832    
   2306000   305.02498      181.65018      54676.797     -20887.948      3412.3084     -17475.639      1.0433577    
   2307000   296.15532     -1282.6611      55028.581     -20857.154      3313.0836     -17544.071      1.0366878    
   2308000   299.60672     -461.59301      54582.881     -20796.149      3351.6944     -17444.454      1.0451529    
   2309000   303.13033      182.19818      54673.108     -20900.223      3391.113      -17509.11       1.0434281    
   2310000   296.91636     -178.8649       54642.012     -20887.893      3321.5974     -17566.296      1.0440219    
   2311000   298.1425       758.40253      54534.797     -20961.079      3335.3142     -17625.764      1.0460745    
   2312000   297.05559     -183.93943      55182.06      -20869.182      3323.155      -17546.027      1.0338044    
   2313000   302.51502      109.37932      54221.086     -20840.036      3384.2295     -17455.807      1.0521268    
   2314000   308.64047     -160.57485      54466.105     -20984.592      3452.7548     -17531.837      1.0473937    
   2315000   304.31195      343.93335      55259.362     -20834.696      3404.3318     -17430.364      1.0323582    
   2316000   299.77688      383.9828       54469.018     -21054.999      3353.598      -17701.401      1.0473377    
   2317000   304.88399      346.75059      54737.235     -20885.479      3410.7312     -17474.748      1.0422057    
   2318000   298.59833      85.599877      54816.862     -20782.116      3340.4136     -17441.702      1.0406918    
   2319000   308.46921     -225.2649       54646.691     -20825.81       3450.839      -17374.971      1.0439325    
   2320000   295.92811     -957.24536      54493.905     -20803.079      3310.5419     -17492.537      1.0468594    
   2321000   297.36127     -438.75861      54715.973     -20869.733      3326.5746     -17543.159      1.0426107    
   2322000   299.3077       1.5338123      54870.674     -20760.697      3348.3493     -17412.348      1.0396712    
   2323000   303.63636     -311.32461      54349.721     -20845.924      3396.7739     -17449.151      1.0496366    
   2324000   298.93164     -878.5511       54887.444     -20844.991      3344.1423     -17500.849      1.0393535    
   2325000   297.81698      894.08255      54818.888     -20818.165      3331.6726     -17486.493      1.0406533    
   2326000   297.35661     -909.68315      54933.132     -20884.985      3326.5224     -17558.463      1.0384891    
   2327000   292.70175     -374.5009       55542.465     -20771.217      3274.4486     -17496.768      1.0270962    
   2328000   301.84073     -150.25362      54681.816     -20818.134      3376.6863     -17441.448      1.0432619    
   2329000   295.03163     -210.26609      55398.183     -20779.273      3300.513      -17478.76       1.0297713    
   2330000   303.92079      491.63696      54073.384     -20839.084      3399.9558     -17439.128      1.0550007    
   2331000   301.50161      118.52172      54021.174     -20922.212      3372.8925     -17549.32       1.0560203    
   2332000   298.2451      -117.86748      54349.348     -20812.273      3336.462      -17475.811      1.0496438    
   2333000   302.56233      188.20817      54318.36      -20802.474      3384.7588     -17417.715      1.0502426    
   2334000   300.56582      494.8494       54257.901     -20937.55       3362.4238     -17575.126      1.0514129    
   2335000   296.77704     -559.63982      54662.255     -20887.936      3320.0388     -17567.897      1.0436353    
   2336000   302.0438       364.44502      54484.077     -20919.591      3378.958      -17540.633      1.0470483    
   2337000   295.76648     -147.91139      54204.121     -20718.184      3308.7338     -17409.45       1.0524561    
   2338000   303.92892     -399.38098      54391.566     -20879.263      3400.0467     -17479.216      1.0488291    
   2339000   301.90756      238.01617      54697.409     -20796.632      3377.4339     -17419.198      1.0429645    
   2340000   302.19019     -668.07839      54848.381     -20888.718      3380.5957     -17508.123      1.0400937    
   2341000   300.26422      763.93588      54893.102     -20769.253      3359.0499     -17410.203      1.0392464    
   2342000   293.8899       708.35988      54744.433     -20900.835      3287.7404     -17613.094      1.0420686    
   2343000   305.14499      216.44785      54581.065     -21004.624      3413.6509     -17590.973      1.0451877    
   2344000   299.89156     -626.87088      54962.502     -21021.901      3354.881      -17667.02       1.0379341    
   2345000   303.60539     -330.14736      55283.621     -20838.382      3396.4274     -17441.954      1.0319052    
   2346000   293.56847      542.71414      55129.559     -20874.654      3284.1447     -17590.51       1.0347889    
   2347000   295.71928      325.95334      54870.948     -20899.802      3308.2057     -17591.597      1.039666     
   2348000   301.5342      -1048.6623      55120.239     -20823.618      3373.2571     -17450.361      1.0349639    
   2349000   302.10916     -316.79819      54080.335     -20923.069      3379.6892     -17543.38       1.0548651    
   2350000   297.38314     -82.252954      54712.326     -20802.499      3326.8193     -17475.68       1.0426802    
   2351000   301.60716      310.91656      54804.85      -20820.313      3374.0733     -17446.24       1.0409199    
   2352000   304.1187       29.902682      54700.213     -20882.632      3402.1698     -17480.462      1.0429111    
   2353000   302.17413      503.92236      55065.432     -20785.349      3380.416      -17404.933      1.035994     
   2354000   297.45977      409.95813      54860.736     -20936.636      3327.6765     -17608.96       1.0398595    
   2355000   299.95169      397.1208       54729.499     -20749.137      3355.5536     -17393.583      1.042353     
   2356000   299.79189     -868.13857      54971.549     -20885.944      3353.7659     -17532.178      1.0377633    
   2357000   304.79545     -446.66321      54882.87      -20813.254      3409.7406     -17403.513      1.0394401    
   2358000   297.35916     -312.77074      54742.182     -20848.711      3326.551      -17522.16       1.0421115    
   2359000   298.59419     -36.549113      54603.081     -20845.194      3340.3672     -17504.827      1.0447663    
   2360000   296.16596     -121.14463      54521.698     -20923.614      3313.2027     -17610.412      1.0463258    
   2361000   292.65439      148.63481      54915.215     -20714.144      3273.9188     -17440.225      1.0388279    
   2362000   302.96766      229.35307      54693.617     -20769.728      3389.2932     -17380.435      1.0430368    
   2363000   306.15436     -395.57143      55043.936     -20898.909      3424.9428     -17473.966      1.0363986    
   2364000   307.16296     -752.51263      55098.838     -20955.356      3436.226      -17519.13       1.0353659    
   2365000   294.08034     -418.29904      54832.698     -20674.355      3289.8709     -17384.484      1.0403912    
   2366000   295.68741     -846.86993      55089.508     -20671.991      3307.8492     -17364.141      1.0355412    
   2367000   296.33988      363.97255      54657.65      -20891.207      3315.1483     -17576.058      1.0437232    
   2368000   303.63499      291.44931      54480.038     -20879.923      3396.7586     -17483.164      1.0471259    
   2369000   296.90866      335.323        54883.763     -20866.45       3321.5112     -17544.938      1.0394232    
   2370000   301.0977       596.76092      54603.997     -20808.193      3368.374      -17439.819      1.0447488    
   2371000   297.79957     -315.17957      54107.475     -20859.677      3331.4779     -17528.199      1.054336     
   2372000   299.88987     -215.13257      54516.61      -20992.284      3354.862      -17637.422      1.0464234    
   2373000   302.55253     -421.63636      54674.892     -20892.793      3384.6491     -17508.144      1.0433941    
   2374000   304.35752     -408.81239      54332.928     -20797.979      3404.8415     -17393.137      1.049961     
   2375000   293.2357       369.05774      54572.051     -20841.435      3280.4219     -17561.013      1.0453603    
   2376000   298.16231      556.28299      54431.24      -20862.261      3335.5358     -17526.725      1.0480646    
   2377000   297.52168      273.09638      55039.433     -20701.919      3328.3692     -17373.55       1.0364834    
   2378000   293.17011      899.55037      54151.344     -20773.548      3279.6882     -17493.86       1.0534818    
   2379000   296.73256      1.0084092      54554.059     -20866.917      3319.5413     -17547.375      1.0457051    
   2380000   295.72597      393.698        54759.603     -20928.627      3308.2806     -17620.347      1.04178      
   2381000   293.20615     -497.06903      54857.138     -20833.936      3280.0914     -17553.845      1.0399277    
   2382000   305.57794     -454.71751      54739.969     -20858.856      3418.4943     -17440.362      1.0421536    
   2383000   296.41065      292.68132      54603.877     -20920.064      3315.94       -17604.124      1.044751     
   2384000   301.24521     -69.305655      54913.147     -20784.218      3370.0241     -17414.194      1.038867     
   2385000   303.24433      314.66412      54508.304     -20807.938      3392.3883     -17415.549      1.0465829    
   2386000   297.68751      252.51241      54760.893     -20815.679      3330.2242     -17485.455      1.0417554    
   2387000   302.88712      689.59504      54653.092     -20869.574      3388.3922     -17481.182      1.0438103    
   2388000   296.50861     -428.14797      55125.37      -20773.541      3317.0359     -17456.505      1.0348676    
   2389000   303.04562      63.090599      54629.925     -20817.715      3390.1653     -17427.55       1.0442529    
   2390000   302.97315     -256.00381      54245.892     -20861.417      3389.3547     -17472.062      1.0516457    
   2391000   306.83287      421.6898       54406.62      -20844.554      3432.5332     -17412.021      1.0485389    
   2392000   295.05601     -722.44261      54891.017     -20792.83       3300.7857     -17492.045      1.0392859    
   2393000   295.04848      109.45542      54728.08      -20858.739      3300.7015     -17558.038      1.04238      
   2394000   292.97196      125.2431       54884.64      -20858.675      3277.4715     -17581.203      1.0394066    
   2395000   302.1028      -263.58743      54405.042     -20861.611      3379.618      -17481.993      1.0485693    
   2396000   293.98574     -258.55729      54986.485     -20870.952      3288.8126     -17582.139      1.0374814    
   2397000   292.68029      410.661        54553.944     -20928.095      3274.2085     -17653.887      1.0457073    
   2398000   302.1342       273.88693      55351.03      -20816.042      3379.9692     -17436.073      1.0306485    
   2399000   299.4431       562.18915      54743.48      -20929.995      3349.864      -17580.131      1.0420868    
   2400000   299.34056     -936.38847      54982.014     -20881.464      3348.7169     -17532.747      1.0375658    
   2401000   296.46219     -223.66049      54928.701     -20893.558      3316.5166     -17577.041      1.0385729    
   2402000   304.74287      451.77675      54822.123     -20795.831      3409.1525     -17386.679      1.0405919    
   2403000   295.49936     -465.2755       54876.201     -20863.071      3305.7455     -17557.325      1.0395665    
   2404000   301.2975      -40.822596      54466.062     -20887.595      3370.6092     -17516.986      1.0473946    
   2405000   301.24195     -33.394761      54571.998     -20836.404      3369.9877     -17466.416      1.0453614    
   2406000   292.34303      314.99006      54167.528     -20830.945      3270.4357     -17560.509      1.0531671    
   2407000   300.52846     -292.96627      54765.209     -20902.672      3362.0059     -17540.666      1.0416733    
   2408000   299.01662      522.67107      54893.72      -20869.041      3345.093      -17523.948      1.0392347    
   2409000   304.07256      308.75696      54362.698     -20895.674      3401.6537     -17494.02       1.0493861    
   2410000   297.33896     -227.44537      54514.201     -20917.336      3326.3251     -17591.011      1.0464697    
   2411000   304.51691     -103.50432      55217.957     -20784.108      3406.6246     -17377.484      1.0331323    
   2412000   296.96941      80.406053      54914.683     -20851.907      3322.1909     -17529.716      1.038838     
   2413000   296.17516      159.99042      54381.516     -20832.676      3313.3056     -17519.37       1.0490229    
   2414000   296.52746      691.37815      54441.575     -20722.831      3317.2468     -17405.584      1.0478657    
   2415000   300.84482      817.36846      54562.973     -20841.761      3365.545      -17476.216      1.0455343    
   2416000   296.33353      222.63167      54814.127     -20940.503      3315.0773     -17625.426      1.0407437    
   2417000   302.58145      22.640662      54654.251     -20860.925      3384.9727     -17475.952      1.0437881    
   2418000   292.48319     -398.49309      54237.138     -20835.292      3272.0036     -17563.288      1.0518154    
   2419000   302.69222     -341.50327      54307.921     -20903.201      3386.2119     -17516.989      1.0504445    
   2420000   299.72942      495.78883      54529.267     -20783.597      3353.067      -17430.53       1.0461805    
   2421000   297.94293     -770.61403      54359.565     -20737.786      3333.0817     -17404.704      1.0494465    
   2422000   296.7829       851.56458      54532.347     -20864.428      3320.1044     -17544.324      1.0461214    
   2423000   299.04463      525.05594      54713.805     -20815.43       3345.4064     -17470.023      1.042652     
   2424000   294.48734     -152.83581      54923.734     -20826.681      3294.424      -17532.257      1.0386668    
   2425000   302.26943     -45.765624      54774.928     -20814.632      3381.4821     -17433.15       1.0414885    
   2426000   296.04594     -305.83614      54658.646     -20822.312      3311.86       -17510.452      1.0437042    
   2427000   304.24431     -361.07317      55029.34      -20844.95       3403.575      -17441.375      1.0366735    
   2428000   296.30807      502.01858      54384.677     -20818.86       3314.7925     -17504.067      1.048962     
   2429000   297.83063     -108.18736      54824.234     -20933.083      3331.8253     -17601.258      1.0405518    
   2430000   293.78963     -91.981393      54680.079     -20903.716      3286.6188     -17617.097      1.0432951    
   2431000   303.94052     -100.80599      54356.247     -20905.93       3400.1765     -17505.754      1.0495106    
   2432000   303.98173      139.98221      54133.269     -20889.769      3400.6375     -17489.131      1.0538336    
   2433000   303.25651      308.76997      54233.015     -20819.617      3392.5246     -17427.092      1.0518954    
   2434000   297.29926      152.06793      54947.462     -20900.149      3325.8809     -17574.268      1.0382182    
   2435000   297.822        654.95375      54355.435     -20758.313      3331.7288     -17426.584      1.0495263    
   2436000   300.4618       13.443579      54259.426     -20826.214      3361.2602     -17464.953      1.0513834    
   2437000   305.20397     -219.22546      54997.618     -20721.506      3414.3108     -17307.196      1.0372714    
   2438000   301.10352     -354.03382      54241.528     -20857.582      3368.4391     -17489.143      1.0517303    
   2439000   305.09378     -67.692183      54775.099     -20784.916      3413.0781     -17371.838      1.0414852    
   2440000   300.1192       425.90037      54763.46      -20853.402      3357.4275     -17495.975      1.0417066    
   2441000   301.24913      669.13277      54352.451     -20840.498      3370.0681     -17470.429      1.0495839    
   2442000   289.57499      108.38042      54444.173     -20843.859      3239.4697     -17604.389      1.0478157    
   2443000   299.26672     -376.08105      54801.215     -20809.878      3347.8908     -17461.987      1.0409889    
   2444000   303.31425      159.22795      54639.397     -20855.941      3393.1704     -17462.77       1.0440719    
   2445000   295.17822      1262.4107      54092.06      -20940.829      3302.1529     -17638.677      1.0546364    
   2446000   290.14085     -831.76941      54862.115     -20911.866      3245.8        -17666.066      1.0398334    
   2447000   299.32882     -202.44305      54668.677     -20847.358      3348.5856     -17498.772      1.0435127    
   2448000   305.30527     -329.97538      54556.763     -20948.301      3415.444      -17532.857      1.0456533    
   2449000   298.8221      -160.1493       54692.581     -20976.521      3342.9169     -17633.604      1.0430566    
   2450000   298.88585      513.00487      54713.859     -20916.33       3343.6301     -17572.7        1.042651     
   2451000   302.57915      275.12847      54969.784     -20900.699      3384.9469     -17515.752      1.0377966    
   2452000   301.71906      12.192788      54691.245     -20832.821      3375.3251     -17457.496      1.0430821    
   2453000   292.86597     -379.5832       54945.165     -20965.277      3276.2858     -17688.991      1.0382616    
   2454000   302.40151     -582.41579      54647.942     -20880.568      3382.9597     -17497.608      1.0439086    
   2455000   304.02923     -187.7899       54921.687     -20848.067      3401.169      -17446.898      1.0387055    
   2456000   301.50453      112.1366       54739.983     -20917.335      3372.9251     -17544.41       1.0421534    
   2457000   300.99596     -1120.4326      54748.366     -20905.772      3367.2358     -17538.536      1.0419938    
   2458000   307.51258      114.1187       54955.047     -20842.423      3440.1371     -17402.286      1.0380749    
   2459000   302.15057      140.6589       54723.251     -20931.106      3380.1524     -17550.954      1.042472     
   2460000   291.35999      48.080028      54950.91      -20974.529      3259.4384     -17715.09       1.0381531    
   2461000   295.57402      77.58399       54838.318     -20911.471      3306.5806     -17604.891      1.0402846    
   2462000   293.24154      331.28289      54736.21      -20800.488      3280.4873     -17520          1.0422252    
   2463000   299.36905     -200.35526      54581.446     -20898.343      3349.0356     -17549.307      1.0451804    
   2464000   305.09533      56.853156      55175.165     -20820.774      3413.0954     -17407.679      1.0339336    
   2465000   293.91219     -556.54709      54227.406     -20813.099      3287.9899     -17525.109      1.0520042    
   2466000   299.95935      122.86648      54350.486     -20758.139      3355.6393     -17402.499      1.0496218    
   2467000   299.78936     -286.43668      54818.699     -20920.681      3353.7376     -17566.944      1.0406569    
   2468000   305.30111      159.22679      54774.567     -20873.085      3415.3974     -17457.688      1.0414954    
   2469000   298.40637      62.367161      54566.159     -20891.309      3338.2662     -17553.043      1.0454732    
   2470000   296.46247      82.67364       54681.017     -20880.05       3316.5198     -17563.53       1.0432772    
   2471000   295.4897      -174.50595      55030.913     -20889.996      3305.6374     -17584.359      1.0366439    
   2472000   300.07        -1487.6335      55110.335     -20852.131      3356.8771     -17495.254      1.0351499    
   2473000   305.37896      568.20809      54726.805     -20771.587      3416.2684     -17355.318      1.0424043    
   2474000   302.58073     -323.76439      54602.081     -20871.131      3384.9646     -17486.167      1.0447854    
   2475000   301.85463      735.7402       54707.755     -20852.63       3376.8418     -17475.788      1.0427673    
   2476000   310.08382      49.316744      55094.925     -20786.399      3468.9015     -17317.498      1.0354394    
   2477000   304.97398      677.57811      54514.628     -20865.463      3411.7378     -17453.725      1.0464615    
   2478000   300.02114      424.75253      54510.88      -20776.01       3356.3305     -17419.679      1.0465334    
   2479000   301.45488     -144.94303      54815.929     -20835.962      3372.3697     -17463.592      1.0407095    
   2480000   300.33434     -141.34453      55165.168     -20917.658      3359.8343     -17557.824      1.034121     
   2481000   297.19522      113.61649      54661.79      -20680.757      3324.717      -17356.04       1.0436442    
   2482000   296.33091     -612.67051      55081.904     -20703.802      3315.048      -17388.754      1.0356842    
   2483000   303.41975      982.78884      54345.88      -20972.451      3394.3508     -17578.1        1.0497108    
   2484000   299.57743     -218.18641      54926.605     -20923.09       3351.3668     -17571.723      1.0386125    
   2485000   300.16279      426.80128      54651.342     -20857.858      3357.9151     -17499.943      1.0438437    
   2486000   301.29652      83.1875        54188.924     -20815.583      3370.5982     -17444.985      1.0527512    
   2487000   300.26625     -129.0592       53741.428     -20818.963      3359.0725     -17459.89       1.0615173    
   2488000   288.52781     -308.37648      54650.577     -20824.853      3227.7549     -17597.098      1.0438583    
   2489000   298.00927      173.35288      54042.582     -21068.943      3333.8238     -17735.119      1.055602     
   2490000   295.07806     -454.58423      54803.659     -20793.2        3301.0324     -17492.167      1.0409425    
   2491000   300.4781       112.65048      55512.201     -20953.572      3361.4425     -17592.13       1.0276562    
   2492000   302.38298     -303.35453      54613.149     -20942.457      3382.7524     -17559.705      1.0445737    
   2493000   301.91435     -168.51905      54706.487     -20887.805      3377.5098     -17510.295      1.0427915    
   2494000   306.40477      222.9908       55071.389     -20835.2        3427.744      -17407.456      1.0358819    
   2495000   296.01823     -270.8008       55106.498     -20803.018      3311.55       -17491.468      1.035222     
   2496000   299.23434     -300.06954      54644.755     -20868.77       3347.5286     -17521.241      1.0439695    
   2497000   298.74932     -779.5903       55370.894     -20786.861      3342.1027     -17444.759      1.0302788    
   2498000   302.80304      19.162002      55388.959     -20798.24       3387.4515     -17410.788      1.0299428    
   2499000   304.96374      96.59594       54849.487     -20889.846      3411.6233     -17478.223      1.0400728    
   2500000   299.43837     -415.76334      54438.115     -21076.149      3349.811      -17726.338      1.0479323    
   2501000   304.23525      18.234837      54950.544     -20862.498      3403.4737     -17459.024      1.03816      
   2502000   304.00081      363.54436      54993.049     -20881.601      3400.851      -17480.75       1.0373576    
   2503000   297.29865     -890.63432      54965.983     -20910.67       3325.8741     -17584.796      1.0378684    
   2504000   304.04038     -809.99972      54814.348     -20958.478      3401.2937     -17557.184      1.0407395    
   2505000   307.01744      55.023856      54372.089     -20886.423      3434.5981     -17451.825      1.0492048    
   2506000   304.63856     -553.0587       55326.344     -20867.605      3407.9856     -17459.62       1.0311084    
   2507000   305.55858     -76.114958      54434.229     -20885.17       3418.2778     -17466.892      1.0480071    
   2508000   297.804       -32.820732      54355.14      -20779.104      3331.5274     -17447.577      1.049532     
   2509000   299.51233      66.355114      54870.037     -20869.997      3350.6385     -17519.359      1.0396832    
   2510000   298.24613     -84.04899       54605.158     -20760.962      3336.4736     -17424.488      1.0447265    
   2511000   299.20565      602.12567      54532.834     -20725.227      3347.2076     -17378.019      1.0461121    
   2512000   301.86827      1091.5977      54478.546     -20746.235      3376.9944     -17369.241      1.0471546    
   2513000   298.02838     -401.22426      54372.652     -20830.216      3334.0376     -17496.179      1.0491939    
   2514000   295.18357     -650.07605      54516.337     -20869.971      3302.2127     -17567.759      1.0464287    
   2515000   298.70541      346.63391      54502.78      -20950.37       3341.6114     -17608.759      1.0466889    
   2516000   302.86358      143.16087      54450.648     -21076.124      3388.1289     -17687.995      1.0476911    
   2517000   294.65505     -315.14693      54503.732     -20783.151      3296.3002     -17486.851      1.0466707    
   2518000   305.03216      159.89478      54434.581     -20843.641      3412.3887     -17431.253      1.0480003    
   2519000   303.62554      244.71003      55130.241     -20874.631      3396.6529     -17477.978      1.0347761    
   2520000   296.53801     -22.134439      54731.825     -20850.232      3317.3648     -17532.867      1.0423087    
   2521000   301.75413      42.27115       54560.863     -20940.915      3375.7175     -17565.197      1.0455747    
   2522000   304.33485     -186.20278      55251.408     -20899.549      3404.588      -17494.961      1.0325069    
   2523000   305.61047      140.86831      55158.01      -20808.031      3418.8582     -17389.173      1.0342552    
   2524000   298.45322      670.31381      54806.666     -20888.046      3338.7903     -17549.256      1.0408854    
   2525000   303.43113      895.58841      54375.862     -20688.924      3394.478      -17294.446      1.049132     
   2526000   297.00354     -476.47236      55004.646     -20951.375      3322.5727     -17628.802      1.0371389    
   2527000   294.59086      216.09578      54647.6       -20821.427      3295.5821     -17525.845      1.0439152    
   2528000   302.18205     -241.04044      54373.94      -20912.936      3380.5046     -17532.431      1.0491691    
   2529000   300.0711       1144.1714      54442.546     -20817.151      3356.8894     -17460.261      1.047847     
   2530000   287.14294      591.30374      54444.584     -20806.834      3212.2624     -17594.572      1.0478078    
   2531000   304.24752     -128.59159      54824.492     -20853.15       3403.611      -17449.539      1.0405469    
   2532000   306.52921      43.097563      55231.602     -20902.944      3429.1361     -17473.808      1.0328771    
   2533000   303.56871     -511.63878      54747.918     -20769.615      3396.0172     -17373.598      1.0420023    
   2534000   291.60854      785.39436      54516.102     -20778.304      3262.219      -17516.085      1.0464332    
   2535000   290.94549      114.28517      54851.232     -20845.617      3254.8014     -17590.816      1.0400397    
   2536000   305.87891     -364.25416      55017.349     -20811.278      3421.8612     -17389.417      1.0368994    
   2537000   304.07144      635.38899      54688.622     -20798.861      3401.6412     -17397.22       1.0431321    
   2538000   302.75648      294.43081      54736.639     -20727.576      3386.9307     -17340.645      1.042217     
   2539000   300.30271     -299.50284      54670.64      -20790.124      3359.4804     -17430.644      1.0434752    
   2540000   295.3774       66.482728      54738.555     -20742.199      3304.3811     -17437.818      1.0421806    
   2541000   301.55177      633.83821      54600.64      -20875.437      3373.4536     -17501.983      1.044813     
   2542000   301.96391      692.33344      54357.587     -20830.636      3378.0642     -17452.571      1.0494847    
   2543000   295.4515       130.51094      54399.076     -20858.313      3305.2101     -17553.103      1.0486843    
   2544000   296.6681       64.707746      54504.4       -20816.032      3318.8202     -17497.212      1.0466578    
   2545000   291.91727     -514.21127      54388.088     -20836.572      3265.6727     -17570.899      1.0488962    
   2546000   299.57739     -38.002063      54492.626     -20864.582      3351.3663     -17513.216      1.046884     
   2547000   303.13226     -196.96277      54531.539     -20844.29       3391.1346     -17453.155      1.0461369    
   2548000   299.30139     -691.97729      54865.427     -20736.555      3348.2787     -17388.276      1.0397706    
   2549000   303.85179      430.38993      54486.272     -20915.705      3399.184      -17516.521      1.0470061    
   2550000   298.34795     -274.19107      54824.659     -20936.872      3337.6126     -17599.259      1.0405438    
   2551000   302.05799      576.92271      54423.249     -20933.713      3379.1167     -17554.596      1.0482185    
   2552000   301.4043      -715.96801      55028.305     -20804.558      3371.804      -17432.754      1.036693     
   2553000   304.4434      -510.90905      55218.94      -20947.603      3405.8023     -17541.801      1.033114     
   2554000   296.93191      72.225011      54546.533     -20840.794      3321.7714     -17519.022      1.0458494    
   2555000   304.87535     -690.86012      54572.372     -20921.406      3410.6344     -17510.772      1.0453542    
   2556000   292.70309     -822.28211      54798.794     -20899.794      3274.4637     -17625.33       1.0410349    
   2557000   296.69901     -248.33424      54682.894     -20885.704      3319.1659     -17566.538      1.0432414    
   2558000   295.64681     -425.75502      54853.577     -20820.822      3307.395      -17513.427      1.0399952    
   2559000   299.03051      335.87174      54937.902     -20794.965      3345.2484     -17449.717      1.0383989    
   2560000   300.87788     -116.41871      54194.461     -20847.61       3365.9149     -17481.695      1.0526437    
   2561000   301.59268      228.86985      54193.753     -20918.131      3373.9113     -17544.22       1.0526574    
   2562000   297.2597      -107.10128      54399.384     -20896.431      3325.4383     -17570.993      1.0486784    
   2563000   300.1703      -119.56947      54583.273     -20929.592      3357.9992     -17571.593      1.0451454    
   2564000   304.49323     -252.18299      54520.282     -21041.849      3406.3597     -17635.49       1.046353     
   2565000   300.05594     -110.74851      54651.763     -20873.459      3356.7198     -17516.739      1.0438356    
   2566000   299.09303     -105.60819      54223.168     -20936.091      3345.9478     -17590.143      1.0520864    
   2567000   298.30917     -473.54724      54896.189     -20803.231      3337.1788     -17466.052      1.0391879    
   2568000   304.41577     -263.41148      54882.093     -20899.066      3405.4932     -17493.573      1.0394549    
   2569000   300.66138     -1095.4507      54959.644     -20714.416      3363.4929     -17350.923      1.0379881    
   2570000   298.93585      219.04158      54582.898     -20876.023      3344.1894     -17531.834      1.0451526    
   2571000   305.32155      133.79404      54508.43      -20709.23       3415.6262     -17293.604      1.0465805    
   2572000   297.39535      921.85177      54890.853     -20795.298      3326.9559     -17468.342      1.039289     
   2573000   306.24049      579.96936      54711.386     -20886.2        3425.9063     -17460.294      1.0426981    
   2574000   309.83953     -89.543003      54922.291     -20929.772      3466.1687     -17463.603      1.0386941    
   2575000   291.4195       1082.1129      54246.625     -20690.766      3260.1041     -17430.662      1.0516315    
   2576000   307.98758      20.926556      54325.175     -20806.88       3445.4509     -17361.429      1.0501109    
   2577000   306.67588     -168.89571      54385.154     -20888.926      3430.777      -17458.149      1.0489528    
   2578000   300.42892     -941.10197      54763.223     -20829.128      3360.8924     -17468.236      1.0417111    
   2579000   302.10448     -364.61734      54581.377     -20793.238      3379.6368     -17413.602      1.0451817    
   2580000   302.82385     -295.07788      54529.756     -20861.056      3387.6843     -17473.372      1.0461712    
   2581000   302.32831     -103.21237      55125.95      -20973.281      3382.1408     -17591.14       1.0348567    
   2582000   300.74914      118.40747      54538.702     -20931.626      3364.4747     -17567.152      1.0459996    
   2583000   289.65121      422.73129      54633.084     -20882.686      3240.3223     -17642.363      1.0441925    
   2584000   296.10673      209.64251      54684.611     -20871.811      3312.5401     -17559.27       1.0432086    
   2585000   305.10151      1202.5634      54487.822     -20905.912      3413.1645     -17492.748      1.0469763    
   2586000   299.31012      666.71569      54880.457     -20791.647      3348.3763     -17443.271      1.0394858    
   2587000   300.7692       63.469075      54585.04      -20870.401      3364.699      -17505.702      1.0451116    
   2588000   297.70519     -706.42049      54537.302     -20821.878      3330.422      -17491.456      1.0460264    
   2589000   303.98959     -602.98443      54473.275     -20878.7        3400.7254     -17477.975      1.0472559    
   2590000   300.4442       646.22747      54246.014     -20840.794      3361.0633     -17479.731      1.0516433    
   2591000   294.36262     -181.53532      54389.668     -20959.424      3293.0288     -17666.396      1.0488657    
   2592000   296.62433     -73.396067      54292.677     -20844.733      3318.3305     -17526.402      1.0507395    
   2593000   303.60578     -138.04586      54168.908     -20812.667      3396.4318     -17416.235      1.0531402    
   2594000   303.07498      255.5081       54299.032     -20866.854      3390.4938     -17476.361      1.0506165    
   2595000   303.34993     -453.82817      54690.49      -20920.939      3393.5697     -17527.37       1.0430965    
   2596000   299.07431      274.44109      55004.242     -20875.192      3345.7383     -17529.454      1.0371465    
   2597000   297.72167     -288.31508      54734.213     -20947.867      3330.6063     -17617.261      1.0422632    
   2598000   299.92282      472.22697      54671.186     -20925.219      3355.2306     -17569.988      1.0434648    
   2599000   294.55003     -107.92734      54356.54      -20904.843      3295.1254     -17609.717      1.049505     
   2600000   297.67841      874.24441      54480.565     -20837.012      3330.1225     -17506.889      1.0471157    
   2600010   298.4192       614.08637      54534.634     -20852.313      3338.4096     -17513.903      1.0460776    
Loop time of 77981.9 on 10 procs for 2000000 steps with 5541 atoms

Performance: 4.432 ns/day, 5.415 hours/ns, 25.647 timesteps/s, 142.110 katom-step/s
629.6% CPU use with 1 MPI tasks x 10 OpenMP threads

MPI task timing breakdown:
Section |  min time  |  avg time  |  max time  |%varavg| %total
---------------------------------------------------------------
Pair    | 2348.6     | 2348.6     | 2348.6     |   0.0 |  3.01
Bond    | 26.119     | 26.119     | 26.119     |   0.0 |  0.03
Kspace  | 35466      | 35466      | 35466      |   0.0 | 45.48
Neigh   | 82.403     | 82.403     | 82.403     |   0.0 |  0.11
Comm    | 920.59     | 920.59     | 920.59     |   0.0 |  1.18
Output  | 31.343     | 31.343     | 31.343     |   0.0 |  0.04
Modify  | 38755      | 38755      | 38755      |   0.0 | 49.70
Other   |            | 352.5      |            |       |  0.45

Nlocal:           5541 ave        5541 max        5541 min
Histogram: 1 0 0 0 0 0 0 0 0 0
Nghost:          35573 ave       35573 max       35573 min
Histogram: 1 0 0 0 0 0 0 0 0 0
Neighs:     4.7561e+06 ave  4.7561e+06 max  4.7561e+06 min
Histogram: 1 0 0 0 0 0 0 0 0 0

Total # of neighbors = 4756100
Ave neighs/atom = 858.34687
Ave special neighs/atom = 2.4872767
Neighbor list builds = 186558
Dangerous builds = 0

unfix mynpt
undump prod_traj
undump prod_dcd
undump prod_img
unfix thermo_avg
unfix thermo_detailed
unfix rdf_CO_avg
unfix rdf_CC_avg
unfix rdf_OO_avg
unfix msd_avg
uncompute rdf_CO
uncompute rdf_CC
uncompute rdf_OO
uncompute msd_water

#==============================================================================
# FINAL OUTPUT AND VERIFICATION
#==============================================================================
print ""

print "===== Saving Final Configuration ====="
===== Saving Final Configuration =====

write_data equilibrated_system.data
System init for write_data ...
PPPM initialization ...
  extracting TIP4P info from pair style
  using 12-bit tables for long-range coulomb
  G vector (1/distance) = 0.28823995
  grid = 50 50 50
  stencil order = 5
  estimated absolute RMS force accuracy = 0.00033127579
  estimated relative force accuracy = 9.9762719e-07
  using double precision FFTW3
  3d grid and FFT values/proc = 205379 125000
Generated 0 of 3 mixed pair_coeff terms from geometric mixing rule
WARNING: Not all mixed pair coeffs generated from mixing. Use write_data with 'pair ij' option to store all pair coeffs. (src/write_data.cpp:364)
write_restart equilibrated_system.restart
System init for write_restart ...
PPPM initialization ...
  extracting TIP4P info from pair style
  using 12-bit tables for long-range coulomb
  G vector (1/distance) = 0.28823995
  grid = 50 50 50
  stencil order = 5
  estimated absolute RMS force accuracy = 0.00033127579
  estimated relative force accuracy = 9.9762719e-07
  using double precision FFTW3
  3d grid and FFT values/proc = 205379 125000
Generated 0 of 3 mixed pair_coeff terms from geometric mixing rule

print ""

print "â•â•â•â•â•â•â•â•â•â•â•â•â•â•â•â•â•â•â•â•â•â•â•â•â•â•â•â•â•â•â•â•â•â•â•â•â•â•â•â•â•â•â•â•â•â•â•â•â•â•â•â•â•â•â•â•â•â•â•â•â•â•â•â•â•â•â•â•â•â•â•â•â•â•â•â•"
••••••••••••••••••••••••••••••••••••••••••••••••••••••••••••••••••••••••••••
print "                     EQUILIBRATION COMPLETE - SUCCESS!"
                     EQUILIBRATION COMPLETE - SUCCESS!
print "â•â•â•â•â•â•â•â•â•â•â•â•â•â•â•â•â•â•â•â•â•â•â•â•â•â•â•â•â•â•â•â•â•â•â•â•â•â•â•â•â•â•â•â•â•â•â•â•â•â•â•â•â•â•â•â•â•â•â•â•â•â•â•â•â•â•â•â•â•â•â•â•â•â•â•â•"
••••••••••••••••••••••••••••••••••••••••••••••••••••••••••••••••••••••••••••
print ""

print "Simulation Summary:"
Simulation Summary:
print "  Total simulation time: 5.22 ns"
  Total simulation time: 5.22 ns
print "    - NVT thermalization:     50 ps"
    - NVT thermalization:     50 ps
print "    - Pre-equilibration:      50 ps  (NEW - prevents PPPM artifacts)"
    - Pre-equilibration:      50 ps  (NEW - prevents PPPM artifacts)
print "    - Pressure ramp:         100 ps  (EXTENDED and with drag damping)"
    - Pressure ramp:         100 ps  (EXTENDED and with drag damping)
print "    - NPT equilibration:    1000 ps"
    - NPT equilibration:    1000 ps
print "    - Production run:       4000 ps (4 ns)"
    - Production run:       4000 ps (4 ns)
print ""


# Final measurements
variable final_temp equal temp
variable final_press equal press
variable final_dens equal density
variable final_vol equal vol
variable final_boxsize equal vol^(1.0/3.0)
variable final_pe equal pe
variable final_ke equal ke
variable final_etotal equal etotal

print "Final Thermodynamic State:"
Final Thermodynamic State:
print "  Temperature:    ${final_temp} K      (target: 300K)"
  Temperature:    298.419197343146 K      (target: 300K)
print "  Pressure:       ${final_press} atm   (target: 1 atm)"
  Pressure:       614.086367634758 atm   (target: 1 atm)
print "  Density:        ${final_dens} g/cmÂ³  (target: 0.95-1.05)"
  Density:        1.04607756646647 g/cm³  (target: 0.95-1.05)
print "  Volume:         ${final_vol} Ã…Â³"
  Volume:         54534.6343760119 …³
print "  Box size:       ${final_boxsize} Ã…    (expected: 58-63)"
  Box size:       37.9219622816962 …    (expected: 58-63)
print ""

print "Final Energies:"
Final Energies:
print "  Potential:      ${final_pe} kcal/mol"
  Potential:      -20852.3125281127 kcal/mol
print "  Kinetic:        ${final_ke} kcal/mol"
  Kinetic:        3338.40962740284 kcal/mol
print "  Total:          ${final_etotal} kcal/mol"
  Total:          -17513.9029007099 kcal/mol
print ""


# Comprehensive validation
if "${final_dens} >= 0.85 && ${final_dens} <= 1.15" then     "print 'âœ… SUCCESS: System equilibrated to LIQUID PHASE!'"     "print ''"     "print 'Quality Indicators:'"     "if '${final_dens} >= 0.95 && ${final_dens} <= 1.05' then 'print \"  âœ“ Density: EXCELLENT (within 5% of water)\"' else 'print \"  âš  Density: ACCEPTABLE (but check TIP4P/2005 reference)\"'"     "if '${final_press} >= -50.0 && ${final_press} <= 50.0' then 'print \"  âœ“ Pressure: EXCELLENT (normal fluctuations)\"' else 'print \"  âš  Pressure: CHECK (may need longer equilibration)\"'"     "if '${final_temp} >= 295.0 && ${final_temp} <= 305.0' then 'print \"  âœ“ Temperature: EXCELLENT\"' else 'print \"  âš  Temperature: CHECK (thermostat may need tuning)\"'" else     "print 'âš ï¸  WARNING: Density ${final_dens} g/cmÂ³ outside normal range'"     "print 'Expected: 0.95-1.05 g/cmÂ³ for TIP4P/2005 water at 300K, 1 atm'"     "print ''"     "print 'Possible explanations:'"     "print '  - System still equilibrating (try longer NPT)'"     "print '  - Force field parameters incorrect'"     "print '  - Nanoparticle affecting bulk water density'"
ERROR: Input line quote not followed by white-space (src/input.cpp:556)
Last input line: if "${final_dens} >= 0.85 && ${final_dens} <= 1.15" then "print 'âœ… SUCCESS: System equilibrated to LIQUID PHASE!'" "print ''" "print 'Quality Indicators:'" "if '${final_dens} >= 0.95 && ${final_dens} <= 1.05' then 'print \" âœ“ Density: EXCELLENT (within 5% of water)\"' else 'print \" âš  Density: ACCEPTABLE (but check TIP4P/2005 reference)\"'" "if '${final_press} >= -50.0 && ${final_press} <= 50.0' then 'print \" âœ“ Pressure: EXCELLENT (normal fluctuations)\"' else 'print \" âš  Pressure: CHECK (may need longer equilibration)\"'" "if '${final_temp} >= 295.0 && ${final_temp} <= 305.0' then 'print \" âœ“ Temperature: EXCELLENT\"' else 'print \" âš  Temperature: CHECK (thermostat may need tuning)\"'" else "print 'âš ï¸ WARNING: Density ${final_dens} g/cmÂ³ outside normal range'" "print 'Expected: 0.95-1.05 g/cmÂ³ for TIP4P/2005 water at 300K, 1 atm'" "print ''" "print 'Possible explanations:'" "print ' - System still equilibrating (try longer NPT)'" "print ' - Force field parameters incorrect'" "print ' - Nanoparticle affecting bulk water density'"
