LAMMPS (10 Sep 2025)
  using 5 OpenMP thread(s) per MPI task
package gpu 1 neigh yes newton off binsize 2.8 split 1.0
# LAMMPS Input Script: FULLY CORRECTED NPT Equilibration
# Purpose: Equilibrate solvated nanoparticle system at 300K, 1 bar
# Water Model: TIP4P/2005 (implicit M-site)
# GPU acceleration: Enabled for MD stages
#
# COMPLETE FIXES APPLIED (2024-11-13):
# 1. âœ… CRITICAL FIX: PPPM grid locked to prevent recalculation artifacts
# 2. âœ… CRITICAL FIX: Pre-equilibration stage to reduce initial pressure
# 3. âœ… FIXED: Gentler pressure ramp (100 atm â†’ 1 atm) with drag damping
# 4. âœ… FIXED: SHAKE verification and proper constraint application
# 5. âœ… EXTENDED: Longer equilibration (1000 ps) and production (4000 ps)
# 6. âœ… ENHANCED: Multiple density checkpoints to catch failures early
# 7. âœ… OPTIMIZED: 2 fs timestep (SHAKE allows this, 2Ã— speedup)
#
# Total time: 5.22 ns (50ps NVT + 50ps pre-equil + 100ps ramp + 1000ps NPT + 4000ps prod)
#
# ROOT CAUSE OF PREVIOUS FAILURE:
# - PPPM grid recalculation at step 51,000 caused 169,712 atm pressure spike
# - Barostat overreacted â†’ box expanded 63Ã— â†’ gas phase (Ï=0.025 g/cmÂ³)
# - All epsilon values failed identically (proves it's numerical, not physical)
#
# SOLUTION: Lock PPPM grid + reduce initial pressure + add checkpoints

# ===== INITIALIZATION =====
units real
atom_style full
boundary p p p
atom_modify map array

# ===== COMMUNICATION =====
# Increased cutoff to handle potential box fluctuations safely
comm_modify cutoff 18.0

# ===== FORCE FIELD (FULLY GPU-accelerated) =====
# CORRECTED: O=type2, H=type3 (C60 carbon is type1)
pair_style lj/cut/tip4p/long/gpu 2 3 2 1 0.1546 12.0

# ğŸ”§ CRITICAL: Use pppm/gpu for FULL GPU acceleration of Coulomb forces
# pppm/tip4p is CPU-based bottleneck (~90% CPU, ~10% GPU)
# pppm/gpu runs Coulomb solver on GPU â†’ 5-10Ã— speedup for long-range forces
kspace_style pppm/gpu 1.0e-4

# ğŸ”§ CRITICAL FIX #1: Lock PPPM grid to prevent recalculation
# This prevents the 169,712 atm pressure spike that caused gas-phase failure
kspace_modify mesh 50 50 50    # Fixed grid (handles boxes up to ~125 Ã…, increased from 40)
kspace_modify order 5           # Higher interpolation order for accuracy
kspace_modify force/disp/real 0.8  # Balance real/k-space work

bond_style harmonic
angle_style harmonic

read_data large_C60_solvated.data
Reading data file ...
  orthogonal box = (-20 -20 -20) to (20 20 20)
  1 by 1 by 1 MPI processor grid
  reading atoms ...
  5541 atoms
  reading velocities ...
  5541 velocities
  scanning bonds ...
  3 = max bonds/atom
  scanning angles ...
  1 = max angles/atom
  orthogonal box = (-20 -20 -20) to (20 20 20)
  1 by 1 by 1 MPI processor grid
  reading bonds ...
  3844 bonds
  reading angles ...
  1787 angles
Finding 1-2 1-3 1-4 neighbors ...
  special bond factors lj:    0        0        0       
  special bond factors coul:  0        0        0       
     3 = max # of 1-2 neighbors
     6 = max # of 1-3 neighbors
    18 = max # of 1-4 neighbors
    17 = max # of special neighbors
  special bonds CPU = 0.002 seconds
  read_data CPU = 0.067 seconds

# ===== PAIR COEFFICIENTS (CORRECTED ATOM TYPE MAPPING) =====
# Type 1: C60 carbon (180 atoms from 3 C60 particles)
# Type 2: Water oxygen (~2000 molecules)
# Type 3: Water hydrogen (~4000 atoms)
# TIP4P/2005 parameters (verified against literature)
pair_coeff 2 2 0.1852 3.1589    # O-O (type 2, Îµ=0.1852 kcal/mol, Ïƒ=3.1589 Ã…)
pair_coeff 3 3 0.0 0.0          # H-H (type 3, no interaction)

# C60 fullerene parameters
pair_coeff 1 1 0.07 3.4         # C-C (type 1, Îµ=0.07 kcal/mol, Ïƒ=3.4 Ã…)

# C60-water cross interactions
# Tunable parameter (passed from bash script via -var)
variable epsilon_co equal ${EPSILON_CO}
variable epsilon_co equal 1.05
pair_coeff 1 2 ${epsilon_co} 3.2   # C-O (hydrophobicity parameter)
pair_coeff 1 2 1.05 3.2   
pair_coeff 1 3 0.0 0.0             # C-H (no interaction)
pair_coeff 2 3 0.0 0.0             # O-H (no LJ, only Coulombic)

# Bond and angle coefficients
bond_coeff 1 938.0 1.42         # C-C bonds in C60 (bond type 1)
bond_coeff 2 0.0 0.9572         # O-H bonds in water (bond type 2, SHAKE controlled)
angle_coeff 1 0.0 104.52        # H-O-H angle in water (angle type 1, SHAKE controlled)

# ===== SETTINGS =====
neighbor 2.0 bin                 # Increased skin for safety
neigh_modify delay 5 every 1 check yes

# Define groups (CORRECTED)
group carbon type 1        # C60 atoms (type 1)
180 atoms in group carbon
group water type 2 3       # All water atoms (O=type2, H=type3)
5361 atoms in group water
group oxygen type 2        # Water oxygen atoms (type 2)
1787 atoms in group oxygen
group hydrogen type 3      # Water hydrogen atoms (type 3)
3574 atoms in group hydrogen

# Define individual C60 molecules (60 atoms each)
# Assuming atoms 1-60 = C60_1, 61-120 = C60_2, 121-180 = C60_3
group c60_1 id 1:60
60 atoms in group c60_1
group c60_2 id 61:120
60 atoms in group c60_2
group c60_3 id 121:180
60 atoms in group c60_3

# Define thermodynamic variables
variable temp equal c_thermo_temp
variable press equal c_thermo_press
variable pe equal pe
variable ke equal ke
variable etotal equal etotal
variable vol equal vol
variable dens equal density

thermo_style custom step temp press vol pe ke etotal density
thermo 1000

# ğŸ”§ CRITICAL FIX #2: Use 2 fs timestep (SHAKE allows this, 2Ã— speedup)
timestep 2.0

# Print system info
print "â•â•â•â•â•â•â•â•â•â•â•â•â•â•â•â•â•â•â•â•â•â•â•â•â•â•â•â•â•â•â•â•â•â•â•â•â•â•â•â•â•â•â•â•â•â•â•â•â•â•â•â•â•â•â•â•â•â•â•â•â•â•â•â•â•â•â•â•â•â•â•â•â•â•â•â•"
WARNING: Detected non-ASCII characters in input. Will try to continue by replacing with ASCII equivalents where known. (src/input.cpp:479)
••••••••••••••••••••••••••••••••••••••••••••••••••••••••••••••••••••••••••••
print "SYSTEM INFORMATION:"
SYSTEM INFORMATION:
print "  Epsilon (O-C): ${epsilon_co} kcal/mol"
  Epsilon (O-C): 1.05 kcal/mol
print "  Random seed:   ${RANDOM_SEED}"
  Random seed:   42
print "  Timestep:      2.0 fs (with SHAKE constraints)"
  Timestep:      2.0 fs (with SHAKE constraints)
print "  PPPM grid:     40Ã—40Ã—40 (LOCKED to prevent artifacts)"
  PPPM grid:     40—40—40 (LOCKED to prevent artifacts)
print "â•â•â•â•â•â•â•â•â•â•â•â•â•â•â•â•â•â•â•â•â•â•â•â•â•â•â•â•â•â•â•â•â•â•â•â•â•â•â•â•â•â•â•â•â•â•â•â•â•â•â•â•â•â•â•â•â•â•â•â•â•â•â•â•â•â•â•â•â•â•â•â•â•â•â•â•"
••••••••••••••••••••••••••••••••••••••••••••••••••••••••••••••••••••••••••••
print ""


#==============================================================================
# STAGE 0: Gentle Minimization (CPU pair style for stability)
#==============================================================================
print "===== STAGE 0: Gentle Minimization (removing any overlaps) ====="
===== STAGE 0: Gentle Minimization (removing any overlaps) =====
print "Using CPU pair style for numerical stability during minimization"
Using CPU pair style for numerical stability during minimization
print ""


# Switch to CPU pair style for minimization (GPU can be unstable)
pair_style lj/cut/tip4p/long 2 3 2 1 0.1546 12.0
kspace_style pppm/tip4p 1.0e-4
kspace_modify mesh 50 50 50
kspace_modify order 5

# Re-apply pair coefficients with current epsilon_co
pair_coeff 1 1 0.07 3.4            # C-C
pair_coeff 2 2 0.1852 3.1589       # O-O
pair_coeff 3 3 0.0 0.0             # H-H
pair_coeff 1 2 ${epsilon_co} 3.2   # C-O (variable)
pair_coeff 1 2 1.05 3.2   
pair_coeff 1 3 0.0 0.0             # C-H
pair_coeff 2 3 0.0 0.0             # O-H

# Very gentle minimization (just remove bad contacts, if any)
# Using very relaxed tolerances and limited steps for speed
thermo 100
minimize 0.0 10.0 10 100  # Ultra-gentle: etol=0, ftol=10, max 10 eval, max 100 iter

CITE-CITE-CITE-CITE-CITE-CITE-CITE-CITE-CITE-CITE-CITE-CITE-CITE

Your simulation uses code contributions which should be cited:

- GPU package (short-range, long-range and three-body potentials): doi:10.1016/j.cpc.2010.12.021, doi:10.1016/j.cpc.2011.10.012, doi:10.1016/j.cpc.2013.08.002, doi:10.1016/j.commatsci.2014.10.068, doi:10.1016/j.cpc.2016.10.020, doi:10.3233/APC200086

@Article{Brown11,
 author = {W. M. Brown and P. Wang and S. J. Plimpton and A. N. Tharrington},
 title = {Implementing Molecular Dynamics on Hybrid High Performance Computers---Short Range Forces},
 journal = {Comput.\ Phys.\ Commun.},
 year =    2011,
 volume =  182,
 pages =   {898--911},
 doi =     {10.1016/j.cpc.2010.12.021}
}

@Article{Brown12,
 author = {W. M. Brown and A. Kohlmeyer and S. J. Plimpton and A. N. Tharrington},
 title = {Implementing Molecular Dynamics on Hybrid High Performance Computers - Particle-Particle Particle-Mesh},
 journal = {Comput.\ Phys.\ Commun.},
 year =    2012,
 volume =  183,
 doi =     {10.1016/j.cpc.2011.10.012},
 pages =   {449--459}
}

@Article{Brown13,
 author = {W. M. Brown and Y. Masako},
 title = {Implementing Molecular Dynamics on Hybrid High Performance Computers---Three-Body Potentials},
 journal = {Comput.\ Phys.\ Commun.},
 year =    2013,
 volume =  184,
 pages =   {2785--2793},
 doi =     {10.1016/j.cpc.2013.08.002},
}

@Article{Trung15,
 author = {T. D. Nguyen and S. J. Plimpton},
 title = {Accelerating Dissipative Particle Dynamics Simulations for Soft Matter Systems},
 journal = {Comput.\ Mater.\ Sci.},
 year =    2015,
 doi =     {10.1016/j.commatsci.2014.10.068},
 volume =  100,
 pages =   {173--180}
}

@Article{Trung17,
 author = {T. D. Nguyen},
 title = {{GPU}-Accelerated {T}ersoff Potentials for Massively Parallel
    Molecular Dynamics Simulations},
 journal = {Comput.\ Phys.\ Commun.},
 year =    2017,
 doi =     {10.1016/j.cpc.2016.10.020},
 volume =  212,
 pages =   {113--122}
}

@inproceedings{Nikolskiy19,
 author = {V. Nikolskiy and V. Stegailov},
 title = {{GPU} Acceleration of Four-Site Water Models in {LAMMPS}},
 booktitle = {Proceedings of the International Conference on Parallel
    Computing (ParCo 2019), Prague, Czech Republic},
 doi =     {10.3233/APC200086},
 year =    2019
}

CITE-CITE-CITE-CITE-CITE-CITE-CITE-CITE-CITE-CITE-CITE-CITE-CITE

Switching to 'neigh_modify every 1 delay 0 check yes' setting during minimization
PPPM initialization ...
  extracting TIP4P info from pair style
  using 12-bit tables for long-range coulomb
  G vector (1/distance) = 0.28512662
  grid = 50 50 50
  stencil order = 5
  estimated absolute RMS force accuracy = 0.00038934319
  estimated relative force accuracy = 1.1724955e-06
  using double precision FFTW3
  3d grid and FFT values/proc = 185193 125000
Generated 0 of 3 mixed pair_coeff terms from geometric mixing rule
Per MPI rank memory allocation (min/avg/max) = 51.83 | 51.83 | 51.83 Mbytes
   Step          Temp          Press          Volume         PotEng         KinEng         TotEng        Density    
         0   36.495381      27173.441      64000         -23256.35       602.67332     -22653.677      0.89136653   
        10   36.495381     -19542.913      64000         -142317.54      602.67332     -141714.87      0.89136653   
Loop time of 0.24671 on 5 procs for 10 steps with 5541 atoms

446.0% CPU use with 1 MPI tasks x 5 OpenMP threads

Minimization stats:
  Stopping criterion = max iterations
  Energy initial, next-to-last, final = 
     -23256.3501435643     -124741.020999  -142317.544136518
  Force two-norm initial, final = 2152.697 6846.6301
  Force max component initial, final = 49.704724 352.55966
  Final line search alpha, max atom move = 0.00037952401 0.13380485
  Iterations, force evaluations = 10 10

MPI task timing breakdown:
Section |  min time  |  avg time  |  max time  |%varavg| %total
---------------------------------------------------------------
Pair    | 0.007865   | 0.007865   | 0.007865   |   0.0 |  3.19
Bond    | 0.0022747  | 0.0022747  | 0.0022747  |   0.0 |  0.92
Kspace  | 0.22892    | 0.22892    | 0.22892    |   0.0 | 92.79
Neigh   | 0          | 0          | 0          |   0.0 |  0.00
Comm    | 0.0042282  | 0.0042282  | 0.0042282  |   0.0 |  1.71
Output  | 9.6049e-05 | 9.6049e-05 | 9.6049e-05 |   0.0 |  0.04
Modify  | 7.713e-06  | 7.713e-06  | 7.713e-06  |   0.0 |  0.00
Other   |            | 0.003323   |            |       |  1.35

Nlocal:           5541 ave        5541 max        5541 min
Histogram: 1 0 0 0 0 0 0 0 0 0
Nghost:          33839 ave       33839 max       33839 min
Histogram: 1 0 0 0 0 0 0 0 0 0
Neighs:              0 ave           0 max           0 min
Histogram: 1 0 0 0 0 0 0 0 0 0

Total # of neighbors = 0
Ave neighs/atom = 0
Ave special neighs/atom = 2.4872767
Neighbor list builds = 0
Dangerous builds = 0

variable pe_minimized equal pe
print "Minimization complete. PE = ${pe_minimized} kcal/mol (was -23,217)"
Minimization complete. PE = -142317.544136518 kcal/mol (was -23,217)

# Switch back to GPU pair style for MD
pair_style lj/cut/tip4p/long/gpu 2 3 2 1 0.1546 12.0
kspace_style pppm/tip4p 1.0e-4
kspace_modify mesh 50 50 50
kspace_modify order 5

# Re-apply pair coefficients again after style change
pair_coeff 1 1 0.07 3.4            # C-C
pair_coeff 2 2 0.1852 3.1589       # O-O
pair_coeff 3 3 0.0 0.0             # H-H
pair_coeff 1 2 ${epsilon_co} 3.2   # C-O (variable)
pair_coeff 1 2 1.05 3.2   
pair_coeff 1 3 0.0 0.0             # C-H
pair_coeff 2 3 0.0 0.0             # O-H

print ""


#==============================================================================
# STAGE 0.5: Apply SHAKE Constraints
#==============================================================================
thermo 1000

# ğŸ”§ CRITICAL FIX #3: Apply SHAKE with proper verification
print "Applying SHAKE constraints..."
Applying SHAKE constraints...
# CORRECTED: bond type 2 = O-H, angle type 1 = H-O-H
fix myshk water shake 0.0001 20 0 b 2 a 1
Finding SHAKE clusters ...
       0 = # of size 2 clusters
       0 = # of size 3 clusters
       0 = # of size 4 clusters
    1787 = # of frozen angles
  find clusters CPU = 0.001 seconds

# Verify SHAKE is working
print "SHAKE constraint verification:"
SHAKE constraint verification:
print "  Expected: ~2000 water molecules with constrained bonds and angles"
  Expected: ~2000 water molecules with constrained bonds and angles
print "  Check minimization output for cluster sizes"
  Check minimization output for cluster sizes
print ""

print "GPU Acceleration Status:"
GPU Acceleration Status:
print "  âœ“ Pair forces (LJ):      GPU (lj/cut/tip4p/long/gpu)"
  œ“ Pair forces (LJ):      GPU (lj/cut/tip4p/long/gpu)
print "  âœ“ Coulomb (PPPM):        CPU (pppm/tip4p) - GPU suffix not available"
  œ“ Coulomb (PPPM):        CPU (pppm/tip4p) - GPU suffix not available
print "  âœ“ Neighbor lists:        GPU (neigh yes)"
  œ“ Neighbor lists:        GPU (neigh yes)
print "  â†’ Expected speedup:      2-3Ã— vs CPU-only version (pair forces only)"
  †’ Expected speedup:      2-3— vs CPU-only version (pair forces only)

#==============================================================================
# STAGE 1: NVT Thermalization (50 ps)
#==============================================================================
print ""

print "===== STAGE 1: NVT Thermalization (50 ps, GPU) ====="
===== STAGE 1: NVT Thermalization (50 ps, GPU) =====
print "Objective: Reach 300K while maintaining initial density"
Objective: Reach 300K while maintaining initial density

velocity all create 300.0 ${RANDOM_SEED} dist gaussian loop geom
velocity all create 300.0 42 dist gaussian loop geom

fix mynvt all nvt temp 300.0 300.0 100.0

# Trajectory output (every 4 ps) - using wrapped coordinates for proper visualization
dump nvt_traj all custom 2000 nvt_thermalization.lammpstrj id type xu yu zu
dump_modify nvt_traj sort id

dump nvt_dcd all dcd 2000 nvt_thermalization.dcd
dump_modify nvt_dcd unwrap yes

run 25000  # 50 ps at 2 fs timestep
PPPM initialization ...
  extracting TIP4P info from pair style
  using 12-bit tables for long-range coulomb
  G vector (1/distance) = 0.28512662
  grid = 50 50 50
  stencil order = 5
  estimated absolute RMS force accuracy = 0.00038934319
  estimated relative force accuracy = 1.1724955e-06
  using double precision FFTW3
  3d grid and FFT values/proc = 185193 125000
Generated 0 of 3 mixed pair_coeff terms from geometric mixing rule
Per MPI rank memory allocation (min/avg/max) = 51.29 | 51.29 | 51.29 Mbytes
   Step          Temp          Press          Volume         PotEng         KinEng         TotEng        Density    
        10   300           -112596.56      64000         -142317.54      3356.094      -138961.45      0.89136653   
      1000   295.12839     -1557.8401      64000         -21126.395      3301.5955     -17824.8        0.89136653   
      2000   298.14696     -871.39449      64000         -21524.843      3335.3641     -18189.479      0.89136653   
      3000   298.39497     -1507.0488      64000         -21680.882      3338.1386     -18342.743      0.89136653   
      4000   306.16621     -872.02631      64000         -21807.216      3425.0753     -18382.141      0.89136653   
      5000   300.94594     -1164.2645      64000         -21940.273      3366.6762     -18573.596      0.89136653   
      6000   301.2873      -1488.2486      64000         -21856.107      3370.495      -18485.612      0.89136653   
      7000   294.37332     -1188.8822      64000         -21936.357      3293.1485     -18643.208      0.89136653   
      8000   301.24915     -1053.6143      64000         -21828.597      3370.0682     -18458.528      0.89136653   
      9000   294.8476      -1043.1388      64000         -21914.702      3298.4543     -18616.248      0.89136653   
     10000   296.87482     -1594.4446      64000         -21687.472      3321.1327     -18366.339      0.89136653   
     11000   303.93363     -969.23656      64000         -21837.989      3400.0995     -18437.89       0.89136653   
     12000   296.66184     -1474.8288      64000         -21830.813      3318.7501     -18512.063      0.89136653   
     13000   297.64399     -1387.8402      64000         -21835.087      3329.7374     -18505.35       0.89136653   
     14000   299.06891     -887.98646      64000         -21864.187      3345.678      -18518.509      0.89136653   
     15000   293.31667     -1434.8871      64000         -21833.575      3281.3278     -18552.247      0.89136653   
     16000   301.29556     -908.41279      64000         -21787.38       3370.5874     -18416.793      0.89136653   
     17000   297.96514     -1743.4176      64000         -21857.664      3333.3301     -18524.334      0.89136653   
     18000   302.035       -807.92066      64000         -21921.737      3378.8596     -18542.878      0.89136653   
     19000   301.5492      -1340.6564      64000         -21894.692      3373.425      -18521.267      0.89136653   
     20000   301.90637     -1314.7255      64000         -21861.844      3377.4206     -18484.424      0.89136653   
     21000   298.12        -1185.3632      64000         -21782.349      3335.0626     -18447.286      0.89136653   
     22000   301.64588     -1540.5354      64000         -21961.527      3374.5065     -18587.02       0.89136653   
     23000   300.83144     -811.73838      64000         -21787.804      3365.3954     -18422.408      0.89136653   
     24000   299.38578     -505.01702      64000         -21831.12       3349.2228     -18481.897      0.89136653   
     25000   295.94284     -1381.2412      64000         -21903.866      3310.7067     -18593.16       0.89136653   
     25010   296.05932     -1392.5184      64000         -21899.072      3312.0097     -18587.062      0.89136653   
Loop time of 697.629 on 5 procs for 25000 steps with 5541 atoms

Performance: 6.192 ns/day, 3.876 hours/ns, 35.836 timesteps/s, 198.566 katom-step/s
436.7% CPU use with 1 MPI tasks x 5 OpenMP threads

MPI task timing breakdown:
Section |  min time  |  avg time  |  max time  |%varavg| %total
---------------------------------------------------------------
Pair    | 24.669     | 24.669     | 24.669     |   0.0 |  3.54
Bond    | 0.34808    | 0.34808    | 0.34808    |   0.0 |  0.05
Kspace  | 629.06     | 629.06     | 629.06     |   0.0 | 90.17
Neigh   | 0.084367   | 0.084367   | 0.084367   |   0.0 |  0.01
Comm    | 13.577     | 13.577     | 13.577     |   0.0 |  1.95
Output  | 0.11013    | 0.11013    | 0.11013    |   0.0 |  0.02
Modify  | 26.473     | 26.473     | 26.473     |   0.0 |  3.79
Other   |            | 3.305      |            |       |  0.47

Nlocal:           5541 ave        5541 max        5541 min
Histogram: 1 0 0 0 0 0 0 0 0 0
Nghost:          33473 ave       33473 max       33473 min
Histogram: 1 0 0 0 0 0 0 0 0 0
Neighs:              0 ave           0 max           0 min
Histogram: 1 0 0 0 0 0 0 0 0 0

Total # of neighbors = 0
Ave neighs/atom = 0
Ave special neighs/atom = 2.4872767
Neighbor list builds = 2329
Dangerous builds = 1

unfix mynvt
undump nvt_traj
undump nvt_dcd

write_restart nvt_complete.restart
System init for write_restart ...
PPPM initialization ...
  extracting TIP4P info from pair style
  using 12-bit tables for long-range coulomb
  G vector (1/distance) = 0.28512662
  grid = 50 50 50
  stencil order = 5
  estimated absolute RMS force accuracy = 0.00038934319
  estimated relative force accuracy = 1.1724955e-06
  using double precision FFTW3
  3d grid and FFT values/proc = 185193 125000
Generated 0 of 3 mixed pair_coeff terms from geometric mixing rule

# Check temperature
variable current_temp equal temp
print "NVT complete. Temperature: ${current_temp} K (target: 300K)"
NVT complete. Temperature: 296.059316962747 K (target: 300K)

# ğŸ”§ CHECKPOINT #1: Verify we're still at reasonable density
variable current_dens equal density
if "${current_dens} < 0.7" then     "print 'ERROR: Density dropped during NVT! Current: ${current_dens} g/cmÂ³'"     "print 'This should not happen - check initial configuration'"     "quit 1"

print "âœ“ Checkpoint 1 PASSED: Density = ${current_dens} g/cmÂ³"
œ“ Checkpoint 1 PASSED: Density = 0.891366525253089 g/cm³

#==============================================================================
# STAGE 1.5: Pre-Equilibration at 100 atm (50 ps) - NEW STAGE
#==============================================================================
print ""

print "===== STAGE 1.5: Pre-Equilibration at 100 atm (50 ps, GPU) ====="
===== STAGE 1.5: Pre-Equilibration at 100 atm (50 ps, GPU) =====
print "ğŸ”§ CRITICAL FIX: Reducing initial pressure before main ramp"
Ÿ”§ CRITICAL FIX: Reducing initial pressure before main ramp
print "Objective: Equilibrate volume at moderate pressure to prevent PPPM artifacts"
Objective: Equilibrate volume at moderate pressure to prevent PPPM artifacts
print ""

print "Why this is needed:"
Why this is needed:
print "  - NVT creates high pressure (~800 atm) in fixed volume"
  - NVT creates high pressure (~800 atm) in fixed volume
print "  - Direct ramp from 800â†’1 atm caused 169k atm spike (PPPM grid change)"
  - Direct ramp from 800†’1 atm caused 169k atm spike (PPPM grid change)
print "  - Pre-equilibrating at 100 atm reduces initial pressure safely"
  - Pre-equilibrating at 100 atm reduces initial pressure safely
print "  - Main ramp (100â†’1 atm) will then cause only ~5% box expansion"
  - Main ramp (100†’1 atm) will then cause only ~5% box expansion

# Higher barostat damping for this stage (more conservative)
fix mynpt_pre all npt temp 300.0 300.0 100.0 iso 100.0 100.0 5000.0

dump pre_dcd all dcd 2000 pre_equilibration.dcd
dump_modify pre_dcd unwrap yes

run 25000  # 50 ps at 2 fs timestep
PPPM initialization ...
  extracting TIP4P info from pair style
  using 12-bit tables for long-range coulomb
  G vector (1/distance) = 0.28512662
  grid = 50 50 50
  stencil order = 5
  estimated absolute RMS force accuracy = 0.00038934319
  estimated relative force accuracy = 1.1724955e-06
  using double precision FFTW3
  3d grid and FFT values/proc = 185193 125000
Generated 0 of 3 mixed pair_coeff terms from geometric mixing rule
Per MPI rank memory allocation (min/avg/max) = 51.3 | 51.3 | 51.3 Mbytes
   Step          Temp          Press          Volume         PotEng         KinEng         TotEng        Density    
     25010   296.05932     -1392.1165      64000         -21899.072      3312.0097     -18587.062      0.89136653   
     26000   301.67973     -247.66869      61538.605     -22001.382      3374.8852     -18626.497      0.92701903   
     27000   299.62584     -801.48277      59484.639     -22115.159      3351.9084     -18763.251      0.95902839   
     28000   300.80406     -490.33983      57860.573     -22061.977      3365.089      -18696.888      0.98594699   
     29000   288.8279      -450.03614      56110.095     -22171.897      3231.112      -18940.785      1.0167058    
     30000   303.24137     -1050.1617      55213.621     -22115.724      3392.3552     -18723.369      1.0332135    
     31000   300.49279      181.52507      54518.608     -22113.747      3361.6069     -18752.14       1.0463851    
     32000   295.06793     -579.44868      53722.347     -22275.741      3300.919      -18974.822      1.0618944    
     33000   303.35071      15.797313      53244.303     -22250.133      3393.5784     -18856.554      1.0714284    
     34000   298.22149      327.35889      52854.25      -22247.584      3336.1978     -18911.386      1.0793353    
     35000   298.17864      24.888978      52422.796     -22322.52       3335.7185     -18986.801      1.0882185    
     36000   306.92428     -272.99101      52728.288     -22208.961      3433.5558     -18775.406      1.0819137    
     37000   303.81963      356.65815      53049.379     -22234.92       3398.8242     -18836.096      1.0753652    
     38000   293.17012      958.55978      52940.242     -22224.364      3279.6883     -18944.676      1.0775821    
     39000   304.24144     -730.73635      53402.505     -22224.374      3403.5429     -18820.831      1.0682543    
     40000   301.61684      119.80178      53295.724     -22273.889      3374.1816     -18899.707      1.0703946    
     41000   304.82154      588.28081      53119.693     -22168.106      3410.0325     -18758.074      1.0739418    
     42000   297.75809     -4.9612087      53455.521     -22297.315      3331.0139     -18966.301      1.0671949    
     43000   296.95077     -48.870497      53409.001     -22308.593      3321.9823     -18986.611      1.0681244    
     44000   296.86699     -9.3513907      53169.899     -22255.078      3321.0451     -18934.033      1.0729277    
     45000   299.21404      525.0555       53116.426     -22377.997      3347.3015     -19030.696      1.0740078    
     46000   300.0822      -217.7038       53899.344     -22162.269      3357.0136     -18805.255      1.0584073    
     47000   303.37253      273.28944      53714.217     -22266.389      3393.8224     -18872.566      1.0620551    
     48000   297.20204     -617.79271      52983.745     -22263.439      3324.7933     -18938.646      1.0766973    
     49000   300.6306       292.59757      52955.08      -22310.594      3363.1486     -18947.445      1.0772802    
     50000   307.70235      131.72421      53239.782     -22186.511      3442.2601     -18744.251      1.0715194    
     50010   313.99528     -661.39067      53235.577     -22276.137      3512.6589     -18763.478      1.071604     
Loop time of 1121.39 on 5 procs for 25000 steps with 5541 atoms

Performance: 3.852 ns/day, 6.230 hours/ns, 22.294 timesteps/s, 123.530 katom-step/s
337.8% CPU use with 1 MPI tasks x 5 OpenMP threads

MPI task timing breakdown:
Section |  min time  |  avg time  |  max time  |%varavg| %total
---------------------------------------------------------------
Pair    | 43.349     | 43.349     | 43.349     |   0.0 |  3.87
Bond    | 0.53541    | 0.53541    | 0.53541    |   0.0 |  0.05
Kspace  | 569.31     | 569.31     | 569.31     |   0.0 | 50.77
Neigh   | 0.080322   | 0.080322   | 0.080322   |   0.0 |  0.01
Comm    | 14.606     | 14.606     | 14.606     |   0.0 |  1.30
Output  | 0.014929   | 0.014929   | 0.014929   |   0.0 |  0.00
Modify  | 488.54     | 488.54     | 488.54     |   0.0 | 43.57
Other   |            | 4.943      |            |       |  0.44

Nlocal:           5541 ave        5541 max        5541 min
Histogram: 1 0 0 0 0 0 0 0 0 0
Nghost:          35883 ave       35883 max       35883 min
Histogram: 1 0 0 0 0 0 0 0 0 0
Neighs:              0 ave           0 max           0 min
Histogram: 1 0 0 0 0 0 0 0 0 0

Total # of neighbors = 0
Ave neighs/atom = 0
Ave special neighs/atom = 2.4872767
Neighbor list builds = 2323
Dangerous builds = 0

unfix mynpt_pre
undump pre_dcd

write_restart pre_equilibration_complete.restart
System init for write_restart ...
PPPM initialization ...
  extracting TIP4P info from pair style
  using 12-bit tables for long-range coulomb
  G vector (1/distance) = 0.28866468
  grid = 50 50 50
  stencil order = 5
  estimated absolute RMS force accuracy = 0.00032376549
  estimated relative force accuracy = 9.7501014e-07
  using double precision FFTW3
  3d grid and FFT values/proc = 205379 125000
Generated 0 of 3 mixed pair_coeff terms from geometric mixing rule
write_data pre_equilibration_complete.data
System init for write_data ...
PPPM initialization ...
  extracting TIP4P info from pair style
  using 12-bit tables for long-range coulomb
  G vector (1/distance) = 0.28866468
  grid = 50 50 50
  stencil order = 5
  estimated absolute RMS force accuracy = 0.00032376549
  estimated relative force accuracy = 9.7501014e-07
  using double precision FFTW3
  3d grid and FFT values/proc = 205379 125000
Generated 0 of 3 mixed pair_coeff terms from geometric mixing rule
WARNING: Not all mixed pair coeffs generated from mixing. Use write_data with 'pair ij' option to store all pair coeffs. (src/write_data.cpp:364)

# ğŸ”§ CHECKPOINT #2: Verify still in liquid phase after pre-equilibration
variable current_dens equal density
variable current_press equal press
variable current_vol equal vol

print ""

print "Pre-equilibration complete:"
Pre-equilibration complete:
print "  Density:  ${current_dens} g/cmÂ³"
  Density:  1.07160399894832 g/cm³
print "  Pressure: ${current_press} atm"
  Pressure: -661.390670581029 atm
print "  Volume:   ${current_vol} Ã…Â³"
  Volume:   53235.5773888344 …³

if "${current_dens} < 0.85" then     "print 'ERROR: Density dropped to ${current_dens} during pre-equilibration!'"     "print 'Expected: Still ~0.95 g/cmÂ³ (may increase slightly due to compression)'"     "print 'System failed before main pressure ramp even started!'"     "quit 1"

print "âœ“ Checkpoint 2 PASSED: System stable at 100 atm"
œ“ Checkpoint 2 PASSED: System stable at 100 atm

#==============================================================================
# STAGE 2: GENTLE Pressure Ramp (100 â†’ 1 atm, 100 ps) - CORRECTED
#==============================================================================
print ""

print "===== STAGE 2: Gentle Pressure Ramp (100 ps, GPU) ====="
===== STAGE 2: Gentle Pressure Ramp (100 ps, GPU) =====
print "Ramping pressure from 100 atm â†’ 1 atm with drag damping"
Ramping pressure from 100 atm †’ 1 atm with drag damping
print ""

print "COMPARISON TO FAILED VERSION:"
COMPARISON TO FAILED VERSION:
print "  OLD: 50 atm â†’ 1 atm, no pre-equil â†’ 169,712 atm spike at step 51k"
  OLD: 50 atm †’ 1 atm, no pre-equil †’ 169,712 atm spike at step 51k
print "  NEW: 100 atm â†’ 1 atm, with pre-equil â†’ should be smooth (< 500 atm max)"
  NEW: 100 atm †’ 1 atm, with pre-equil †’ should be smooth (< 500 atm max)

# ğŸ”§ CRITICAL FIX #4: Add drag damping to prevent explosive expansion
fix mynpt_ramp all npt temp 300.0 300.0 100.0 iso 100.0 1.0 2000.0 drag 2.0

dump ramp_dcd all dcd 1000 pressure_ramp.dcd
dump_modify ramp_dcd unwrap yes

# Monitor closely during ramp (every 500 steps = 1 ps)
thermo 500

run 50000  # 100 ps at 2 fs timestep
PPPM initialization ...
  extracting TIP4P info from pair style
  using 12-bit tables for long-range coulomb
  G vector (1/distance) = 0.28866468
  grid = 50 50 50
  stencil order = 5
  estimated absolute RMS force accuracy = 0.00032376549
  estimated relative force accuracy = 9.7501014e-07
  using double precision FFTW3
  3d grid and FFT values/proc = 205379 125000
Generated 0 of 3 mixed pair_coeff terms from geometric mixing rule
Per MPI rank memory allocation (min/avg/max) = 52.14 | 52.14 | 52.14 Mbytes
   Step          Temp          Press          Volume         PotEng         KinEng         TotEng        Density    
     50010   313.99528     -666.00727      53235.577     -22276.08       3512.6589     -18763.421      1.071604     
     50500   297.7066      -65.747714      53315.098     -22225.043      3330.4378     -18894.605      1.0700057    
     51000   300.02195     -505.71539      53118.736     -22337          3356.3396     -18980.66       1.0739611    
     51500   295.08925      245.70721      53497.229     -22257.385      3301.1576     -18956.227      1.0663628    
     52000   297.00857     -66.256441      53809.217     -22276.541      3322.629      -18953.912      1.06018      
     52500   293.62302      375.15862      53480.933     -22256.236      3284.7549     -18971.481      1.0666878    
     53000   303.40221     -223.8799       53300.068     -22313.647      3394.1545     -18919.492      1.0703074    
     53500   295.44325     -339.31569      53111.956     -22259.295      3305.1178     -18954.177      1.0740982    
     54000   294.17264      452.6361       53012.857     -22206.154      3290.9035     -18915.25       1.0761061    
     54500   301.19895     -398.02011      53131.342     -22215.284      3369.5066     -18845.778      1.0737063    
     55000   304.16965     -191.7427       53201.23      -22312.401      3402.7399     -18909.661      1.0722958    
     55500   300.21861      515.98833      53064.321     -22280.107      3358.5396     -18921.568      1.0750624    
     56000   295.65652      213.47944      53086.133     -22239.515      3307.5036     -18932.011      1.0746207    
     56500   304.70778      154.0975       53253.059     -22290.697      3408.7599     -18881.937      1.0712522    
     57000   297.30097      560.23668      52966.145     -22233.866      3325.9        -18907.966      1.0770551    
     57500   302.76129      803.50103      52879.434     -22302.965      3386.9846     -18915.98       1.0788213    
     58000   296.12671      80.950625      53196.004     -22192.586      3312.7637     -18879.823      1.0724012    
     58500   305.07475      266.22632      53147.891     -22282.519      3412.8652     -18869.653      1.073372     
     59000   302.70793     -24.210478      53085.645     -22261.985      3386.3876     -18875.598      1.0746306    
     59500   296.63398     -199.27599      53051.264     -22228.283      3318.4384     -18909.845      1.075327     
     60000   299.54467     -37.244927      53040.905     -22287.781      3351.0003     -18936.78       1.075537     
     60500   299.12357     -293.03419      53479.052     -22290.208      3346.2894     -18943.918      1.0667253    
     61000   300.40775     -333.04636      53857.945     -22285.336      3360.6556     -18924.681      1.0592208    
     61500   298.25275      368.51673      53603.02      -22220.093      3336.5476     -18883.545      1.0642583    
     62000   298.41721      567.42809      53644.892     -22262.568      3338.3874     -18924.181      1.0634276    
     62500   301.58521      198.43861      53613.917     -22311.214      3373.8277     -18937.387      1.064042     
     63000   297.05978     -78.722938      53431.945     -22301.062      3323.2018     -18977.86       1.0676658    
     63500   294.12813      0.24470939     53398.561     -22222.997      3290.4055     -18932.592      1.0683332    
     64000   301.26609     -203.04144      53086.264     -22278.369      3370.2578     -18908.112      1.0746181    
     64500   306.11623     -218.37301      53008.524     -22357.471      3424.5162     -18932.955      1.076194     
     65000   304.49074      126.10093      53147.25      -22303.06       3406.3319     -18896.729      1.0733849    
     65500   292.2958      -245.70033      53421.598     -22188.565      3269.9073     -18918.657      1.0678725    
     66000   293.45351      371.66608      53197.922     -22131.64       3282.8585     -18848.781      1.0723625    
     66500   299.63689     -653.60656      53467.685     -22206.417      3352.032      -18854.385      1.0669521    
     67000   298.96772      554.0674       53135.876     -22202.973      3344.546      -18858.427      1.0736147    
     67500   295.70972      207.86645      53358.105     -22144.115      3308.0987     -18836.016      1.0691432    
     68000   297.5247      -238.88799      53168.324     -22214.806      3328.4029     -18886.403      1.0729595    
     68500   295.92456     -174.22404      53252.564     -22234.337      3310.5022     -18923.835      1.0712622    
     69000   300.12149     -307.7051       53277.409     -22261.839      3357.4532     -18904.386      1.0707626    
     69500   293.14441      359.75178      53098.108     -22249.611      3279.4007     -18970.21       1.0743784    
     70000   296.72277      580.81502      52892.713     -22241.713      3319.4317     -18922.281      1.0785504    
     70500   297.29932     -204.48862      52980.316     -22263.116      3325.8815     -18937.235      1.076767     
     71000   301.66154     -548.71804      53052.871     -22313.12       3374.6816     -18938.438      1.0752944    
     71500   299.33845      86.836908      53095.337     -22275.559      3348.6933     -18926.865      1.0744344    
     72000   301.15484     -117.68908      52839.038     -22283.898      3369.0132     -18914.885      1.079646     
     72500   298.48718     -602.39345      52808.835     -22233.238      3339.1701     -18894.068      1.0802635    
     73000   301.30901      376.68686      52586.304     -22263.223      3370.7379     -18892.485      1.0848349    
     73500   299.87806      437.96999      52778         -22236.943      3354.7299     -18882.213      1.0808947    
     74000   297.8346       1018.6396      53050.923     -22167.829      3331.8697     -18835.959      1.0753339    
     74500   300.3243       705.06767      52907.784     -22263.166      3359.722      -18903.444      1.0782432    
     75000   300.46104     -280.95775      53289.593     -22269.662      3361.2517     -18908.41       1.0705178    
     75500   302.9008      -248.36995      52915.045     -22263.045      3388.5452     -18874.5        1.0780952    
     76000   301.67678     -244.14905      53020.196     -22271.633      3374.8521     -18896.781      1.0759571    
     76500   301.17854     -272.69805      53112.526     -22264.135      3369.2784     -18894.856      1.0740867    
     77000   302.23596      458.08268      53004.117     -22281.425      3381.1076     -18900.317      1.0762835    
     77500   301.89957     -111.14638      53035.248     -22250.21       3377.3445     -18872.865      1.0756518    
     78000   297.37661     -897.0257       52966.488     -22248.029      3326.7462     -18921.283      1.0770481    
     78500   300.49559      144.78215      52627.031     -22310.638      3361.6382     -18949          1.0839954    
     79000   300.90913      353.51774      52846.158     -22289.962      3366.2644     -18923.698      1.0795006    
     79500   297.79615      47.580967      52854.386     -22278.96       3331.4396     -18947.521      1.0793325    
     80000   303.12823     -207.54486      53156.184     -22330.826      3391.0894     -18939.736      1.0732045    
     80500   299.0835      -417.05481      53110.359     -22281.992      3345.8412     -18936.151      1.0741305    
     81000   302.6178      -1011.2886      53354.877     -22285.021      3385.3793     -18899.642      1.0692079    
     81500   304.64727      413.84939      53111.637     -22333.326      3408.083      -18925.243      1.0741047    
     82000   297.97407      262.14661      52974.591     -22249.19       3333.43       -18915.76       1.0768834    
     82500   299.5793       290.46286      53011.338     -22268.227      3351.3877     -18916.839      1.0761369    
     83000   299.43806     -564.16865      53132.174     -22246.653      3349.8076     -18896.845      1.0736895    
     83500   299.32478      163.17527      52927.348     -22243.671      3348.5404     -18895.131      1.0778446    
     84000   299.87187     -224.59442      53111.88      -22242.589      3354.6606     -18887.929      1.0740998    
     84500   294.0248       295.24619      53040.53      -22151.038      3289.2496     -18861.788      1.0755446    
     85000   302.81358     -338.55371      53416.459     -22227.967      3387.5694     -18840.398      1.0679753    
     85500   302.6159       324.26349      53237.364     -22240.097      3385.3581     -18854.739      1.071568     
     86000   291.96926     -130.45796      53146.1       -22184.211      3266.2543     -18917.956      1.0734082    
     86500   298.11634     -409.79192      53464.205     -22235.939      3335.0215     -18900.918      1.0670215    
     87000   300.79987     -13.81669       53194.813     -22302.231      3365.0421     -18937.189      1.0724252    
     87500   300.11571      879.17078      53229.143     -22278.049      3357.3885     -18920.66       1.0717335    
     88000   304.45783      913.86556      52697.234     -22283.654      3405.9637     -18877.69       1.0825513    
     88500   300.64757      306.90423      53088.721     -22276.567      3363.3383     -18913.229      1.0745683    
     89000   299.84083     -568.80911      52926.384     -22243.721      3354.3134     -18889.408      1.0778643    
     89500   298.18376      1042.2719      52980.85      -22171.365      3335.7758     -18835.589      1.0767562    
     90000   299.78228      69.644245      52970.774     -22172.09       3353.6584     -18818.432      1.076961     
     90500   298.35954     -69.111508      53305.135     -22207.176      3337.7422     -18869.433      1.0702057    
     91000   301.01751     -2.8213746      53337.611     -22252.555      3367.4769     -18885.078      1.069554     
     91500   299.97409     -441.48419      53383.636     -22240.011      3355.8042     -18884.207      1.0686319    
     92000   296.4809       781.03981      53075.139     -22258.724      3316.7259     -18941.998      1.0748433    
     92500   302.83467      1103.2618      53186.084     -22293.098      3387.8054     -18905.293      1.0726012    
     93000   300.78078      392.51043      52979.354     -22292.925      3364.8286     -18928.096      1.0767866    
     93500   301.75755      794.4757       53027.519     -22287.667      3375.7557     -18911.911      1.0758085    
     94000   295.6039      -63.152548      53381.284     -22233.387      3306.9149     -18926.473      1.068679     
     94500   296.79889      478.18485      53338.967     -22197.226      3320.2832     -18876.943      1.0695269    
     95000   300.60727     -444.56977      53283.634     -22249.926      3362.8876     -18887.038      1.0706375    
     95500   298.51671      605.53894      53138.298     -22208.094      3339.5004     -18868.594      1.0735658    
     96000   297.5887      -90.670055      53276.563     -22235.475      3329.1189     -18906.356      1.0707796    
     96500   301.72172      166.60068      53226.591     -22256.557      3375.3548     -18881.202      1.0717849    
     97000   298.04359     -11.852084      52987.093     -22185.352      3334.2077     -18851.144      1.0766293    
     97500   294.36416     -6.4393171      53278.464     -22172.631      3293.046      -18879.585      1.0707414    
     98000   302.73081      31.862788      53543.96      -22235.091      3386.6435     -18848.448      1.0654322    
     98500   305.59147     -74.131382      53668.298     -22263.618      3418.6457     -18844.972      1.0629638    
     99000   303.69862     -515.31111      53481.779     -22256.829      3397.4704     -18859.359      1.0666709    
     99500   301.03357     -151.61909      53309.064     -22256.482      3367.6566     -18888.825      1.0701268    
    100000   296.39952      555.96264      53392.119     -22180.92       3315.8155     -18865.104      1.0684621    
    100010   302.60777      269.21855      53399.353     -22252.62       3385.2671     -18867.353      1.0683174    
Loop time of 2223.23 on 5 procs for 50000 steps with 5541 atoms

Performance: 3.886 ns/day, 6.176 hours/ns, 22.490 timesteps/s, 124.616 katom-step/s
339.5% CPU use with 1 MPI tasks x 5 OpenMP threads

MPI task timing breakdown:
Section |  min time  |  avg time  |  max time  |%varavg| %total
---------------------------------------------------------------
Pair    | 85.878     | 85.878     | 85.878     |   0.0 |  3.86
Bond    | 1.0528     | 1.0528     | 1.0528     |   0.0 |  0.05
Kspace  | 1145.3     | 1145.3     | 1145.3     |   0.0 | 51.52
Neigh   | 0.15597    | 0.15597    | 0.15597    |   0.0 |  0.01
Comm    | 28.5       | 28.5       | 28.5       |   0.0 |  1.28
Output  | 0.056714   | 0.056714   | 0.056714   |   0.0 |  0.00
Modify  | 952.4      | 952.4      | 952.4      |   0.0 | 42.84
Other   |            | 9.837      |            |       |  0.44

Nlocal:           5541 ave        5541 max        5541 min
Histogram: 1 0 0 0 0 0 0 0 0 0
Nghost:          35840 ave       35840 max       35840 min
Histogram: 1 0 0 0 0 0 0 0 0 0
Neighs:              0 ave           0 max           0 min
Histogram: 1 0 0 0 0 0 0 0 0 0

Total # of neighbors = 0
Ave neighs/atom = 0
Ave special neighs/atom = 2.4872767
Neighbor list builds = 4645
Dangerous builds = 0

thermo 1000  # Return to normal frequency

unfix mynpt_ramp
undump ramp_dcd

write_restart pressure_ramp_complete.restart
System init for write_restart ...
PPPM initialization ...
  extracting TIP4P info from pair style
  using 12-bit tables for long-range coulomb
  G vector (1/distance) = 0.28861061
  grid = 50 50 50
  stencil order = 5
  estimated absolute RMS force accuracy = 0.00032471216
  estimated relative force accuracy = 9.7786103e-07
  using double precision FFTW3
  3d grid and FFT values/proc = 205379 125000
Generated 0 of 3 mixed pair_coeff terms from geometric mixing rule
write_data pressure_ramp_complete.data
System init for write_data ...
PPPM initialization ...
  extracting TIP4P info from pair style
  using 12-bit tables for long-range coulomb
  G vector (1/distance) = 0.28861061
  grid = 50 50 50
  stencil order = 5
  estimated absolute RMS force accuracy = 0.00032471216
  estimated relative force accuracy = 9.7786103e-07
  using double precision FFTW3
  3d grid and FFT values/proc = 205379 125000
Generated 0 of 3 mixed pair_coeff terms from geometric mixing rule
WARNING: Not all mixed pair coeffs generated from mixing. Use write_data with 'pair ij' option to store all pair coeffs. (src/write_data.cpp:364)

# ğŸ”§ CHECKPOINT #3: Critical check after ramp (most likely failure point)
variable current_dens equal density
variable current_press equal press
variable current_vol equal vol
variable current_boxsize equal vol^(1.0/3.0)

print ""

print "Pressure ramp complete:"
Pressure ramp complete:
print "  Density:  ${current_dens} g/cmÂ³"
  Density:  1.06831739706304 g/cm³
print "  Pressure: ${current_press} atm"
  Pressure: 269.218549622755 atm
print "  Volume:   ${current_vol} Ã…Â³"
  Volume:   53399.3528262568 …³
print "  Box size: ${current_boxsize} Ã…"
  Box size: 37.6569664312968 …

if "${current_dens} < 0.75" then     "print ''"     "print 'ğŸ”´ CRITICAL ERROR: Density collapsed to ${current_dens} g/cmÂ³!'"     "print ''"     "print 'This means the PPPM artifact occurred despite fixes.'"     "print 'Check equilibration.log for pressure spike around step 75,000-85,000'"     "print ''"     "print 'If pressure exceeded 10,000 atm during ramp:'"     "print '  â†’ PPPM grid still recalculating (increase mesh size)'"     "print '  â†’ Try mesh 50 50 50 or mesh 60 60 60'"     "print ''"     "print 'If pressure stayed < 1,000 atm but density still dropped:'"     "print '  â†’ Initial configuration may be problematic'"     "print '  â†’ Check initial_system.data for pre-existing issues'"     "print ''"     "quit 1"

print "âœ“ Checkpoint 3 PASSED: Pressure ramp successful, liquid phase maintained"
œ“ Checkpoint 3 PASSED: Pressure ramp successful, liquid phase maintained

#==============================================================================
# STAGE 3: NPT Equilibration (Complete 1000 ps with 2-phase strategy)
#==============================================================================
print ""

print "===== STAGE 3: NPT Equilibration (1000 ps, GPU) ====="
===== STAGE 3: NPT Equilibration (1000 ps, GPU) =====
print "Equilibrating at 300K, 1 atm with improved pressure control"
Equilibrating at 300K, 1 atm with improved pressure control
print ""

print "Strategy:"
Strategy:
print "  Phase 1 (400 ps): Higher damping for gentle pressure equilibration"
  Phase 1 (400 ps): Higher damping for gentle pressure equilibration
print "  Phase 2 (600 ps): Standard damping for final equilibration"
  Phase 2 (600 ps): Standard damping for final equilibration
print ""


# Phase 1: Gentle NPT with stronger pressure damping (400 ps)
print "Phase 1: Gentle pressure equilibration (400 ps, pdamp=5000)..."
Phase 1: Gentle pressure equilibration (400 ps, pdamp=5000)...
# ğŸ”§ CRITICAL: Using npt/gpu instead of npt for FULL GPU acceleration
fix mynpt_gentle all npt/gpu temp 300.0 300.0 100.0 iso 1.0 1.0 5000.0

dump npt_traj all custom 2000 npt_equilibration.lammpstrj id type xu yu zu
dump_modify npt_traj sort id

dump npt_dcd all dcd 2000 npt_equilibration.dcd
dump_modify npt_dcd unwrap yes

# Thermodynamic averaging during NPT
fix thermo_avg_npt all ave/time 100 10 1000 v_epsilon_co v_temp v_press v_pe v_ke v_etotal v_vol v_dens     file npt_equilibration_thermo.dat

run 200000  # 400 ps at 2 fs timestep
PPPM initialization ...
  extracting TIP4P info from pair style
  using 12-bit tables for long-range coulomb
  G vector (1/distance) = 0.28861061
  grid = 50 50 50
  stencil order = 5
  estimated absolute RMS force accuracy = 0.00032471216
  estimated relative force accuracy = 9.7786103e-07
  using double precision FFTW3
  3d grid and FFT values/proc = 205379 125000
Generated 0 of 3 mixed pair_coeff terms from geometric mixing rule
Per MPI rank memory allocation (min/avg/max) = 52.14 | 52.14 | 52.14 Mbytes
   Step          Temp          Press          Volume         PotEng         KinEng         TotEng        Density    
    100010   302.60777      276.94279      53399.353     -22252.579      3385.2671     -18867.312      1.0683174    
    101000   303.13149      518.52808      53325.433     -22264.506      3391.1259     -18873.38       1.0697983    
    102000   295.88008      554.52106      53521.151     -22143.308      3310.0045     -18833.303      1.0658862    
    103000   300.1879       742.59976      53346.271     -22314.252      3358.1961     -18956.056      1.0693804    
    104000   310.27423      458.43198      53416.975     -22283.081      3471.0316     -18812.049      1.067965     
    105000   296.55194     -517.2356       53612.054     -22247.647      3317.5207     -18930.127      1.0640789    
    106000   300.67879     -89.511864      53136.163     -22314.495      3363.6877     -18950.807      1.0736089    
    107000   305.27722     -212.77992      53101.783     -22316.562      3415.1302     -18901.431      1.074304     
    108000   298.78355     -805.64332      53356.458     -22341.149      3342.4856     -18998.664      1.0691763    
    109000   297.80059      553.34         53127.281     -22257.347      3331.4893     -18925.858      1.0737884    
    110000   297.59825      515.5766       53326.218     -22328.237      3329.2257     -18999.012      1.0697826    
    111000   296.39663      263.44731      53717.505     -22217.038      3315.7832     -18901.255      1.0619901    
    112000   293.22813     -235.59111      53053.747     -22291.289      3280.3373     -19010.952      1.0752767    
    113000   300.68065     -23.06223       52689.548     -22164.318      3363.7084     -18800.61       1.0827092    
    114000   298.22874     -460.65288      53231.361     -22239.525      3336.279      -18903.246      1.0716889    
    115000   303.18105     -610.65156      53955.016     -22287.057      3391.6804     -18895.377      1.0573152    
    116000   295.75188      828.11911      53514.106     -22247.759      3308.5704     -18939.189      1.0660266    
    117000   305.01999      227.15601      52979.365     -22291.348      3412.2525     -18879.095      1.0767864    
    118000   303.29806     -80.662492      52811.745     -22318.8        3392.9894     -18925.811      1.080204     
    119000   299.09726      1003.5287      53472.586     -22321.742      3345.9951     -18975.747      1.0668543    
    120000   300.60455     -152.60818      53511.719     -22307.629      3362.8571     -18944.772      1.0660741    
    121000   295.10223      58.516249      53340.425     -22250.68       3301.3028     -18949.377      1.0694976    
    122000   300.80166      350.0606       53278.152     -22207.831      3365.0622     -18842.769      1.0707477    
    123000   303.37688     -514.66107      53217.554     -22230.762      3393.8711     -18836.891      1.0719669    
    124000   299.76068      583.22908      53255.952     -22317.008      3353.4167     -18963.591      1.071194     
    125000   299.78046     -409.00067      53507.361     -22315.611      3353.638      -18961.973      1.0661609    
    126000   304.65777     -540.93281      53560.221     -22233.39       3408.2004     -18825.19       1.0651087    
    127000   301.27765     -548.35864      53258.182     -22260.717      3370.3871     -18890.33       1.0711492    
    128000   303.60335     -110.96194      53335.708     -22173.198      3396.4047     -18776.793      1.0695922    
    129000   301.29204     -296.78962      53070.012     -22323.619      3370.548      -18953.071      1.0749471    
    130000   298.64006      187.47616      53372.704     -22197.358      3340.8804     -18856.478      1.0688508    
    131000   297.9918      -271.08342      53755.918     -22308.366      3333.6283     -18974.737      1.0612312    
    132000   304.79216     -35.263752      52982.26      -22346.094      3409.7038     -18936.39       1.0767275    
    133000   299.74707      210.8704       53167.015     -22282.643      3353.2645     -18929.378      1.0729859    
    134000   296.53864     -347.05232      53484.179     -22230.057      3317.3719     -18912.685      1.066623     
    135000   305.66654     -79.615045      53628.002     -22260.563      3419.4855     -18841.078      1.0637625    
    136000   298.96064     -262.75163      53662.544     -22230.998      3344.4667     -18886.532      1.0630778    
    137000   298.2359       602.35669      53337.971     -22293.229      3336.359      -18956.87       1.0695468    
    138000   296.54311      183.27892      52885.933     -22249.229      3317.4219     -18931.807      1.0786887    
    139000   300.66286     -44.041812      53324.303     -22294.369      3363.5094     -18930.859      1.069821     
    140000   303.28429     -174.92144      54030.027     -22337.056      3392.8354     -18944.22       1.0558473    
    141000   297.36374      261.06246      53726.562     -22166.717      3326.6023     -18840.115      1.0618111    
    142000   296.39082     -125.33153      53378.28      -22143.928      3315.7183     -18828.209      1.0687392    
    143000   297.74525     -674.82551      52852.752     -22324.58       3330.8702     -18993.71       1.0793659    
    144000   300.92585      521.90771      52928.172     -22322.585      3366.4515     -18956.134      1.0778278    
    145000   300.25451     -373.15903      53123.064     -22318.736      3358.9413     -18959.794      1.0738736    
    146000   300.93359     -410.4447       53496.659     -22279.705      3366.5381     -18913.167      1.0663742    
    147000   295.81838      970.63821      53479.791     -22186.969      3309.3143     -18877.655      1.0667106    
    148000   296.45013      926.9348       52977.247     -22163.28       3316.3817     -18846.898      1.0768294    
    149000   302.56275      916.99968      53245.899     -22318.777      3384.7634     -18934.014      1.0713963    
    150000   311.15935     -463.83537      53837.266     -22261.388      3480.9334     -18780.454      1.0596277    
    151000   296.18987     -34.012736      53134.904     -22449.648      3313.4702     -19136.178      1.0736343    
    152000   294.05981      673.72206      53085.936     -22306.609      3289.6412     -19016.968      1.0746247    
    153000   298.72816     -248.58164      53835.173     -22205.146      3341.8659     -18863.28       1.0596689    
    154000   305.87197      213.05321      53950.057     -22243.889      3421.7836     -18822.106      1.0574124    
    155000   300.86557     -919.6304       53701.788     -22251.517      3365.7771     -18885.74       1.0623009    
    156000   305.7112      -682.10814      53632.386     -22162.109      3419.9851     -18742.124      1.0636755    
    157000   305.55397      297.71451      53189.263     -22293.179      3418.2262     -18874.953      1.0725371    
    158000   305.80728      699.77601      53053.331     -22292.686      3421.06       -18871.626      1.0752851    
    159000   302.85351      633.55532      52827.472     -22192.177      3388.0162     -18804.161      1.0798824    
    160000   296.17615      230.05358      52865.424     -22293.986      3313.3167     -18980.669      1.0791072    
    161000   302.42217     -742.3799       53856.93      -22182.67       3383.1908     -18799.479      1.0592408    
    162000   304.94275      74.791678      54004.827     -22251.075      3411.3885     -18839.687      1.05634      
    163000   297.01996      207.50106      53027.577     -22296.612      3322.7564     -18973.856      1.0758074    
    164000   304.66928     -581.4917       53098.491     -22271.515      3408.3292     -18863.186      1.0743706    
    165000   301.95675      442.05735      53266.36      -22227.877      3377.9841     -18849.893      1.0709847    
    166000   295.75911      404.64011      52976.591     -22281.107      3308.6513     -18972.455      1.0768428    
    167000   306.28686      789.79963      53459.481     -22313.29       3426.425      -18886.865      1.0671158    
    168000   300.2853       52.147024      53484.357     -22367.944      3359.2856     -19008.658      1.0666195    
    169000   301.26991      586.27292      53627.771     -22294.012      3370.3005     -18923.711      1.0637671    
    170000   296.66397     -77.001027      53577.207     -22346.027      3318.7739     -19027.253      1.064771     
    171000   302.7801      -393.69657      53656.105     -22141.138      3387.195      -18753.943      1.0632054    
    172000   300.29873     -578.14039      53533.69      -22263.431      3359.4359     -18903.995      1.0656366    
    173000   307.14083     -17.517934      52852.781     -22198.115      3435.9783     -18762.136      1.0793653    
    174000   299.23622      408.87937      53129.626     -22265.239      3347.5496     -18917.69       1.073741     
    175000   303.92355      356.38833      53487.337     -22219.224      3399.9867     -18819.237      1.0665601    
    176000   303.04379     -628.11904      53836.256     -22243.49       3390.1449     -18853.345      1.0596476    
    177000   303.02138      21.382226      53202.186     -22486.937      3389.8942     -19097.042      1.0722766    
    178000   301.67425      343.11932      53002.18      -22216.103      3374.8239     -18841.279      1.0763229    
    179000   295.32887      174.15148      53046.976     -22334.346      3303.8382     -19030.508      1.075414     
    180000   295.70864     -1023.2276      54087.142     -22288.058      3308.0867     -18979.971      1.0547323    
    181000   303.15723      330.12976      53770.364     -22135.004      3391.4139     -18743.59       1.0609461    
    182000   303.33883     -776.12804      53568.761     -22292.172      3393.4455     -18898.726      1.0649389    
    183000   295.75695     -434.16513      53326.507     -22189.101      3308.6272     -18880.474      1.0697767    
    184000   297.27623      334.00101      52913.422     -22176.288      3325.6232     -18850.665      1.0781283    
    185000   302.40629     -597.48921      53325.969     -22354.124      3383.0131     -18971.111      1.0697876    
    186000   300.39667      46.347021      53718.764     -22171.563      3360.5316     -18811.031      1.0619652    
    187000   303.06435      107.51014      52949.938     -22252.14       3390.3749     -18861.765      1.0773848    
    188000   295.14482     -122.88368      52943.787     -22337.917      3301.7792     -19036.138      1.0775099    
    189000   308.41403      243.1277       53434.135     -22256.116      3450.2217     -18805.895      1.067622     
    190000   301.93959      303.91562      53663.862     -22254.828      3377.7922     -18877.036      1.0630517    
    191000   304.49707      119.38613      53289.154     -22295.294      3406.4026     -18888.892      1.0705266    
    192000   300.24487      95.70196       53143.759     -22213.7        3358.8333     -18854.867      1.0734555    
    193000   301.04598     -313.42212      53403.065     -22280.679      3367.7954     -18912.883      1.0682431    
    194000   302.72183      137.25328      53334.332     -22191.924      3386.5431     -18805.381      1.0696198    
    195000   300.84871      114.35937      53643.984     -22257.541      3365.5886     -18891.952      1.0634456    
    196000   299.29251     -513.93857      53764.02      -22332.468      3348.1794     -18984.289      1.0610713    
    197000   301.15976     -247.09152      53446.508     -22342.02       3369.0682     -18972.952      1.0673748    
    198000   301.89188      885.58989      53606.354     -22302.442      3377.2584     -18925.183      1.0641921    
    199000   294.96832     -418.41129      54015.705     -22155.556      3299.8047     -18855.751      1.0561273    
    200000   299.09132     -92.627093      53769.595     -22220.335      3345.9287     -18874.406      1.0609613    
    201000   304.79031     -950.05624      52775.426     -22203.822      3409.6831     -18794.139      1.0809474    
    202000   304.04808     -953.0535       52653.002     -22148.904      3401.3798     -18747.525      1.0834607    
    203000   307.42894      470.39978      52972.498     -22285.199      3439.2014     -18845.998      1.0769259    
    204000   303.74804     -708.32877      53200.496     -22417.533      3398.0232     -19019.51       1.0723106    
    205000   300.68138      551.49181      53063.317     -22295.583      3363.7166     -18931.866      1.0750828    
    206000   292.39163      226.82421      53231.639     -22309.738      3270.9793     -19038.759      1.0716833    
    207000   295.29072     -463.81355      53821.307     -22222.148      3303.4114     -18918.737      1.0599419    
    208000   302.451        489.09319      52740.532     -22191.072      3383.5133     -18807.558      1.0816625    
    209000   299.41895      66.017808      52897.119     -22299.207      3349.5938     -18949.613      1.0784606    
    210000   300.94511     -309.20721      53649.204     -22219.631      3366.6669     -18852.964      1.0633421    
    211000   303.52353      172.18681      53590.115     -22174.881      3395.5117     -18779.369      1.0645146    
    212000   299.39338     -278.31299      53351.269     -22293.176      3349.3077     -18943.869      1.0692802    
    213000   296.58358     -69.87078       53260.074     -22164.494      3317.8746     -18846.62       1.0711111    
    214000   299.98731     -698.24541      53792.539     -22200.795      3355.9521     -18844.843      1.0605087    
    215000   303.10827      27.477969      53307.854     -22294.154      3390.8662     -18903.288      1.0701511    
    216000   300.73125      367.34148      53453.395     -22288.04       3364.2745     -18923.765      1.0672373    
    217000   302.37397      383.56647      54077.386     -22105.084      3382.6516     -18722.433      1.0549226    
    218000   298.17867     -19.95085       53662.273     -22173.133      3335.7188     -18837.415      1.0630831    
    219000   298.05849      0.80207175     53750.205     -22312.579      3334.3744     -18978.204      1.061344     
    220000   302.16162      330.59723      53034.307     -22444.406      3380.276      -19064.13       1.0756708    
    221000   299.72443      490.91755      53233.785     -22256.019      3353.0112     -18903.008      1.0716401    
    222000   299.4718      -643.81965      53381.999     -22241.558      3350.1851     -18891.373      1.0686647    
    223000   296.73218     -278.32524      53185.77      -22256.929      3319.537      -18937.392      1.0726075    
    224000   303.00937     -193.36197      53256.402     -22279.31       3389.7598     -18889.55       1.071185     
    225000   299.74882      425.09343      53103.514     -22376.709      3353.2841     -19023.425      1.074269     
    226000   296.1475      -1037.1566      53451.277     -22259.382      3312.9962     -18946.386      1.0672796    
    227000   295.62664      272.8446       53463.465     -22301.15       3307.1693     -18993.981      1.0670363    
    228000   295.26997     -106.09644      53692.101     -22230.377      3303.1793     -18927.198      1.0624925    
    229000   305.74662     -540.95362      53245.23      -22338.479      3420.3813     -18918.098      1.0714097    
    230000   295.52671      706.4865       52395.263     -22304.969      3306.0515     -18998.917      1.0887904    
    231000   297.32986     -47.720711      53153.117     -22193.586      3326.2232     -18867.363      1.0732664    
    232000   299.66772     -883.69801      53638.945     -22305.82       3352.3768     -18953.443      1.0635455    
    233000   308.29141     -822.2164       53709.077     -22270.493      3448.8499     -18821.643      1.0621567    
    234000   299.05155     -1058.8463      53071.35      -22458.134      3345.4837     -19112.65       1.07492      
    235000   295.95918     -477.45874      53087.315     -22256.107      3310.8895     -18945.217      1.0745968    
    236000   300.99815     -183.65043      53089.464     -22280.717      3367.2603     -18913.457      1.0745533    
    237000   290.17083     -240.70286      52796.386     -22308.902      3246.1353     -19062.767      1.0805182    
    238000   292.94375      266.96998      53288.79      -22120.583      3277.1559     -18843.427      1.0705339    
    239000   298.15244     -596.91839      53600.484     -22208.053      3335.4254     -18872.627      1.0643086    
    240000   294.05069      612.83844      53315.927     -22284.557      3289.5392     -18995.017      1.069989     
    241000   300.42117      217.49862      52911.465     -22261.994      3360.8057     -18901.188      1.0781682    
    242000   300.23268      359.56893      53185.662     -22264.757      3358.697      -18906.06       1.0726097    
    243000   304.70824      577.87931      53271.66      -22237.947      3408.765      -18829.182      1.0708782    
    244000   296.43456      630.55729      53265.334     -22170.87       3316.2075     -18854.662      1.0710053    
    245000   294.77363     -409.2323       53593.743     -22271.088      3297.6268     -18973.462      1.0644425    
    246000   296.83625      401.13665      53110.34      -22228.797      3320.7012     -18908.095      1.0741309    
    247000   296.54707     -1186.5063      53464.81      -22284.319      3317.4662     -18966.853      1.0670095    
    248000   304.19775      96.69569       53661.538     -22266.545      3403.0542     -18863.491      1.0630977    
    249000   298.00271     -51.038653      52850.528     -22122.628      3333.7504     -18788.878      1.0794113    
    250000   299.90413      471.48057      52769.041     -22343.047      3355.0216     -18988.025      1.0810782    
    251000   303.24335      230.10787      53209.449     -22174.833      3392.3773     -18782.455      1.0721302    
    252000   298.22482     -498.75352      53411.678     -22278.364      3336.2351     -18942.129      1.0680709    
    253000   298.77985      1335.4242      52584.117     -22226.55       3342.4442     -18884.106      1.08488      
    254000   298.71096      671.39654      52952.734     -22243.176      3341.6736     -18901.502      1.0773279    
    255000   295.69222     -496.38384      53365.953     -22192.721      3307.903      -18884.818      1.068986     
    256000   304.56075      272.49919      53139.709     -22239.302      3407.115      -18832.187      1.0735373    
    257000   296.68431      67.993516      53166.27      -22170.974      3319.0015     -18851.972      1.0730009    
    258000   298.11708     -853.93009      53268.494     -22260.668      3335.0298     -18925.639      1.0709418    
    259000   299.72367      13.304534      53318.183     -22145.294      3353.0027     -18792.291      1.0699438    
    260000   298.20474      18.618715      53382.143     -22262.966      3336.0105     -18926.956      1.0686618    
    261000   302.13827      558.71072      53343.228     -22314.656      3380.0148     -18934.642      1.0694414    
    262000   298.16859     -178.89831      53449.369     -22296.924      3335.6061     -18961.318      1.0673177    
    263000   304.65733      1742.3219      52963.273     -22160.403      3408.1954     -18752.207      1.0771135    
    264000   298.10499      50.082263      53209.678     -22248.983      3334.8946     -18914.089      1.0721256    
    265000   309.40581     -558.46922      53480.833     -22215.427      3461.3167     -18754.11       1.0666898    
    266000   296.11636     -1.545573       52966.317     -22265.33       3312.6479     -18952.682      1.0770516    
    267000   309.25343     -1179.3493      53553.942     -22057.171      3459.612      -18597.559      1.0652336    
    268000   294.13549      324.46309      53611.917     -22139.561      3290.4878     -18849.073      1.0640817    
    269000   303.34184     -543.02504      53103.422     -22291.486      3393.4792     -18898.007      1.0742708    
    270000   304.87608      964.99621      53038.52      -22297.809      3410.6427     -18887.166      1.0755854    
    271000   293.19884      521.35361      53744.667     -22241.959      3280.0096     -18961.949      1.0614534    
    272000   298.11918     -143.83795      53369.011     -22372.348      3335.0533     -19037.294      1.0689248    
    273000   301.56992      67.14058       53178.856     -22299.765      3373.6567     -18926.109      1.072747     
    274000   293.7301      -920.06347      53519.977     -22344.416      3285.9528     -19058.463      1.0659096    
    275000   295.70946     -437.88941      53513.774     -22268.6        3308.0959     -18960.504      1.0660332    
    276000   299.06875      417.38051      53187.845     -22248.495      3345.6762     -18902.819      1.0725657    
    277000   297.73724      567.33906      53018.974     -22162.727      3330.7806     -18831.946      1.0759819    
    278000   303.22779     -110.24238      53623.077     -22071.951      3392.2033     -18679.748      1.0638602    
    279000   298.21395      65.468988      52843.158     -22234.748      3336.1135     -18898.635      1.0795619    
    280000   293.66673      521.21597      53271.458     -22292.686      3285.2439     -19007.442      1.0708822    
    281000   298.66491     -874.33982      53611.743     -22239.149      3341.1585     -18897.991      1.0640851    
    282000   298.82696      1389.9099      53260.903     -22170.778      3342.9713     -18827.807      1.0710945    
    283000   303.61331     -467.06856      53705.243     -22012.195      3396.516      -18615.679      1.0622326    
    284000   305.91428      775.41536      52733.799     -22273.007      3422.257      -18850.75       1.0818006    
    285000   296.2951       729.63446      53399.178     -22306.136      3314.6474     -18991.488      1.0683209    
    286000   299.05059     -304.0599       53972.193     -22277.747      3345.473      -18932.274      1.0569787    
    287000   297.94093      68.109946      53331.308     -22225.313      3333.0592     -18892.254      1.0696804    
    288000   290.26092      19.175236      52916.103     -22374.402      3247.1432     -19127.259      1.0780737    
    289000   307.67305      360.61203      53057.012     -22245.792      3441.9323     -18803.86       1.0752105    
    290000   295.60174      349.13199      53395.58      -22199.341      3306.8908     -18892.45       1.0683929    
    291000   303.7666      -704.60206      53465.312     -22147.626      3398.231      -18749.395      1.0669994    
    292000   301.2788      -454.79341      53012.928     -22264.371      3370.4        -18893.971      1.0761046    
    293000   303.57316     -46.737534      53396.262     -22234.52       3396.0669     -18838.453      1.0683792    
    294000   301.03118      553.67722      53540.798     -22303.106      3367.6298     -18935.476      1.0654951    
    295000   301.9076       270.51314      53568.191     -22391.652      3377.4344     -19014.218      1.0649502    
    296000   302.38599      961.92344      52985.221     -22281.776      3382.7861     -18898.99       1.0766674    
    297000   297.36788      301.08623      53337.685     -22282.299      3326.6486     -18955.651      1.0695526    
    298000   304.19305     -534.80761      53719.623     -22146.554      3403.0016     -18743.552      1.0619482    
    299000   293.44187     -83.229149      53152.246     -22294.322      3282.7283     -19011.593      1.0732841    
    300000   298.04281     -395.54888      53237.395     -22258.453      3334.199      -18924.254      1.0715674    
    300010   290.74492     -202.15923      53243.326     -22167.923      3252.5577     -18915.365      1.071448     
Loop time of 8814.18 on 5 procs for 200000 steps with 5541 atoms

Performance: 3.921 ns/day, 6.121 hours/ns, 22.691 timesteps/s, 125.729 katom-step/s
340.3% CPU use with 1 MPI tasks x 5 OpenMP threads

MPI task timing breakdown:
Section |  min time  |  avg time  |  max time  |%varavg| %total
---------------------------------------------------------------
Pair    | 345.54     | 345.54     | 345.54     |   0.0 |  3.92
Bond    | 4.5315     | 4.5315     | 4.5315     |   0.0 |  0.05
Kspace  | 4514.6     | 4514.6     | 4514.6     |   0.0 | 51.22
Neigh   | 0.60799    | 0.60799    | 0.60799    |   0.0 |  0.01
Comm    | 112.27     | 112.27     | 112.27     |   0.0 |  1.27
Output  | 0.88178    | 0.88178    | 0.88178    |   0.0 |  0.01
Modify  | 3797       | 3797       | 3797       |   0.0 | 43.08
Other   |            | 38.76      |            |       |  0.44

Nlocal:           5541 ave        5541 max        5541 min
Histogram: 1 0 0 0 0 0 0 0 0 0
Nghost:          36045 ave       36045 max       36045 min
Histogram: 1 0 0 0 0 0 0 0 0 0
Neighs:              0 ave           0 max           0 min
Histogram: 1 0 0 0 0 0 0 0 0 0

Total # of neighbors = 0
Ave neighs/atom = 0
Ave special neighs/atom = 2.4872767
Neighbor list builds = 18547
Dangerous builds = 0

unfix mynpt_gentle

variable phase1_dens equal density
variable phase1_press equal press
print ""

print "Phase 1 complete:"
Phase 1 complete:
print "  Density:  ${phase1_dens} g/cmÂ³"
  Density:  1.07144804200494 g/cm³
print "  Pressure: ${phase1_press} atm"
  Pressure: -202.159230965711 atm
print ""


# Phase 2: Standard NPT damping (600 ps)
print "Phase 2: Final equilibration (600 ps, pdamp=2000)..."
Phase 2: Final equilibration (600 ps, pdamp=2000)...
# ğŸ”§ CRITICAL: Using npt/gpu instead of npt for FULL GPU acceleration
fix mynpt_standard all npt/gpu temp 300.0 300.0 100.0 iso 1.0 1.0 2000.0

run 300000  # 600 ps at 2 fs timestep
PPPM initialization ...
  extracting TIP4P info from pair style
  using 12-bit tables for long-range coulomb
  G vector (1/distance) = 0.28866212
  grid = 50 50 50
  stencil order = 5
  estimated absolute RMS force accuracy = 0.00032381028
  estimated relative force accuracy = 9.7514503e-07
  using double precision FFTW3
  3d grid and FFT values/proc = 205379 125000
Generated 0 of 3 mixed pair_coeff terms from geometric mixing rule
Per MPI rank memory allocation (min/avg/max) = 54.69 | 54.69 | 54.69 Mbytes
   Step          Temp          Press          Volume         PotEng         KinEng         TotEng        Density    
    300010   290.74492     -195.56452      53243.326     -22167.925      3252.5577     -18915.367      1.071448     
    301000   299.09776     -147.88726      53374.829     -22301.372      3346.0007     -18955.372      1.0688083    
    302000   295.25583      385.33936      52962.268     -22235.142      3303.0211     -18932.121      1.077134     
    303000   297.68427      1173.2841      52886.889     -22324.642      3330.188      -18994.454      1.0786692    
    304000   305.02735      287.80739      53513.148     -22378.919      3412.3349     -18966.585      1.0660456    
    305000   304.52356      114.61664      53519.692     -22368.592      3406.699      -18961.893      1.0659153    
    306000   299.05896      73.017911      53400.695     -22224.853      3345.5667     -18879.286      1.0682905    
    307000   302.4036      -877.99759      53880.327     -22185.056      3382.9831     -18802.073      1.0587808    
    308000   307.02717     -735.18392      53499.082     -22263.298      3434.7068     -18828.591      1.0663259    
    309000   299.60301      251.44726      53401.013     -22274.325      3351.6529     -18922.672      1.0682842    
    310000   303.2185      -88.214628      53150.236     -22298.915      3392.0994     -18906.815      1.0733246    
    311000   289.18595      398.6295       53047.543     -22271.068      3235.1175     -19035.951      1.0754024    
    312000   296.23769     -385.49215      53590.699     -22293.443      3314.0052     -18979.438      1.064503     
    313000   295.77218     -675.49498      53181.289     -22252.261      3308.7975     -18943.464      1.0726979    
    314000   299.82116     -75.747035      53697.756     -22156.098      3354.0934     -18802.005      1.0623807    
    315000   298.71181     -471.668        53434.287     -22264.015      3341.683      -18922.332      1.0676189    
    316000   301.17373      379.81179      52713.623     -22352.242      3369.2246     -18983.017      1.0822147    
    317000   295.27911      300.74146      53199.645     -22272.785      3303.2815     -18969.504      1.0723278    
    318000   306.58197      629.0755       53641.697     -22329.568      3429.7264     -18899.842      1.0634909    
    319000   300.73743      422.96401      53215.892     -22315.865      3364.3437     -18951.522      1.0720004    
    320000   298.89362     -89.979376      53331.397     -22247.747      3343.717      -18904.03       1.0696787    
    321000   299.05852     -130.85968      53727.048     -22147.949      3345.5617     -18802.387      1.0618014    
    322000   300.05133     -139.21484      53792.688     -22262.751      3356.6683     -18906.083      1.0605058    
    323000   306.29845      330.58697      52751.08      -22213.404      3426.5547     -18786.849      1.0814462    
    324000   303.98251      483.70416      52960.529     -22263.097      3400.6463     -18862.451      1.0771693    
    325000   303.79017      165.65284      53454.675     -22268.248      3398.4946     -18869.753      1.0672118    
    326000   297.09196      684.81455      53107.984     -22312.24       3323.5619     -18988.678      1.0741786    
    327000   290.62584      270.76505      53428.37      -22163.384      3251.2255     -18912.159      1.0677372    
    328000   296.68826      363.3192       53601.75      -22326.341      3319.0457     -19007.296      1.0642835    
    329000   300.53337     -404.43639      53284.424     -22305.965      3362.0609     -18943.904      1.0706217    
    330000   289.41296     -110.9943       53009.959     -22275.948      3237.6571     -19038.291      1.0761649    
    331000   291.13831     -226.3712       53105.868     -22254.533      3256.9585     -18997.574      1.0742214    
    332000   303.79577     -168.98075      53005.357     -22254.747      3398.5572     -18856.19       1.0762583    
    333000   298.78034     -108.08601      53336.514     -22380.502      3342.4498     -19038.052      1.069576     
    334000   298.96119     -90.899261      52887.792     -22409.016      3344.4729     -19064.543      1.0786508    
    335000   300.2278       367.27283      53101.646     -22239.926      3358.6425     -18881.284      1.0743068    
    336000   299.66909     -106.79682      53499.511     -22244.884      3352.3922     -18892.491      1.0663174    
    337000   301.34623     -256.08553      53583.899     -22149.899      3371.1542     -18778.744      1.0646381    
    338000   299.06218     -357.38743      53825.373     -22177.647      3345.6027     -18832.045      1.0598618    
    339000   298.67798      218.31776      53525.158     -22260.316      3341.3047     -18919.011      1.0658064    
    340000   294.31693      579.3139       53604.87      -22307.321      3292.5177     -19014.803      1.0642215    
    341000   301.10924     -358.78999      53248.629     -22387.473      3368.5031     -19018.97       1.0713413    
    342000   294.12899     -732.17923      53109.642     -22325.652      3290.4152     -19035.237      1.074145     
    343000   293.57427     -98.009512      53629.097     -22233.612      3284.2095     -18949.403      1.0637408    
    344000   301.0718      -214.80705      53436.493     -22270.212      3368.0842     -18902.128      1.0675749    
    345000   294.30572      240.35742      52917.327     -22292.147      3292.3923     -18999.755      1.0780487    
    346000   295.07898      201.29888      53024.447     -22292.675      3301.0427     -18991.632      1.0758709    
    347000   303.29186     -1064.8058      53150.225     -22355.9        3392.92       -18962.98       1.0733249    
    348000   307.0839      -365.18813      53681.347     -22222.318      3435.3415     -18786.977      1.0627054    
    349000   301.56829     -295.6069       53304.888     -22276.22       3373.6385     -18902.582      1.0702106    
    350000   304.34893      589.53437      53268.921     -22191.557      3404.7454     -18786.812      1.0709332    
    351000   297.25553      351.8663       53066.334     -22186.234      3325.3917     -18860.843      1.0750217    
    352000   301.10057      486.48952      52889.588     -22253.884      3368.4061     -18885.478      1.0786141    
    353000   303.92932     -1156.2779      53630.305     -22120.771      3400.0512     -18720.72       1.0637168    
    354000   297.23742      334.57461      53684.255     -22230.962      3325.1891     -18905.773      1.0626478    
    355000   289.64365      917.56408      53357.584     -22206.431      3240.2377     -18966.193      1.0691537    
    356000   300.46519     -142.49965      52833.694     -22265.177      3361.2981     -18903.878      1.0797552    
    357000   304.4007      -756.27521      53067.259     -22198.679      3405.3246     -18793.355      1.0750029    
    358000   299.48688      281.42985      53589.897     -22297.022      3350.3537     -18946.669      1.0645189    
    359000   306.94809     -911.24221      54122.876     -22209.43       3433.8222     -18775.607      1.054036     
    360000   304.82511      519.04543      53844.798     -22068.229      3410.0724     -18658.157      1.0594795    
    361000   294.36993      43.194979      53345.491     -22270.535      3293.1105     -18977.425      1.0693961    
    362000   304.19213      59.809513      53477.176     -22334.495      3402.9913     -18931.503      1.0667627    
    363000   298.3906      -646.31619      53748.397     -22190.563      3338.0898     -18852.474      1.0613797    
    364000   301.39354      138.66408      52891.092     -22333.588      3371.6835     -18961.905      1.0785835    
    365000   298.68784      341.83859      53524.13      -22191.81       3341.415      -18850.395      1.0658269    
    366000   302.35356     -297.8762       53394.072     -22155.29       3382.4233     -18772.867      1.0684231    
    367000   299.57338     -87.134466      53145.573     -22264.577      3351.3214     -18913.255      1.0734188    
    368000   300.75896      126.57563      53159.818     -22223.182      3364.5845     -18858.597      1.0731312    
    369000   298.47051      744.29706      52410.521     -22307.395      3338.9837     -18968.412      1.0884734    
    370000   295.07696     -705.0371       52921.468     -22225.609      3301.0201     -18924.589      1.0779644    
    371000   296.43441      1073.0069      52899.748     -22366.456      3316.2058     -19050.25       1.078407     
    372000   300.84004     -396.1965       52983.786     -22256.639      3365.4916     -18891.147      1.0766965    
    373000   296.42239     -619.27774      52793.688     -22343.736      3316.0714     -19027.665      1.0805735    
    374000   296.66122      609.46409      53054.732     -22298.88       3318.7431     -18980.137      1.0752567    
    375000   301.73534      238.24009      53354.511     -22322.16       3375.5072     -18946.653      1.0692153    
    376000   299.63394      924.3443       53295.732     -22408.586      3351.9989     -19056.587      1.0703945    
    377000   297.55642      95.547182      53681.204     -22292.081      3328.7577     -18963.323      1.0627082    
    378000   301.24158     -92.762667      53197.662     -22205.866      3369.9836     -18835.882      1.0723678    
    379000   300.53313      383.95268      53560.234     -22361.259      3362.0582     -18999.201      1.0651084    
    380000   303.89217     -302.17114      53743.665     -22126.396      3399.6356     -18726.76       1.0614732    
    381000   296.70544     -282.61356      53327.644     -22168.607      3319.2379     -18849.369      1.0697539    
    382000   304.19778     -111.46151      53856.326     -22232.181      3403.0545     -18829.126      1.0592527    
    383000   299.85193      356.76626      52966.648     -22171.265      3354.4376     -18816.828      1.0770449    
    384000   302.41445      393.95213      52831.133     -22312.48       3383.1045     -18929.375      1.0798076    
    385000   304.56977     -275.46886      53543.345     -22221.874      3407.216      -18814.658      1.0654444    
    386000   301.63341     -1006.6502      54217.935     -22223.417      3374.367      -18849.05       1.052188     
    387000   301.82723      383.24037      53565.113     -22313.232      3376.5352     -18936.697      1.0650114    
    388000   296.26583      845.5036       53176.687     -22198.444      3314.32       -18884.124      1.0727907    
    389000   305.15587     -212.64156      53148.559     -22378.173      3413.7726     -18964.401      1.0733585    
    390000   304.474        682.36222      52924.822     -22358.082      3406.1446     -18951.937      1.0778961    
    391000   294.23276      345.89163      52932.356     -22357.534      3291.5761     -19065.958      1.0777426    
    392000   300.74486     -62.350551      53595.695     -22324.873      3364.4267     -18960.446      1.0644037    
    393000   303.65738     -293.76436      53887.746     -22303.037      3397.0091     -18906.028      1.0586351    
    394000   297.1851      -568.15897      53763.216     -22208.453      3324.6038     -18883.849      1.0610872    
    395000   290.57643     -518.5762       54023.578     -22089.972      3250.6728     -18839.299      1.0559733    
    396000   302.60115     -53.617181      53442.017     -22198.531      3385.1931     -18813.337      1.0674645    
    397000   294.20999     -725.46736      53102.873     -22314.403      3291.3213     -19023.081      1.0742819    
    398000   306.08616      565.29562      52995.355     -22222.896      3424.1798     -18798.716      1.0764615    
    399000   307.84079      125.09262      53073.451     -22308.148      3443.8088     -18864.339      1.0748775    
    400000   297.31827      581.41851      53088.891     -22208.072      3326.0936     -18881.979      1.0745649    
    401000   291.31614      125.15751      53613.155     -22235.121      3258.9478     -18976.173      1.0640571    
    402000   296.31239     -852.3244       53295.634     -22132.259      3314.8408     -18817.418      1.0703965    
    403000   304.91332      41.56014       53058.638     -22220.271      3411.0593     -18809.212      1.0751776    
    404000   305.6485       300.83664      53204.885     -22311.046      3419.2837     -18891.763      1.0722222    
    405000   301.28153      109.40206      54070.991     -22260.127      3370.4304     -18889.697      1.0550474    
    406000   304.38568      339.50538      53759.109     -22264.274      3405.1565     -18859.117      1.0611682    
    407000   301.79539     -186.61557      53467.491     -22229.362      3376.179      -18853.183      1.066956     
    408000   292.80885     -478.07908      53560.69      -22369.196      3275.6468     -19093.549      1.0650994    
    409000   295.88033     -331.40049      53593.425     -22148.691      3310.0074     -18838.684      1.0644488    
    410000   307.50523      15.157258      53776.458     -22340.135      3440.0549     -18900.08       1.0608259    
    411000   303.04626      805.32865      52909.801     -22308.185      3390.1725     -18918.012      1.0782021    
    412000   295.12046     -240.97019      53503.868     -22386.754      3301.5067     -19085.247      1.0662305    
    413000   299.94416      466.53439      54070.597     -22303.789      3355.4693     -18948.32       1.0550551    
    414000   300.64326     -376.37427      53757.476     -22360.868      3363.2902     -18997.578      1.0612004    
    415000   294.09933      587.38225      53217.391     -22240.034      3290.0834     -18949.95       1.0719702    
    416000   298.58599      11.917414      53405.446     -22299.245      3340.2755     -18958.969      1.0681955    
    417000   294.79819      643.05883      52964.456     -22181.26       3297.9015     -18883.358      1.0770895    
    418000   304.5277      -116.75617      53096.135     -22268.177      3406.7453     -18861.432      1.0744183    
    419000   294.63119     -200.99853      52924.983     -22343.096      3296.0333     -19047.062      1.0778928    
    420000   305.48827      493.77899      53606.563     -22226.934      3417.4911     -18809.443      1.0641879    
    421000   306.09058     -99.285585      53363.695     -22329.604      3424.2292     -18905.375      1.0690313    
    422000   307.04569     -524.37873      53026.635     -22204.074      3434.914      -18769.16       1.0758265    
    423000   303.58354      833.40993      52942.997     -22335.672      3396.183      -18939.489      1.077526     
    424000   300.51273      877.92627      53585.106     -22318.367      3361.8299     -18956.537      1.0646141    
    425000   293.40323      781.8042       53684.74      -22233.515      3282.296      -18951.219      1.0626382    
    426000   303.03361     -317.0419       52981.243     -22251.039      3390.031      -18861.008      1.0767482    
    427000   298.72259      396.46674      53029.581     -22411.513      3341.8036     -19069.709      1.0757667    
    428000   298.77761     -139.20144      53353.664     -22316.571      3342.4191     -18974.152      1.0692322    
    429000   295.61133      65.128421      53312.405     -22302.317      3306.9981     -18995.319      1.0700597    
    430000   298.85157      583.58015      53557.441     -22202.634      3343.2466     -18859.388      1.065164     
    431000   308.83763      170.55629      53375.609     -22334.142      3454.9605     -18879.182      1.0687926    
    432000   293.68579      119.86037      53281.546     -22300.479      3285.4571     -19015.022      1.0706795    
    433000   306.02497      130.21099      53099.435     -22185.779      3423.4953     -18762.283      1.0743515    
    434000   299.556        1013.3913      52576.305     -22262.922      3351.127      -18911.795      1.0850412    
    435000   298.2785      -124.0437       53260.189     -22173.807      3336.8357     -18836.971      1.0711088    
    436000   301.68711      212.31727      53027.872     -22279.292      3374.9677     -18904.325      1.0758014    
    437000   304.89666     -112.74848      53171.678     -22416.059      3410.8729     -19005.186      1.0728918    
    438000   300.38894     -136.73261      53287.215     -22211.457      3360.4451     -18851.012      1.0705656    
    439000   295.97178     -570.58765      53648.657     -22369.19       3311.0304     -19058.16       1.0633529    
    440000   303.708        234.60191      53261.811     -22273.324      3397.5754     -18875.749      1.0710762    
    441000   298.56049      68.733453      53417.29      -22124.07       3339.9903     -18784.079      1.0679587    
    442000   305.37055      528.93954      53025.574     -22170.741      3416.1743     -18754.567      1.075848     
    443000   296.41535     -366.07458      53350.358     -22167.824      3315.9926     -18851.831      1.0692985    
    444000   297.87231      163.47643      53237.959     -22316.289      3332.2917     -18983.997      1.0715561    
    445000   305.12175     -45.994553      53640.451     -22230.622      3413.3909     -18817.231      1.0635156    
    446000   302.8871       890.59209      53403.953     -22223.93       3388.392      -18835.538      1.0682254    
    447000   296.49138      636.16829      53413.497     -22129.817      3316.8431     -18812.974      1.0680345    
    448000   302.68027      25.229517      53621.653     -22260.132      3386.0781     -18874.054      1.0638885    
    449000   293.41999     -407.16802      53341.654     -22214.362      3282.4836     -18931.878      1.069473     
    450000   301.13105     -214.72148      52896.111     -22210.047      3368.7471     -18841.3        1.0784811    
    451000   297.05542      126.97534      52933.073     -22290.93       3323.153      -18967.777      1.0777281    
    452000   306.64602     -51.139539      53400.68      -22240.665      3430.4429     -18810.222      1.0682908    
    453000   308.03707     -167.23015      53211.671     -22235.494      3446.0045     -18789.49       1.0720854    
    454000   299.81266      540.71458      53287.542     -22416.333      3353.9983     -19062.334      1.070559     
    455000   292.21641     -633.85974      53506.658     -22295.243      3269.0192     -19026.224      1.0661749    
    456000   296.53947     -449.14461      53064.453     -22295.751      3317.3812     -18978.369      1.0750598    
    457000   305.24662     -717.35397      53158.274     -22344.084      3414.7878     -18929.296      1.0731623    
    458000   301.15299     -357.25182      53513.703     -22270.088      3368.9925     -18901.096      1.0660346    
    459000   302.94285     -619.2487       53500.907     -22165.041      3389.0156     -18776.025      1.0662895    
    460000   295.67237     -189.95425      53258.464     -22269.082      3307.6809     -18961.401      1.0711435    
    461000   300.47327     -320.98671      53452.351     -22330.109      3361.3885     -18968.72       1.0672582    
    462000   300.69083      456.0784       53100.499     -22178.806      3363.8223     -18814.984      1.07433      
    463000   301.81093     -430.80479      53340.453     -22258.925      3376.3529     -18882.572      1.0694971    
    464000   296.33004     -230.24291      53308.088     -22296.991      3315.0383     -18981.953      1.0701464    
    465000   302.87355      180.57136      53466.514     -22163.338      3388.2404     -18775.097      1.0669754    
    466000   306.94022      542.55296      53403.419     -22205.732      3433.7342     -18771.998      1.0682361    
    467000   297.30653     -29.325723      53150.866     -22277.256      3325.9623     -18951.294      1.0733119    
    468000   303.08381     -232.05694      53232.236     -22343.674      3390.5926     -18953.081      1.0716713    
    469000   295.96164      190.13235      53492.977     -22287.869      3310.917      -18976.952      1.0664476    
    470000   301.35966     -616.92081      53666.047     -22338.661      3371.3045     -18967.356      1.0630084    
    471000   300.5704       638.24766      52871.607     -22168.396      3362.4751     -18805.921      1.078981     
    472000   295.3866       508.15432      53328.493     -22253.029      3304.484      -18948.545      1.0697369    
    473000   299.79745      957.9027       53236.491     -22318.9        3353.8281     -18965.072      1.0715856    
    474000   299.85703      496.50677      53134.513     -22418.66       3354.4946     -19064.166      1.0736422    
    475000   298.80122     -497.05443      52984.153     -22371.433      3342.6833     -19028.75       1.0766891    
    476000   302.63447      187.52497      53436.039     -22337.092      3385.5658     -18951.526      1.067584     
    477000   302.23705     -386.76753      53538.121     -22356.555      3381.1199     -18975.436      1.0655484    
    478000   300.46786     -1280.1631      53871.232     -22130.948      3361.3279     -18769.62       1.0589596    
    479000   306.0918      -880.73326      53424.249     -22287.344      3424.2429     -18863.101      1.0678196    
    480000   299.15595     -253.51144      52889.217     -22168.648      3346.6517     -18821.996      1.0786217    
    481000   296.58096      108.59571      53738.661     -22219.78       3317.8453     -18901.934      1.061572     
    482000   300.30718     -1143.7158      53785.063     -22240.439      3359.5304     -18880.909      1.0606562    
    483000   300.99339     -682.55522      53384.734     -22318.15       3367.2071     -18950.943      1.0686099    
    484000   300.5755      -160.87114      53328.371     -22197.044      3362.5321     -18834.512      1.0697394    
    485000   305.46647     -421.41076      53240.537     -22329.481      3417.2474     -18912.234      1.0715042    
    486000   303.83951     -671.06736      53419.217     -22293.263      3399.0465     -18894.216      1.0679201    
    487000   295.07036     -38.335315      53025.547     -22270.328      3300.9462     -18969.382      1.0758486    
    488000   303.15992     -503.78018      53309.959     -22323.374      3391.444      -18931.93       1.0701088    
    489000   296.22864      938.21734      52823.616     -22353.046      3313.9039     -19039.142      1.0799612    
    490000   292.99062      336.01821      53101.059     -22341.92       3277.6802     -19064.24       1.0743187    
    491000   301.92849     -382.92042      53639.396     -22367.301      3377.668      -18989.633      1.0635365    
    492000   303.08934     -251.38495      53778.597     -22211.352      3390.6544     -18820.698      1.0607837    
    493000   300.42669     -968.31566      53705.187     -22326.156      3360.8674     -18965.288      1.0622337    
    494000   298.56303     -675.72606      53457.335     -22154.341      3340.0187     -18814.323      1.0671586    
    495000   302.58466     -17.455824      53544.01      -22288.049      3385.0086     -18903.04       1.0654312    
    496000   304.37213     -1453.4506      53805.979     -22305.069      3405.005      -18900.064      1.0602438    
    497000   297.92144      387.41266      53285.863     -22250.508      3332.8412     -18917.667      1.0705927    
    498000   289.65664      713.6366       53316.264     -22368.081      3240.383      -19127.698      1.0699823    
    499000   297.37986      173.60383      53237.451     -22299.123      3326.7826     -18972.34       1.0715663    
    500000   291.21714     -68.664691      53602.346     -22209.825      3257.8403     -18951.984      1.0642717    
    501000   304.66209     -353.49925      53616.195     -22347.628      3408.2488     -18939.379      1.0639968    
    502000   298.68141     -498.37769      53720.773     -22256.222      3341.343      -18914.879      1.0619255    
    503000   298.65778      316.32287      53286.213     -22190.741      3341.0787     -18849.662      1.0705857    
    504000   298.88262      116.65603      53266.547     -22207.909      3343.5939     -18864.315      1.070981     
    505000   292.28649     -67.451808      53228.527     -22093.94       3269.8032     -18824.136      1.0717459    
    506000   302.24443      325.10369      53175.661     -22195.383      3381.2024     -18814.181      1.0728114    
    507000   298.96468      747.68528      53396.833     -22120.731      3344.5119     -18776.219      1.0683678    
    508000   297.72893      912.45634      53444.087     -22164.494      3330.6876     -18833.807      1.0674232    
    509000   299.15541      201.61045      53363.282     -22206.837      3346.6456     -18860.192      1.0690395    
    510000   295.63806      355.93491      53416.751     -22150.701      3307.2971     -18843.404      1.0679694    
    511000   303.30707      301.62946      53434.071     -22274.471      3393.0902     -18881.381      1.0676233    
    512000   298.88572      736.50252      52932.155     -22253.797      3343.6286     -18910.168      1.0777467    
    513000   301.56176     -159.90729      53563.732     -22205.002      3373.5654     -18831.436      1.0650389    
    514000   292.89268     -620.66394      53466.273     -22227.62       3276.5846     -18951.035      1.0669803    
    515000   304.36191     -393.13766      53107.717     -22269.327      3404.8907     -18864.437      1.074184     
    516000   298.16208      843.38158      52997.264     -22302.863      3335.5333     -18967.329      1.0764227    
    517000   305.17681      252.16049      53310.219     -22260.369      3414.0069     -18846.362      1.0701036    
    518000   298.28454     -709.29083      52994.217     -22271.225      3336.9032     -18934.322      1.0764846    
    519000   299.81794      342.84748      53060.521     -22217.383      3354.0573     -18863.326      1.0751394    
    520000   297.4679       339.46253      53415.422     -22155.505      3327.7675     -18827.737      1.067996     
    521000   304.29713      31.890764      53610.686     -22362.402      3404.166      -18958.236      1.0641061    
    522000   300.36795     -582.53109      53395.271     -22230.576      3360.2103     -18870.365      1.0683991    
    523000   304.01397     -388.33786      53461.064     -22282.103      3400.9982     -18881.105      1.0670842    
    524000   298.06296      483.13054      53583.03      -22362.552      3334.4244     -19028.128      1.0646553    
    525000   293.73181     -97.677062      53541.68      -22279.645      3285.9719     -18993.673      1.0654775    
    526000   299.71377     -161.7602       53920.508     -22283.481      3352.8919     -18930.59       1.0579918    
    527000   301.41146     -924.56954      53564.579     -22265.86       3371.884      -18893.976      1.0650221    
    528000   296.00215      272.51358      53250.89      -22294.244      3311.3702     -18982.874      1.0712959    
    529000   303.323        103.09898      52998         -22283.294      3393.2683     -18890.026      1.0764077    
    530000   299.48425     -124.48121      53506.629     -22231.368      3350.3243     -18881.044      1.0661755    
    531000   296.02123      1.0407901      53214.528     -22107.881      3311.5836     -18796.297      1.0720279    
    532000   295.0344      -633.31782      53805.427     -22266.398      3300.544      -18965.854      1.0602547    
    533000   304.14509     -12.506205      53248.898     -22268.003      3402.4651     -18865.538      1.0713359    
    534000   303.87954     -34.4409        53445.975     -22255.698      3399.4944     -18856.204      1.0673855    
    535000   304.70468      102.18914      53291.617     -22242.471      3408.7252     -18833.746      1.0704771    
    536000   293.45514     -516.45917      53430.613     -22311.857      3282.8768     -19028.98       1.0676924    
    537000   299.53666     -30.348457      53533.119     -22297.545      3350.9106     -18946.634      1.0656479    
    538000   300.73355      1018.1431      53181.711     -22376.71       3364.3003     -19012.41       1.0726894    
    539000   301.20815     -239.3522       53422.663     -22303.746      3369.6096     -18934.137      1.0678512    
    540000   293.84941     -509.01872      53356.835     -22255.382      3287.2875     -18968.094      1.0691687    
    541000   300.89905     -277.29701      53485.792     -22228.536      3366.1517     -18862.384      1.0665909    
    542000   306.19029      429.15689      53986.372     -22163.597      3425.3447     -18738.252      1.0567011    
    543000   303.78951      665.63691      53466.743     -22209.156      3398.4872     -18810.669      1.0669709    
    544000   297.81077     -311.07193      53590.555     -22285.905      3331.6031     -18954.302      1.0645058    
    545000   298.71177      316.43533      53919.274     -22348.682      3341.6826     -19007          1.0580161    
    546000   299.39902      951.09142      52932.518     -22301.477      3349.3708     -18952.107      1.0777394    
    547000   292.90274      955.48697      53585.283     -22208.78       3276.6971     -18932.083      1.0646106    
    548000   303.95057      275.39573      53437.869     -22358.359      3400.289      -18958.07       1.0675474    
    549000   301.25826     -388.44253      53703.414     -22208.625      3370.1702     -18838.455      1.0622687    
    550000   292.76172     -240.89743      53357.244     -22221.117      3275.1195     -18945.997      1.0691605    
    551000   302.41052      975.45085      53086.118     -22185.106      3383.0605     -18802.045      1.074621     
    552000   295.39987      897.13152      53157.037     -22287.22       3304.6325     -18982.587      1.0731873    
    553000   302.56084     -173.46132      53445.57      -22235.76       3384.7421     -18851.018      1.0673936    
    554000   295.37609      178.05428      52992.491     -22335.829      3304.3665     -19031.463      1.0765196    
    555000   293.97755      292.79117      52824.673     -22326.5        3288.721      -19037.779      1.0799396    
    556000   304.06765      30.90071       53546.678     -22255.747      3401.5988     -18854.148      1.0653781    
    557000   301.80255      702.4286       53045.829     -22395.743      3376.2592     -19019.484      1.0754372    
    558000   300.69177      885.53773      52934.681     -22241.878      3363.8329     -18878.045      1.0776953    
    559000   299.81359      1249.9084      52813.166     -22213.681      3354.0087     -18859.673      1.0801749    
    560000   305.26467     -82.479819      53392.655     -22404.832      3414.9898     -18989.842      1.0684514    
    561000   298.77834     -807.52714      53289.603     -22220.448      3342.4274     -18878.021      1.0705176    
    562000   295.27171      36.675435      52840.552     -22357.872      3303.1987     -19054.673      1.0796151    
    563000   296.65624      45.47307       53939.918     -22263.674      3318.6875     -18944.986      1.0576111    
    564000   300.33426      184.55825      53314.053     -22276.205      3359.8334     -18916.371      1.0700266    
    565000   294.8115       801.42344      52786.416     -22370.479      3298.0504     -19072.428      1.0807223    
    566000   296.54917      149.79289      52913.163     -22291.648      3317.4896     -18974.158      1.0781336    
    567000   298.19566     -347.73515      53425.03      -22221.223      3335.9089     -18885.314      1.0678039    
    568000   298.35633     -290.19608      53795.803     -22204.907      3337.7063     -18867.2        1.0604444    
    569000   299.74975     -264.76877      53277.752     -22265.12       3353.2945     -18911.825      1.0707557    
    570000   297.89218      539.32922      53000.084     -22273.541      3332.5139     -18941.027      1.0763654    
    571000   299.70674     -767.71868      53635.901     -22290.853      3352.8134     -18938.04       1.0636058    
    572000   301.51909      33.069157      53524.903     -22257.362      3373.0881     -18884.274      1.0658115    
    573000   302.81421     -16.472118      54019.017     -22281.533      3387.5765     -18893.957      1.0560625    
    574000   297.47516      6.3796054      54010.452     -22301.521      3327.8487     -18973.673      1.05623      
    575000   299.75867      501.28526      53535.446     -22242.89       3353.3943     -18889.495      1.0656016    
    576000   302.64495      866.66106      53211.141     -22296.387      3385.6831     -18910.704      1.0720961    
    577000   293.81965      370.09795      53287.564     -22229.818      3286.9546     -18942.864      1.0705585    
    578000   296.92599      624.44132      53500.078     -22323.731      3321.7051     -19002.026      1.0663061    
    579000   301.21417     -367.06432      53525.664     -22303.394      3369.677      -18933.717      1.0657964    
    580000   301.5831      -98.759231      53388.649     -22189.558      3373.8042     -18815.754      1.0685316    
    581000   295.77605     -547.26253      53345.065     -22403.591      3308.8408     -19094.75       1.0694046    
    582000   299.46956      556.59243      53381.143     -22309.403      3350.1601     -18959.243      1.0686818    
    583000   297.79949     -159.70388      53327.343     -22151.529      3331.4769     -18820.052      1.06976      
    584000   299.34562      275.10542      53156.096     -22335.837      3348.7735     -18987.064      1.0732063    
    585000   303.6913       839.78833      52861.894     -22399.094      3397.3885     -19001.706      1.0791792    
    586000   292.28909     -110.46355      53511.194     -22231.8        3269.8322     -18961.967      1.0660846    
    587000   305.04975     -968.35357      53794.509     -22139.924      3412.5855     -18727.339      1.0604699    
    588000   302.99942      253.12835      53328.161     -22305.898      3389.6484     -18916.25       1.0697436    
    589000   300.79722      532.65656      53147.973     -22301.346      3365.0125     -18936.334      1.0733703    
    590000   290.34474      358.08607      53440.946     -22344.225      3248.0808     -19096.145      1.0674859    
    591000   295.21304      36.667714      53959.73      -22305.155      3302.5424     -19002.613      1.0572228    
    592000   302.36479      17.878936      53491.55      -22343.789      3382.5489     -18961.24       1.0664761    
    593000   296.35724      689.5676       53364.906     -22175.106      3315.3426     -18859.763      1.069007     
    594000   297.22225      598.07242      53391.274     -22402.943      3325.0194     -19077.923      1.068479     
    595000   301.08768     -604.4534       53390.032     -22335.444      3368.2619     -18967.183      1.0685039    
    596000   302.25267     -316.36751      53468.301     -22240.976      3381.2946     -18859.681      1.0669398    
    597000   298.9382       402.45907      53211.981     -22072.897      3344.2157     -18728.681      1.0720792    
    598000   296.10948     -806.44979      53455.456     -22139.037      3312.5708     -18826.466      1.0671962    
    599000   290.51384     -685.39135      53777.602     -22314.756      3249.9725     -19064.783      1.0608033    
    600000   306.60492      78.79625       53363.293     -22343.947      3429.9832     -18913.964      1.0690393    
    600010   303.2339       49.601624      53356.344     -22306.039      3392.2716     -18913.767      1.0691785    
Loop time of 13236 on 5 procs for 300000 steps with 5541 atoms

Performance: 3.917 ns/day, 6.128 hours/ns, 22.665 timesteps/s, 125.589 katom-step/s
339.5% CPU use with 1 MPI tasks x 5 OpenMP threads

MPI task timing breakdown:
Section |  min time  |  avg time  |  max time  |%varavg| %total
---------------------------------------------------------------
Pair    | 524.56     | 524.56     | 524.56     |   0.0 |  3.96
Bond    | 6.0788     | 6.0788     | 6.0788     |   0.0 |  0.05
Kspace  | 6773       | 6773       | 6773       |   0.0 | 51.17
Neigh   | 0.92155    | 0.92155    | 0.92155    |   0.0 |  0.01
Comm    | 170.09     | 170.09     | 170.09     |   0.0 |  1.29
Output  | 1.3721     | 1.3721     | 1.3721     |   0.0 |  0.01
Modify  | 5701.7     | 5701.7     | 5701.7     |   0.0 | 43.08
Other   |            | 58.3       |            |       |  0.44

Nlocal:           5541 ave        5541 max        5541 min
Histogram: 1 0 0 0 0 0 0 0 0 0
Nghost:          35819 ave       35819 max       35819 min
Histogram: 1 0 0 0 0 0 0 0 0 0
Neighs:              0 ave           0 max           0 min
Histogram: 1 0 0 0 0 0 0 0 0 0

Total # of neighbors = 0
Ave neighs/atom = 0
Ave special neighs/atom = 2.4872767
Neighbor list builds = 27866
Dangerous builds = 0

undump npt_traj
undump npt_dcd
unfix mynpt_standard
unfix thermo_avg_npt

write_restart npt_complete.restart
System init for write_restart ...
PPPM initialization ...
  extracting TIP4P info from pair style
  using 12-bit tables for long-range coulomb
  G vector (1/distance) = 0.28862479
  grid = 50 50 50
  stencil order = 5
  estimated absolute RMS force accuracy = 0.00032446355
  estimated relative force accuracy = 9.7711235e-07
  using double precision FFTW3
  3d grid and FFT values/proc = 205379 125000
Generated 0 of 3 mixed pair_coeff terms from geometric mixing rule
write_data npt_complete.data
System init for write_data ...
PPPM initialization ...
  extracting TIP4P info from pair style
  using 12-bit tables for long-range coulomb
  G vector (1/distance) = 0.28862479
  grid = 50 50 50
  stencil order = 5
  estimated absolute RMS force accuracy = 0.00032446355
  estimated relative force accuracy = 9.7711235e-07
  using double precision FFTW3
  3d grid and FFT values/proc = 205379 125000
Generated 0 of 3 mixed pair_coeff terms from geometric mixing rule
WARNING: Not all mixed pair coeffs generated from mixing. Use write_data with 'pair ij' option to store all pair coeffs. (src/write_data.cpp:364)

# CRITICAL: Save NPT checkpoint for production restart capability
write_restart npt_equilibration_complete.restart
System init for write_restart ...
PPPM initialization ...
  extracting TIP4P info from pair style
  using 12-bit tables for long-range coulomb
  G vector (1/distance) = 0.28862479
  grid = 50 50 50
  stencil order = 5
  estimated absolute RMS force accuracy = 0.00032446355
  estimated relative force accuracy = 9.7711235e-07
  using double precision FFTW3
  3d grid and FFT values/proc = 205379 125000
Generated 0 of 3 mixed pair_coeff terms from geometric mixing rule
write_data npt_equilibration_complete.data
System init for write_data ...
PPPM initialization ...
  extracting TIP4P info from pair style
  using 12-bit tables for long-range coulomb
  G vector (1/distance) = 0.28862479
  grid = 50 50 50
  stencil order = 5
  estimated absolute RMS force accuracy = 0.00032446355
  estimated relative force accuracy = 9.7711235e-07
  using double precision FFTW3
  3d grid and FFT values/proc = 205379 125000
Generated 0 of 3 mixed pair_coeff terms from geometric mixing rule
WARNING: Not all mixed pair coeffs generated from mixing. Use write_data with 'pair ij' option to store all pair coeffs. (src/write_data.cpp:364)

variable current_dens equal density
variable current_vol equal vol
variable current_press equal press
variable current_temp equal temp
print ""

print "NPT equilibration complete (1000 ps total):"
NPT equilibration complete (1000 ps total):
print "  Temperature: ${current_temp} K"
  Temperature: 303.233900652922 K
print "  Density:     ${current_dens} g/cmÂ³"
  Density:     1.06917852564117 g/cm³
print "  Pressure:    ${current_press} atm"
  Pressure:    49.6016243146519 atm
print "  Volume:      ${current_vol} Ã…Â³"
  Volume:      53356.3443784909 …³
print ""

print "âœ… CHECKPOINT: NPT equilibration complete"
œ… CHECKPOINT: NPT equilibration complete
print "   Files saved:"
   Files saved:
print "     - npt_complete.restart (legacy name)"
     - npt_complete.restart (legacy name)
print "     - npt_equilibration_complete.restart (for production restart)"
     - npt_equilibration_complete.restart (for production restart)
print "     - npt_equilibration_complete.data (structure file)"
     - npt_equilibration_complete.data (structure file)
print "     - npt_equilibration_thermo.dat (thermodynamics)"
     - npt_equilibration_thermo.dat (thermodynamics)
print ""


# Checkpoint: Verify density
if "${current_dens} < 0.85 || ${current_dens} > 1.15" then     "print 'ERROR: Density outside expected range (0.85-1.15 g/cmÂ³)'"     "print 'Current density: ${current_dens} g/cmÂ³'"     "quit 1"

print "âœ“ Density validation PASSED: ${current_dens} g/cmÂ³"
œ“ Density validation PASSED: 1.06917852564117 g/cm³

print ""


# ğŸ”§ CHECKPOINT #4: Final validation before production
variable current_dens equal density
variable current_press equal press
variable current_vol equal vol
variable current_boxsize equal vol^(1.0/3.0)

print ""

print "NPT equilibration complete. FINAL VALIDATION:"
NPT equilibration complete. FINAL VALIDATION:
print "  Density:  ${current_dens} g/cmÂ³"
  Density:  1.06917852564117 g/cm³
print "  Pressure: ${current_press} atm"
  Pressure: 49.6016243146519 atm
print "  Volume:   ${current_vol} Ã…Â³"
  Volume:   53356.3443784909 …³
print "  Box size: ${current_boxsize} Ã…"
  Box size: 37.6468539324942 …
print ""

print "âœ… CHECKPOINT: NPT equilibration complete (1000 ps)"
œ… CHECKPOINT: NPT equilibration complete (1000 ps)
print "   Creating restart file: npt_equilibration_complete.restart"
   Creating restart file: npt_equilibration_complete.restart
print "   This checkpoint allows restarting from production stage if needed"
   This checkpoint allows restarting from production stage if needed
print ""


# Save NPT checkpoint for production restart capability
write_restart npt_equilibration_complete.restart
System init for write_restart ...
PPPM initialization ...
  extracting TIP4P info from pair style
  using 12-bit tables for long-range coulomb
  G vector (1/distance) = 0.28862479
  grid = 50 50 50
  stencil order = 5
  estimated absolute RMS force accuracy = 0.00032446355
  estimated relative force accuracy = 9.7711235e-07
  using double precision FFTW3
  3d grid and FFT values/proc = 205379 125000
Generated 0 of 3 mixed pair_coeff terms from geometric mixing rule
write_data npt_equilibration_complete.data
System init for write_data ...
PPPM initialization ...
  extracting TIP4P info from pair style
  using 12-bit tables for long-range coulomb
  G vector (1/distance) = 0.28862479
  grid = 50 50 50
  stencil order = 5
  estimated absolute RMS force accuracy = 0.00032446355
  estimated relative force accuracy = 9.7711235e-07
  using double precision FFTW3
  3d grid and FFT values/proc = 205379 125000
Generated 0 of 3 mixed pair_coeff terms from geometric mixing rule
WARNING: Not all mixed pair coeffs generated from mixing. Use write_data with 'pair ij' option to store all pair coeffs. (src/write_data.cpp:364)

print "âœ… NPT checkpoint saved successfully"
œ… NPT checkpoint saved successfully
print "   Files created:"
   Files created:
print "     - npt_equilibration_complete.restart (for continuation)"
     - npt_equilibration_complete.restart (for continuation)
print "     - npt_equilibration_complete.data (structure file)"
     - npt_equilibration_complete.data (structure file)
print ""


if "${current_dens} < 0.80" then     "print 'ğŸ”´ ERROR: Density ${current_dens} g/cmÂ³ is TOO LOW (gas phase)!'"     "print 'Expected: 0.95-1.05 g/cmÂ³ for liquid water'"     "print ''"     "print 'Possible causes:'"     "print '  1. System escaped to gas phase during equilibration'"     "print '  2. PPPM grid artifacts occurred later in simulation'"     "print '  3. Initial system was not properly solvated'"     "quit 1"

if "${current_dens} > 1.20" then     "print 'ğŸ”´ ERROR: Density ${current_dens} g/cmÂ³ is TOO HIGH (over-compressed)!'"     "print 'Expected: 0.95-1.05 g/cmÂ³ for liquid water'"     "print ''"     "print 'Possible causes:'"     "print '  1. Barostat not converging properly'"     "print '  2. System trapped in metastable compressed state'"     "quit 1"

print "âœ… Density validation PASSED: ${current_dens} g/cmÂ³"
œ… Density validation PASSED: 1.06917852564117 g/cm³
print "Current density: ${current_dens} g/cmÂ³"
Current density: 1.06917852564117 g/cm³

#==============================================================================
# STAGE 4: Production MD (4000 ps = 4 ns)
#==============================================================================
print ""

print "===== STAGE 4: Production MD (4000 ps = 4 ns, GPU) ====="
===== STAGE 4: Production MD (4000 ps = 4 ns, GPU) =====
print "Main data collection phase - RDF, MSD, trajectories"
Main data collection phase - RDF, MSD, trajectories
print ""

print "Pressure control strategy:"
Pressure control strategy:
print "  â€¢ Using MTK barostat for better ensemble accuracy"
  €¢ Using MTK barostat for better ensemble accuracy
print "  â€¢ Tdamp = 100 fs (standard for NosÃ©-Hoover)"
  €¢ Tdamp = 100 fs (standard for Nos©-Hoover)
print "  â€¢ Pdamp = 1000 fs (tighter control for stable production)"
  €¢ Pdamp = 1000 fs (tighter control for stable production)
print ""


# Production NPT with MTK barostat and tighter pressure control
# Using smaller pdamp (1000 fs vs 2000 fs) for more stable pressure
# ğŸ”§ CRITICAL: Using npt/gpu instead of npt for FULL GPU acceleration
fix mynpt all npt/gpu temp 300.0 300.0 100.0 iso 1.0 1.0 1000.0 mtk yes

# Main trajectory dump (every 1 ps for analysis)
# Trajectory output (every 1 ps) - using wrapped coordinates for proper visualization
dump prod_traj all custom 1000 production.lammpstrj id type xu yu zu
dump_modify prod_traj sort id

# DCD dump (every 0.5 ps for smooth visualization)
dump prod_dcd all dcd 500 production.dcd
dump_modify prod_dcd unwrap yes

# Detailed thermodynamics (every 1 ps)
fix thermo_avg all ave/time 100 10 1000 v_epsilon_co v_temp v_press v_pe v_ke v_etotal v_vol v_dens     file production_thermo.dat

# Very detailed thermodynamics (every 0.1 ps for fluctuation analysis)
fix thermo_detailed all ave/time 10 10 100 v_temp v_press v_pe v_ke v_vol v_dens     file production_detailed_thermo.dat

# Compute RDFs on-the-fly (Global)
# Type 1=C, Type 2=O, Type 3=H
compute rdf_CO all rdf 150 1 2  # Global C-O pairs
compute rdf_CC all rdf 150 1 1  # Global C-C pairs
compute rdf_OO all rdf 150 2 2  # Global O-O pairs

# Individual C60 molecule RDFs with water (CORRECTED)
# "For atoms in group c60_1, find Type 2 (Oxygen) distribution"
compute rdf_C60_1_O c60_1 rdf 150 1 2
compute rdf_C60_2_O c60_2 rdf 150 1 2
compute rdf_C60_3_O c60_3 rdf 150 1 2

# (Deleted impossible Inter-C60 computations - calculate these in Python/OVITO)

# Average Global RDFs
fix rdf_CO_avg all ave/time 1000 10 10000 c_rdf_CO[1] c_rdf_CO[2] c_rdf_CO[3] file rdf_CO.dat mode vector
fix rdf_CC_avg all ave/time 1000 10 10000 c_rdf_CC[1] c_rdf_CC[2] c_rdf_CC[3] file rdf_CC.dat mode vector
fix rdf_OO_avg all ave/time 1000 10 10000 c_rdf_OO[1] c_rdf_OO[2] c_rdf_OO[3] file rdf_OO.dat mode vector

# Average Individual C60-Water RDFs
fix rdf_C60_1_O_avg all ave/time 1000 10 10000 c_rdf_C60_1_O[1] c_rdf_C60_1_O[2] c_rdf_C60_1_O[3] file rdf_C60_1_water.dat mode vector
fix rdf_C60_2_O_avg all ave/time 1000 10 10000 c_rdf_C60_2_O[1] c_rdf_C60_2_O[2] c_rdf_C60_2_O[3] file rdf_C60_2_water.dat mode vector
fix rdf_C60_3_O_avg all ave/time 1000 10 10000 c_rdf_C60_3_O[1] c_rdf_C60_3_O[2] c_rdf_C60_3_O[3] file rdf_C60_3_water.dat mode vector

# Compute MSD for water oxygen (diffusion analysis)
# Need to use the oxygen group defined earlier
compute msd_water oxygen msd
# MSD compute outputs: [1]=dxÂ², [2]=dyÂ², [3]=dzÂ², [4]=total rÂ²
fix msd_avg all ave/time 100 10 1000 c_msd_water[1] c_msd_water[2] c_msd_water[3] c_msd_water[4] file msd_water.dat

# Dump images every 20 ps for visualization
dump prod_img all image 10000 production_*.ppm type type     axes yes 0.8 0.02 view 60 30 zoom 1.5     box no 0.01 shiny 0.5
dump_modify prod_img pad 6 backcolor white

run 1000000  # 2000 ps = 2 ns at 2 fs timestep
PPPM initialization ...
  extracting TIP4P info from pair style
  using 12-bit tables for long-range coulomb
  G vector (1/distance) = 0.28862479
  grid = 50 50 50
  stencil order = 5
  estimated absolute RMS force accuracy = 0.00032446355
  estimated relative force accuracy = 9.7711235e-07
  using double precision FFTW3
  3d grid and FFT values/proc = 205379 125000
Generated 0 of 3 mixed pair_coeff terms from geometric mixing rule
Neighbor list info ...
  update: every = 1 steps, delay = 5 steps, check = yes
  max neighbors/atom: 2000, page size: 100000
  master list distance cutoff = 14.3092
  ghost atom cutoff = 18
  binsize = 7.1546, bins = 6 6 6
  6 neighbor lists, perpetual/occasional/extra = 0 6 0
  (1) compute rdf, occasional
      attributes: half, newton off
      pair build: half/bin/newtoff
      stencil: full/bin/3d
      bin: standard
  (2) compute rdf, occasional
      attributes: half, newton off
      pair build: half/bin/newtoff
      stencil: full/bin/3d
      bin: standard
  (3) compute rdf, occasional
      attributes: half, newton off
      pair build: half/bin/newtoff
      stencil: full/bin/3d
      bin: standard
  (4) compute rdf, occasional
      attributes: half, newton off
      pair build: half/bin/newtoff
      stencil: full/bin/3d
      bin: standard
  (5) compute rdf, occasional
      attributes: half, newton off
      pair build: half/bin/newtoff
      stencil: full/bin/3d
      bin: standard
  (6) compute rdf, occasional
      attributes: half, newton off
      pair build: half/bin/newtoff
      stencil: full/bin/3d
      bin: standard
Per MPI rank memory allocation (min/avg/max) = 69.53 | 69.53 | 69.53 Mbytes
   Step          Temp          Press          Volume         PotEng         KinEng         TotEng        Density    
    600010   303.2339       42.407946      53356.344     -22306.015      3392.2716     -18913.744      1.0691785    
    601000   302.55384     -242.13279      53859.144     -22158.377      3384.6638     -18773.713      1.0591973    
    602000   306.33795     -386.81965      53238.781     -22194.358      3426.9965     -18767.361      1.0715395    
    603000   290.73533      339.14932      53111.235     -22257.463      3252.4503     -19005.013      1.0741128    
    604000   300.37536     -199.7308       53693.441     -22135.775      3360.2932     -18775.482      1.062466     
    605000   305.07902      377.56112      53368.739     -22371.808      3412.913      -18958.895      1.0689302    
    606000   303.52293      11.194588      52968.469     -22473.491      3395.505      -19077.986      1.0770079    
    607000   304.11588      543.89578      53008.661     -22233.578      3402.1383     -18831.44       1.0761912    
    608000   294.91229      284.12052      53130.623     -22304.976      3299.178      -19005.798      1.0737208    
    609000   304.79019      100.83252      53170.057     -22243.66       3409.6818     -18833.978      1.0729245    
    610000   306.58108      359.08577      53530.481     -22198.944      3429.7165     -18769.228      1.0657005    
    611000   300.28032     -290.62158      53577.037     -22398.135      3359.23       -19038.905      1.0647744    
    612000   298.13751     -647.63742      53651.828     -22294.601      3335.2583     -18959.343      1.0632901    
    613000   306.69672     -267.36709      53235.508     -22264.757      3431.0101     -18833.747      1.0716054    
    614000   300.93142     -525.98471      53219.951     -22234.572      3366.5138     -18868.058      1.0719186    
    615000   298.94024     -499.98129      53755.998     -22148.014      3344.2385     -18803.776      1.0612296    
    616000   303.38466      678.17038      53883.4       -22174.733      3393.9582     -18780.775      1.0587204    
    617000   301.37691      685.96241      52931.515     -22236.981      3371.4975     -18865.483      1.0777598    
    618000   296.79617     -814.87427      53674.878     -22240.966      3320.2528     -18920.713      1.0628335    
    619000   304.36581      250.14018      53632.45      -22278.116      3404.9342     -18873.182      1.0636743    
    620000   306.98092      682.95657      53463.712     -22244.969      3434.1894     -18810.779      1.0670314    
    621000   304.55352     -246.54022      53819.842     -22273.944      3407.0342     -18866.91       1.0599707    
    622000   298.73324      0.28569043     53133.434     -22359.81       3341.9228     -19017.887      1.073664     
    623000   291.54408      108.9371       53611.684     -22208.92       3261.4978     -18947.423      1.0640863    
    624000   301.543       -593.41902      53364.213     -22194.385      3373.3555     -18821.029      1.0690209    
    625000   304.09471      841.88721      53158.096     -22302.662      3401.9014     -18900.761      1.0731659    
    626000   293.6977       118.10984      53174.067     -22222.209      3285.5904     -18936.619      1.0728436    
    627000   309.70641     -66.953832      53302.964     -22303.605      3464.6795     -18838.925      1.0702493    
    628000   299.56822     -226.39326      53307.121     -22257.792      3351.2638     -18906.528      1.0701658    
    629000   305.33221     -137.04385      53286.517     -22293.951      3415.7454     -18878.206      1.0705796    
    630000   302.36778     -19.923261      53174.158     -22236.108      3382.5824     -18853.525      1.0728418    
    631000   300.89986      117.04358      53258.635     -22212.454      3366.1608     -18846.293      1.0711401    
    632000   298.47216      160.43416      53754.436     -22291.305      3339.0021     -18952.303      1.0612605    
    633000   300.59021     -477.23451      53952.078     -22172.212      3362.6967     -18809.516      1.0573728    
    634000   299.5303       231.61718      53161.457     -22228.675      3350.8396     -18877.835      1.0730981    
    635000   301.42808     -321.29335      53635.939     -22221.501      3372.0699     -18849.431      1.0636051    
    636000   297.91493      375.13059      53543.625     -22261.784      3332.7683     -18929.016      1.0654388    
    637000   306.01119     -78.582917      53712.956     -22297.262      3423.3411     -18873.921      1.06208      
    638000   300.50843      301.3258       53465.855     -22239.951      3361.7818     -18878.169      1.0669886    
    639000   302.05536      42.681502      53072.19      -22269.191      3379.0873     -18890.103      1.074903     
    640000   296.26306      69.346893      53440.055     -22221.703      3314.2889     -18907.414      1.0675037    
    641000   300.23536     -386.8823       53452.406     -22205.615      3358.727      -18846.888      1.0672571    
    642000   296.80807      155.85866      53030.637     -22231.905      3320.3859     -18911.519      1.0757453    
    643000   298.0291      -648.9389       53407.584     -22330.645      3334.0456     -18996.599      1.0681528    
    644000   304.06581      288.93912      52835.907     -22156.768      3401.5782     -18755.19       1.07971      
    645000   297.53102      26.144544      53014.165     -22320.413      3328.4736     -18991.939      1.0760795    
    646000   302.28405     -67.164131      53082.647     -22278.874      3381.6456     -18897.229      1.0746913    
    647000   305.14919     -103.44139      53308.27      -22254.214      3413.6979     -18840.516      1.0701427    
    648000   302.27476     -5.7561483      53329.347     -22299.001      3381.5417     -18917.459      1.0697198    
    649000   293.11197      1041.7941      53304.297     -22346.565      3279.0378     -19067.527      1.0702225    
    650000   301.00791     -65.694677      53383.482     -22257.647      3367.3696     -18890.277      1.068635     
    651000   292.25026      239.46059      53065.932     -22156.547      3269.3978     -18887.149      1.0750298    
    652000   306.48288     -449.93144      52818.481     -22267.843      3428.6179     -18839.225      1.0800662    
    653000   299.08194      228.75956      53361.184     -22341.804      3345.8237     -18995.98       1.0690816    
    654000   300.50077      501.47418      53726.665     -22231.788      3361.6961     -18870.092      1.061809     
    655000   299.31045     -204.77163      53586.351     -22256.274      3348.3801     -18907.894      1.0645893    
    656000   303.28797     -429.2285       53154.792     -22248.483      3392.8765     -18855.607      1.0732326    
    657000   297.35817      237.34728      52895.599     -22277.36       3326.54       -18950.82       1.0784916    
    658000   297.76676      174.23013      53702.856     -22248.25       3331.1109     -18917.139      1.0622798    
    659000   304.04759     -342.63094      53364.682     -22272.865      3401.3743     -18871.491      1.0690115    
    660000   294.19409     -297.80146      53126.824     -22373.052      3291.1434     -19081.908      1.0737976    
    661000   298.2686      -167.98111      53779.642     -22138.811      3336.7248     -18802.086      1.0607631    
    662000   295.16397      182.02623      53411.658     -22225.005      3301.9935     -18923.011      1.0680713    
    663000   298.35087      51.442733      53439.152     -22255.511      3337.6453     -18917.865      1.0675218    
    664000   304.8412      -9.1485932      53464.037     -22248.695      3410.2524     -18838.443      1.0670249    
    665000   300.66504      474.30515      53015.267     -22207.302      3363.5338     -18843.768      1.0760571    
    666000   306.19167      355.84812      53835.565     -22296.94       3425.3601     -18871.579      1.0596612    
    667000   296.67729      420.50569      53647.924     -22273.827      3318.9229     -18954.904      1.0633675    
    668000   299.37731     -41.312311      53324.99      -22416.532      3349.128      -19067.404      1.0698072    
    669000   301.43878      242.92691      53392.456     -22338.116      3372.1897     -18965.926      1.0684554    
    670000   298.20016     -353.47211      53142.935     -22312.049      3335.9593     -18976.09       1.0734721    
    671000   304.61695     -533.78234      53362.161     -22251.023      3407.7438     -18843.279      1.069062     
    672000   294.77952      224.73906      53166.664     -22244.304      3297.6927     -18946.612      1.072993     
    673000   300.19668     -610.52403      53149.193     -22227.046      3358.2943     -18868.751      1.0733457    
    674000   296.61913     -374.99494      53826.021     -22305.593      3318.2723     -18987.321      1.0598491    
    675000   297.64471      166.17986      53854.609     -22141.022      3329.7455     -18811.277      1.0592864    
    676000   304.28009      39.008137      53383.66      -22143.742      3403.9754     -18739.767      1.0686314    
    677000   303.25006     -378.77586      53657.458     -22270.943      3392.4524     -18878.49       1.0631785    
    678000   298.30907      318.99702      53798.763     -22282.193      3337.1776     -18945.016      1.0603861    
    679000   298.75497      409.82711      53258.16      -22248.157      3342.1659     -18905.991      1.0711496    
    680000   296.83078     -503.0481       53539.245     -22280.675      3320.64       -18960.035      1.065526     
    681000   293.18924      129.52143      52908.652     -22367.674      3279.9022     -19087.771      1.0782255    
    682000   305.0421       248.37305      53297.041     -22251.918      3412.4999     -18839.418      1.0703682    
    683000   301.94574      75.654754      53277.802     -22202.685      3377.861      -18824.824      1.0707547    
    684000   304.86427     -654.66164      53549.072     -22212.258      3410.5105     -18801.748      1.0653305    
    685000   299.42999     -498.7834       53066.572     -22304.749      3349.7174     -18955.032      1.0750168    
    686000   297.24786      437.74234      52831.036     -22218.071      3325.3059     -18892.766      1.0798096    
    687000   299.49602      719.0371       53379.092     -22242.617      3350.456      -18892.161      1.0687229    
    688000   296.66129      284.66105      53525.69      -22214.777      3318.744      -18896.033      1.0657958    
    689000   300.40536     -694.10223      53437.458     -22243.844      3360.6288     -18883.215      1.0675556    
    690000   298.26697      821.8006       53141.367     -22206.809      3336.7067     -18870.103      1.0735038    
    691000   302.48936     -471.36336      52966.674     -22272.255      3383.9424     -18888.313      1.0770444    
    692000   296.56904      24.459369      53071.265     -22372.388      3317.712      -19054.676      1.0749218    
    693000   299.56966     -64.991868      53887.134     -22342.232      3351.2798     -18990.952      1.0586471    
    694000   296.84854     -326.69104      53604.102     -22343.136      3320.8387     -19022.297      1.0642368    
    695000   297.82424     -954.7081       53786.842     -22342.73       3331.7539     -19010.976      1.0606211    
    696000   299.68142     -431.96231      53372.352     -22225.764      3352.5301     -18873.234      1.0688578    
    697000   297.17207     -491.7351       53897.211     -22357.43       3324.458      -19032.972      1.0584492    
    698000   295.39331      542.66193      53637.469     -22257.691      3304.5591     -18953.132      1.0635747    
    699000   300.99517      248.0012       53254.723     -22270.178      3367.227      -18902.951      1.0712188    
    700000   306.14207     -234.67001      53075.8       -22345.992      3424.8052     -18921.187      1.0748299    
    701000   297.50856      359.28358      53357.293     -22211.093      3328.2223     -18882.871      1.0691595    
    702000   299.17277      1019.7855      52977.865     -22280.769      3346.8398     -18933.929      1.0768168    
    703000   303.43035      352.61322      53098.691     -22355.304      3394.4693     -18960.834      1.0743665    
    704000   302.52687     -264.09131      53475.068     -22107.552      3384.3621     -18723.19       1.0668048    
    705000   295.88285     -113.03315      53839.514     -22235.526      3310.0356     -18925.49       1.0595834    
    706000   297.75532      846.32541      53406.695     -22294.55       3330.9828     -18963.567      1.0681705    
    707000   294.18298     -440.84705      53461.094     -22322.195      3291.0191     -19031.176      1.0670836    
    708000   303.11596     -258.44186      53157.897     -22290.105      3390.9522     -18899.153      1.0731699    
    709000   299.1487      -84.217111      53423.628     -22312.729      3346.5705     -18966.159      1.067832     
    710000   298.73801      342.96793      53475.031     -22299.077      3341.9762     -18957.101      1.0668055    
    711000   298.93367      835.59331      53576.119     -22345.537      3344.165      -19001.372      1.0647926    
    712000   300.11002     -526.36924      53562.643     -22221.061      3357.3248     -18863.737      1.0650605    
    713000   300.72025     -43.637297      53390.488     -22218.718      3364.1515     -18854.567      1.0684948    
    714000   300.0682      -150.68336      52871.506     -22171.209      3356.857      -18814.352      1.078983     
    715000   293.6081      -376.11133      53474.557     -22259.546      3284.588      -18974.958      1.066815     
    716000   301.85485      393.90318      53556.527     -22298.021      3376.8442     -18921.177      1.0651822    
    717000   302.1778       639.5708       53566.908     -22209.872      3380.4571     -18829.415      1.0649757    
    718000   296.26101      404.07964      53245.822     -22278.253      3314.2661     -18963.987      1.0713978    
    719000   297.37173      392.69142      53551.05      -22282.571      3326.6916     -18955.88       1.0652911    
    720000   300.84431     -555.74168      53326.186     -22217.593      3365.5394     -18852.053      1.0697832    
    721000   296.80448     -145.39776      53472.796     -22238.677      3320.3459     -18918.331      1.0668501    
    722000   299.61822     -485.86047      53163.667     -22292.482      3351.823      -18940.659      1.0730535    
    723000   293.0174       662.8862       53052.363     -22271.534      3277.9798     -18993.554      1.0753047    
    724000   305.40395     -501.66839      53435.545     -22149.811      3416.5479     -18733.263      1.0675938    
    725000   293.8341       585.59659      53823.192     -22078.278      3287.1162     -18791.162      1.0599048    
    726000   302.14354      167.94506      52895.663     -22237.109      3380.0737     -18857.035      1.0784903    
    727000   301.03376     -711.46245      53574.584     -22321.802      3367.6587     -18954.143      1.0648232    
    728000   297.57974      142.77148      53454.238     -22203.776      3329.0186     -18874.757      1.0672205    
    729000   300.17109      577.38141      53394.178     -22139.524      3358.008      -18781.516      1.0684209    
    730000   296.04997     -1179.0918      53226.722     -22253.711      3311.9051     -18941.806      1.0717823    
    731000   293.39974      424.21407      53343.781     -22363.139      3282.2571     -19080.882      1.0694303    
    732000   301.466       -104.65017      53225.317     -22230.713      3372.4941     -18858.219      1.0718106    
    733000   303.81784      516.43569      53152.055     -22260.326      3398.8041     -18861.522      1.0732879    
    734000   302.23384     -808.08357      53660.962     -22253.799      3381.084      -18872.715      1.0631091    
    735000   302.4897      -222.58235      53228.156     -22312.682      3383.9463     -18928.736      1.0717534    
    736000   302.72522      676.65628      52931.846     -22216.596      3386.581      -18830.015      1.077753     
    737000   298.96197     -356.17729      53520.028     -22190.187      3344.4816     -18845.705      1.0659086    
    738000   304.78321      305.30342      53823.817     -22167.139      3409.6038     -18757.535      1.0598925    
    739000   300.9409       849.43964      53201.527     -22267.863      3366.6199     -18901.243      1.0722899    
    740000   297.64334     -46.441624      53410.693     -22267.531      3329.7301     -18937.801      1.0680906    
    741000   302.30553     -709.75873      53324.276     -22204.655      3381.8859     -18822.769      1.0698215    
    742000   303.66069     -105.89314      53359.874     -22213.256      3397.0461     -18816.21       1.0691078    
    743000   306.13408      457.33115      53356.586     -22351.335      3424.7159     -18926.619      1.0691737    
    744000   291.81434     -54.428057      53405.682     -22320.429      3264.5212     -19055.908      1.0681908    
    745000   306.14875     -534.37179      53752.763     -22200.289      3424.88       -18775.409      1.0612935    
    746000   305.563        1023.0636      52990.197     -22188.839      3418.3273     -18770.511      1.0765662    
    747000   299.25411      565.94542      53381.254     -22236.033      3347.7497     -18888.284      1.0686796    
    748000   292.0474      -535.79191      53302.723     -22339.252      3267.1285     -19072.124      1.0702541    
    749000   300.93108      211.82575      53536.131     -22327.128      3366.51       -18960.618      1.065588     
    750000   295.78901      621.51052      53370.241     -22188.399      3308.9858     -18879.413      1.0689001    
    751000   303.58986      1016.6883      53044.387     -22215.2        3396.2537     -18818.947      1.0754664    
    752000   302.53175     -255.35747      53872.295     -22226.326      3384.4166     -18841.91       1.0589387    
    753000   299.70288     -132.88284      53425.749     -22263.076      3352.7702     -18910.305      1.0677896    
    754000   296.45409     -785.97034      53561.291     -22177.981      3316.426      -18861.555      1.0650874    
    755000   298.87349     -325.9193       53845.676     -22202.358      3343.4918     -18858.866      1.0594622    
    756000   295.9995       388.69728      53190.849     -22335.82       3311.3405     -19024.479      1.0725051    
    757000   297.7431       163.41122      52958.852     -22204.79       3330.8461     -18873.944      1.0772034    
    758000   299.57664     -600.24144      53413.227     -22343.33       3351.358      -18991.972      1.0680399    
    759000   297.22793      5.7392832      53511.106     -22182.283      3325.083      -18857.2        1.0660863    
    760000   299.97883     -317.75453      53507.882     -22255.602      3355.8572     -18899.745      1.0661506    
    761000   300.46372     -729.23467      52512.864     -22303.155      3361.2816     -18941.873      1.086352     
    762000   302.24094      395.22944      53178.826     -22282.506      3381.1634     -18901.342      1.0727476    
    763000   296.55992      355.18435      53193.16      -22202.905      3317.61       -18885.295      1.0724585    
    764000   302.97989      319.26482      53084.745     -22267.324      3389.43       -18877.894      1.0746488    
    765000   301.23169     -517.31686      53102.769     -22211.596      3369.8729     -18841.723      1.074284     
    766000   302.63524      1076.8219      53205.324     -22261.827      3385.5744     -18876.252      1.0722133    
    767000   307.09091     -531.3614       53371.833     -22226.661      3435.42       -18791.241      1.0688682    
    768000   293.22948      144.09735      53338.127     -22194.31       3280.3524     -18913.958      1.0695437    
    769000   298.92266      438.81195      53136.17      -22163.935      3344.0418     -18819.893      1.0736088    
    770000   300.98013     -319.27385      53325.261     -22266.194      3367.0588     -18899.136      1.0698017    
    771000   293.26319     -696.96597      53493.105     -22302.275      3280.7295     -19021.546      1.0664451    
    772000   302.20901     -247.63802      53270.816     -22369.488      3380.8061     -18988.682      1.0708951    
    773000   301.5588      -731.48513      53083.604     -22370.585      3373.5323     -18997.053      1.0746719    
    774000   299.89382     -803.08254      53473.984     -22306.052      3354.9062     -18951.146      1.0668264    
    775000   308.519        876.99778      53437.323     -22359.157      3451.3959     -18907.761      1.0675583    
    776000   304.95808     -482.72622      53609.126     -22266.478      3411.56       -18854.918      1.0641371    
    777000   296.46039      846.16489      53037.099     -22434.828      3316.4965     -19118.331      1.0756142    
    778000   297.91115     -56.406389      53466.709     -22322.301      3332.7261     -18989.575      1.0669715    
    779000   300.29699      696.94924      52897.772     -22298.143      3359.4165     -18938.726      1.0784473    
    780000   292.33069      376.11962      52901.97      -22241.46       3270.2976     -18971.163      1.0783617    
    781000   296.38203     -105.16358      53246.425     -22301.7        3315.6199     -18986.08       1.0713857    
    782000   301.96346     -835.89456      54071.977     -22268.777      3378.0593     -18890.717      1.0550281    
    783000   309.49765      336.83484      53047.575     -22277.984      3462.3441     -18815.64       1.0754018    
    784000   296.02963      178.64236      53670.395     -22147.303      3311.6776     -18835.625      1.0629223    
    785000   295.2109      -609.53247      53891.291     -22309.421      3302.5185     -19006.903      1.0585654    
    786000   304.36181     -581.55819      53503.154     -22367.932      3404.8895     -18963.043      1.0662448    
    787000   294.96138     -767.84324      53886.83      -22359.274      3299.7271     -19059.547      1.0586531    
    788000   294.41947      521.85941      54205.602     -22335.775      3293.6648     -19042.11       1.0524273    
    789000   295.28084      546.68696      53836.255     -22440.765      3303.3009     -19137.464      1.0596476    
    790000   297.99321     -517.43534      53714.712     -22290.641      3333.6441     -18956.997      1.0620453    
    791000   293.13127     -117.92237      53823.181     -22286.136      3279.2536     -19006.882      1.059905     
    792000   298.95143     -410.48356      53654.273     -22293.344      3344.3637     -18948.98       1.0632417    
    793000   301.81695     -27.431969      53404.014     -22259.843      3376.4203     -18883.422      1.0682242    
    794000   298.87514     -225.34925      53373.925     -22238.78       3343.5103     -18895.27       1.0688264    
    795000   301.38685      395.84904      53021.166     -22337.185      3371.6087     -18965.576      1.0759374    
    796000   295.1374       176.28157      53235.024     -22318.148      3301.6962     -19016.452      1.0716151    
    797000   294.97849      488.28291      53156.951     -22326.176      3299.9185     -19026.258      1.0731891    
    798000   299.78133      124.05866      53132.461     -22295.685      3353.6478     -18942.038      1.0736837    
    799000   296.78347     -175.43207      53466.712     -22316.034      3320.1107     -18995.923      1.0669715    
    800000   296.76251      247.42145      53277.563     -22313.449      3319.8763     -18993.572      1.0707595    
    801000   299.00453      545.06646      53524.505     -22301.25       3344.9577     -18956.292      1.0658194    
    802000   294.23498     -26.762364      53085.727     -22200.841      3291.6009     -18909.24       1.0746289    
    803000   295.81361      282.19164      53362.086     -22357.122      3309.2609     -19047.861      1.0690635    
    804000   300.68227     -53.200448      53174.871     -22329.65       3363.7265     -18965.923      1.0728274    
    805000   300.48057     -212.09968      53010.085     -22203.942      3361.4702     -18842.471      1.0761623    
    806000   305.18031     -772.22777      53172.44      -22162.229      3414.0461     -18748.183      1.0728764    
    807000   299.00669      354.01112      52672.499     -22288.256      3344.9818     -18943.274      1.0830596    
    808000   302.85847     -37.572653      53666.489     -22242.558      3388.0717     -18854.486      1.0629996    
    809000   298.14829     -351.69646      53135.604     -22291.877      3335.379      -18956.498      1.0736202    
    810000   298.73208      474.9372       53169.607     -22236.883      3341.9098     -18894.973      1.0729336    
    811000   290.11101     -85.809684      53366.998     -22336.013      3245.4661     -19090.547      1.0689651    
    812000   296.77337      44.914602      53252.949     -22283.371      3319.9977     -18963.373      1.0712544    
    813000   299.77063     -519.21161      53446.614     -22339.902      3353.5281     -18986.373      1.0673727    
    814000   294.83594     -51.502648      53441.92      -22304.47       3298.3238     -19006.146      1.0674665    
    815000   302.15041     -173.09934      53003.209     -22231.316      3380.1507     -18851.165      1.076302     
    816000   305.53451     -428.20577      53344.254     -22205.616      3418.0085     -18787.608      1.0694209    
    817000   300.34827     -65.475754      53282.696     -22266.304      3359.9901     -18906.313      1.0706564    
    818000   307.12662     -109.69178      54063.784     -22198.174      3435.8193     -18762.354      1.055188     
    819000   302.05738      119.73033      53813.296     -22291.676      3379.1099     -18912.566      1.0600997    
    820000   299.18935     -218.6948       53502.328     -22278.11       3347.0254     -18931.084      1.0662612    
    821000   299.78947     -411.19917      53727.343     -22327.447      3353.7389     -18973.708      1.0617956    
    822000   299.98148      391.04768      53584.331     -22383.583      3355.8869     -19027.696      1.0646295    
    823000   302.89553     -133.14996      53903.632     -22177.523      3388.4862     -18789.037      1.0583231    
    824000   295.75223     -368.34513      54219.94      -22266.387      3308.5744     -18957.813      1.052149     
    825000   301.15093     -13.974416      52946.966     -22368.432      3368.9694     -18999.463      1.0774453    
    826000   304.39761     -286.11514      53479.001     -22236.614      3405.29       -18831.324      1.0667263    
    827000   297.84933     -384.22035      52937.456     -22188.681      3332.0345     -18856.646      1.0776388    
    828000   297.16602     -431.96933      53412.768     -22260.456      3324.3903     -18936.066      1.0680491    
    829000   300.82443      165.97461      53124.67      -22187.959      3365.3169     -18822.642      1.0738412    
    830000   307.91693     -488.55389      52996.099     -22262.623      3444.6606     -18817.963      1.0764464    
    831000   305.02857      105.19339      52957.712     -22214.941      3412.3486     -18802.592      1.0772266    
    832000   299.81119      95.718338      53095.708     -22295.649      3353.9818     -18941.668      1.0744269    
    833000   305.51523     -472.4249       53352.544     -22292.841      3417.7928     -18875.048      1.0692547    
    834000   298.68575     -134.31277      52812.773     -22285.105      3341.3916     -18943.714      1.080183     
    835000   296.19292      155.81093      53037.09      -22295.005      3313.5043     -18981.5        1.0756144    
    836000   299.07599     -828.60179      53844.919     -22269.516      3345.7571     -18923.759      1.0594771    
    837000   303.824        489.60695      53104.307     -22351.467      3398.873      -18952.594      1.0742529    
    838000   304.22725     -646.04763      53304.444     -22324.492      3403.3842     -18921.108      1.0702195    
    839000   297.38684     -934.88455      53651.203     -22280.729      3326.8607     -18953.868      1.0633025    
    840000   287.92207     -306.54606      52863.328     -22369.627      3220.9784     -19148.648      1.0791499    
    841000   303.74517     -190.81767      52960.584     -22258.078      3397.9911     -18860.087      1.0771682    
    842000   303.48797     -743.80312      53660.826     -22260.316      3395.1138     -18865.202      1.0631118    
    843000   296.38027     -475.60005      53454.147     -22241.227      3315.6002     -18925.627      1.0672223    
    844000   297.53478      338.24438      53084.303     -22222.675      3328.5156     -18894.16       1.0746577    
    845000   297.2764      -417.57418      53284.587     -22310.682      3325.6252     -18985.056      1.0706184    
    846000   302.4297      -98.120024      53111.64      -22285.217      3383.2751     -18901.942      1.0741046    
    847000   303.56472     -685.40705      53666.039     -22205.881      3395.9725     -18809.908      1.0630085    
    848000   301.64407     -266.25132      53547.238     -22214.839      3374.4862     -18840.353      1.0653669    
    849000   300.48685     -133.89801      53143.111     -22321.096      3361.5405     -18959.556      1.0734685    
    850000   296.21967     -736.97297      53589.457     -22181.636      3313.8036     -18867.832      1.0645276    
    851000   302.19849      746.5932       53148.218     -22139.917      3380.6885     -18759.228      1.0733654    
    852000   294.42622      325.26783      53559.973     -22329.424      3293.7403     -19035.684      1.0651136    
    853000   298.67479      377.52829      53498.459     -22230.487      3341.2689     -18889.218      1.0663383    
    854000   297.87949     -88.448509      53575.65      -22198.39       3332.3719     -18866.018      1.064802     
    855000   298.62768      180.225        53178.34      -22302.164      3340.7419     -18961.422      1.0727574    
    856000   297.29566     -368.76422      53891.276     -22179.103      3325.8407     -18853.262      1.0585657    
    857000   299.33434      214.72444      53519.069     -22229.119      3348.6473     -18880.472      1.0659277    
    858000   301.18884     -529.66778      53039.709     -22202.12       3369.3936     -18832.727      1.0755613    
    859000   304.96245     -22.525691      53696.332     -22309.378      3411.6089     -18897.769      1.0624088    
    860000   303.51644     -4.4197152      53377.328     -22129.865      3395.4323     -18734.432      1.0687582    
    861000   294.25754      147.67354      53327.297     -22273.985      3291.8533     -18982.132      1.0697609    
    862000   298.92241      184.48224      52832.055     -22187.508      3344.039      -18843.469      1.0797887    
    863000   300.16509      508.3289       53021.058     -22206.335      3357.9409     -18848.394      1.0759396    
    864000   306.15049     -26.23563       53231.101     -22396.668      3424.8995     -18971.769      1.0716941    
    865000   296.57093     -191.00471      53374.774     -22260.678      3317.7331     -18942.945      1.0688093    
    866000   298.31052      263.60126      53377.603     -22229.59       3337.1938     -18892.396      1.0687527    
    867000   295.89061      531.18186      53062.659     -22375.868      3310.1224     -19065.746      1.0750961    
    868000   290.60697     -144.12868      53405.387     -22385.695      3251.0144     -19134.68       1.0681967    
    869000   301.03392      302.01146      52793.084     -22282.052      3367.6605     -18914.392      1.0805858    
    870000   306.59794      671.0989       53254.378     -22421.945      3429.905      -18992.039      1.0712257    
    871000   303.62012      52.559303      53606.047     -22272.987      3396.5923     -18876.394      1.0641982    
    872000   298.91238      652.37817      53399.183     -22379.051      3343.9269     -19035.124      1.0683208    
    873000   295.36614     -93.579226      53113.326     -22250.357      3304.2551     -18946.102      1.0740705    
    874000   299.59301     -48.318516      53479.284     -22359.077      3351.5411     -19007.536      1.0667207    
    875000   297.92912     -110.81057      53365.713     -22226.939      3332.9272     -18894.012      1.0689908    
    876000   298.33279     -443.70147      53412.487     -22212.495      3337.443      -18875.052      1.0680547    
    877000   309.18349      108.05016      53148.893     -22316.522      3458.8295     -18857.692      1.0733518    
    878000   301.47614      1211.4824      52865.049     -22358.435      3372.6076     -18985.828      1.0791148    
    879000   301.4009      -44.605416      53273.637     -22166.394      3371.7658     -18794.628      1.0708384    
    880000   295.57677      322.33195      53770.125     -22165.868      3306.6114     -18859.256      1.0609508    
    881000   300.9373      -417.51215      53350.658     -22246.882      3366.5796     -18880.302      1.0692925    
    882000   303.30179     -251.56959      53742.257     -22345.149      3393.0311     -18952.118      1.061501     
    883000   295.20994     -128.25238      53346.267     -22359.9        3302.5078     -19057.392      1.0693805    
    884000   299.06557      331.43607      52912.528     -22339.907      3345.6406     -18994.266      1.0781465    
    885000   296.07773     -371.90809      52827.187     -22352.038      3312.2157     -19039.822      1.0798882    
    886000   297.53126     -293.55857      53702.225     -22262.048      3328.4763     -18933.571      1.0622923    
    887000   295.03057     -299.17724      53024.936     -22234.39       3300.5012     -18933.889      1.0758609    
    888000   300.88539     -380.09383      53227.967     -22216.979      3365.9989     -18850.98       1.0717572    
    889000   306.67918     -65.897612      53344.44      -22239.595      3430.8139     -18808.781      1.0694171    
    890000   295.3988      -154.34558      53649.278     -22220.879      3304.6205     -18916.259      1.0633406    
    891000   311.77386     -127.31618      53806.873     -22310.382      3487.808      -18822.574      1.0602262    
    892000   306.26193      104.54975      53017.697     -22222.658      3426.1461     -18796.512      1.0760078    
    893000   299.83306      311.80879      53134.374     -22281.934      3354.2265     -18927.708      1.073645     
    894000   298.68537     -585.04425      53320.893     -22268.911      3341.3873     -18927.524      1.0698894    
    895000   296.95858      809.05905      53618.681     -22195.327      3322.0697     -18873.257      1.0639474    
    896000   296.76332     -204.15681      53497.993     -22370.756      3319.8854     -19050.87       1.0663476    
    897000   304.56431     -1102.0745      53849.84      -22202.934      3407.1549     -18795.779      1.0593803    
    898000   297.26757     -275.93441      53103.439     -22342.92       3325.5264     -19017.393      1.0742705    
    899000   298.44484      508.7464       53241.712     -22101.562      3338.6965     -18762.865      1.0714805    
    900000   299.3839       399.20503      53009.766     -22180.507      3349.2018     -18831.306      1.0761688    
    901000   301.18808      1009.188       53581.322     -22227.232      3369.3851     -18857.847      1.0646893    
    902000   303.23684      712.12603      53221.698     -22159.135      3392.3045     -18766.831      1.0718835    
    903000   295.27125      405.31476      53394.557     -22158.412      3303.1936     -18855.219      1.0684133    
    904000   300.16096      744.45552      53675.892     -22391.392      3357.8947     -19033.497      1.0628134    
    905000   292.52118     -286.40159      53651.41      -22305.967      3272.4286     -19033.538      1.0632984    
    906000   303.37062     -847.48332      53469.561     -22356.048      3393.8011     -18962.247      1.0669146    
    907000   299.33551      157.1767       53754.197     -22337.467      3348.6604     -18988.806      1.0612652    
    908000   296.19741     -267.14772      53734.587     -22215.181      3313.5546     -18901.627      1.0616525    
    909000   300.13325      341.09511      53845.935     -22306.606      3357.5847     -18949.021      1.0594571    
    910000   296.93314      214.55322      53357.829     -22318.048      3321.7851     -18996.263      1.0691488    
    911000   298.73306      313.92854      52635.937     -22374.406      3341.9208     -19032.485      1.083812     
    912000   298.79102      493.17649      53192.772     -22287.817      3342.5692     -18945.248      1.0724663    
    913000   298.77477     -274.48817      53710.178     -22291.156      3342.3874     -18948.768      1.0621349    
    914000   300.2524       258.2676       53354.002     -22316.944      3358.9176     -18958.026      1.0692255    
    915000   302.24469      1124.5369      53084.079     -22176.893      3381.2053     -18795.687      1.0746623    
    916000   298.10087      112.79483      52823.314     -22191.229      3334.8485     -18856.38       1.0799674    
    917000   300.65805     -682.46939      53576.817     -22258.739      3363.4556     -18895.283      1.0647788    
    918000   298.61917      65.313609      53355.978     -22336.937      3340.6468     -18996.291      1.0691859    
    919000   297.49829      379.02872      52916.614     -22401.196      3328.1075     -19073.088      1.0780633    
    920000   298.42087      647.26726      52683.782     -22216.829      3338.4283     -18878.4        1.0828277    
    921000   304.17802     -789.46774      53179.685     -22138.924      3402.8334     -18736.09       1.0727303    
    922000   302.6102       560.16539      53803.058     -22290.252      3385.2942     -18904.958      1.0603014    
    923000   295.36448      300.10991      53063.966     -22364.63       3304.2365     -19060.393      1.0750696    
    924000   293.95154     -516.92939      53095.558     -22191.968      3288.43       -18903.538      1.0744299    
    925000   295.30067     -80.746797      52998.821     -22276.573      3303.5227     -18973.05       1.0763911    
    926000   301.33827      141.40239      53869.092     -22211.79       3371.0652     -18840.724      1.0590017    
    927000   301.87694      797.62618      53598.09      -22148.308      3377.0913     -18771.217      1.0643562    
    928000   303.80819      436.32032      53353.849     -22198.044      3398.6962     -18799.348      1.0692285    
    929000   296.65202     -183.10326      53486.985     -22161.474      3318.6403     -18842.833      1.0665671    
    930000   305.02676      536.05642      53532.452     -22307.683      3412.3283     -18895.355      1.0656612    
    931000   303.44004     -312.39088      53639.13      -22211.777      3394.5777     -18817.2        1.0635418    
    932000   300.84295     -574.70241      53859.353     -22278.4        3365.5241     -18912.875      1.0591931    
    933000   300.51296      375.9981       53992.215     -22316.584      3361.8325     -18954.751      1.0565867    
    934000   298.02619      582.13788      53340.283     -22337.845      3334.0131     -19003.832      1.0695005    
    935000   293.19262     -333.77856      53879.541     -22243.988      3279.94       -18964.048      1.0587963    
    936000   299.6221      -52.079152      53272.041     -22256.333      3351.8665     -18904.467      1.0708705    
    937000   299.79886     -678.24362      53623.824     -22366.166      3353.8439     -19012.322      1.0638454    
    938000   296.09462      326.86628      52773.668     -22123.423      3312.4046     -18811.019      1.0809834    
    939000   295.70572      387.15458      53472.054     -22196.164      3308.054      -18888.11       1.0668649    
    940000   297.14563     -43.105852      53070.17      -22240.347      3324.1623     -18916.185      1.0749439    
    941000   305.53101      178.85299      53361.022     -22344.448      3417.9693     -18926.479      1.0690848    
    942000   299.67791      211.83559      53318.273     -22335.57       3352.4909     -18983.079      1.069942     
    943000   300.39629      702.80856      53169.61      -22319.425      3360.5273     -18958.897      1.0729335    
    944000   302.01438     -65.094349      53747.01      -22405.614      3378.6289     -19026.985      1.0614071    
    945000   308.4046      -163.0522       53857.851     -22229.459      3450.1161     -18779.343      1.0592227    
    946000   305.81376      509.12488      53365.162     -22171.45       3421.1325     -18750.317      1.0690019    
    947000   301.94881      576.33318      52962.371     -22131.549      3377.8954     -18753.653      1.0771319    
    948000   294.73331     -314.77803      53527.843     -22297.018      3297.1756     -18999.843      1.065753     
    949000   294.1873      -316.8477       53903.17      -22177.859      3291.0675     -18886.791      1.0583321    
    950000   297.30919      78.320493      53247.421     -22232.713      3325.992      -18906.721      1.0713657    
    951000   298.99601      111.63558      53289.141     -22364.846      3344.8624     -19019.983      1.0705269    
    952000   293.81734     -518.93543      53878.597     -22116.087      3286.9287     -18829.159      1.0588148    
    953000   298.18934     -435.47034      53763.312     -22274.147      3335.8383     -18938.308      1.0610853    
    954000   300.30844     -108.35001      53447.754     -22248.259      3359.5445     -18888.715      1.06735      
    955000   291.78703      129.25247      53825.464     -22189.315      3264.2157     -18925.099      1.05986      
    956000   301.11875     -129.19213      53484.165     -22283.239      3368.6094     -18914.629      1.0666233    
    957000   295.4694      -116.5955       53920.051     -22303.166      3305.4104     -18997.756      1.0580008    
    958000   303.19416     -58.516843      53478.102     -22227.105      3391.827      -18835.278      1.0667442    
    959000   292.89248     -30.938132      53085.734     -22295.27       3276.5823     -19018.687      1.0746288    
    960000   297.32777      166.92447      53431.59      -22221.651      3326.1999     -18895.451      1.0676728    
    961000   294.75794      808.62372      53088.116     -22173.182      3297.4513     -18875.73       1.0745806    
    962000   301.96018     -692.3487       53480.121     -22200.135      3378.0226     -18822.113      1.066704     
    963000   296.75819     -91.918261      53368.27      -22347.906      3319.828      -19028.079      1.0689396    
    964000   300.0124      -403.73623      53202.789     -22282.325      3356.2328     -18926.093      1.0722644    
    965000   297.18251      153.99352      53235.842     -22229.536      3324.5748     -18904.961      1.0715987    
    966000   297.39002      459.98806      53339.353     -22314.415      3326.8963     -18987.518      1.0695191    
    967000   297.96671      229.35041      52694.989     -22291.115      3333.3477     -18957.768      1.0825974    
    968000   298.1945      -447.48932      53502.791     -22166.719      3335.896      -18830.823      1.066252     
    969000   303.49044      118.44355      53726.288     -22319.733      3395.1415     -18924.592      1.0618165    
    970000   308.66487      174.98009      53521.315     -22273.667      3453.0278     -18820.639      1.065883     
    971000   299.18704     -615.84735      53285.108     -22353.909      3346.9994     -19006.909      1.0706079    
    972000   299.96623     -102.30329      53204.426     -22432.938      3355.7162     -19077.222      1.0722314    
    973000   299.65652      71.706278      53700.332     -22140.023      3352.2516     -18787.771      1.0623297    
    974000   299.62392     -802.25347      53456.947     -22207.052      3351.8868     -18855.165      1.0671664    
    975000   300.45732      153.25897      53506.298     -22292.18       3361.21       -18930.97       1.0661821    
    976000   297.23633     -98.35719       53174.428     -22266.288      3325.177      -18941.111      1.0728363    
    977000   303.58047     -517.41175      53336.202     -22213.684      3396.1487     -18817.536      1.0695823    
    978000   295.94607     -677.07565      53118.926     -22310.219      3310.7427     -18999.476      1.0739573    
    979000   299.23603      49.271293      53481.976     -22181.197      3347.5475     -18833.65       1.066667     
    980000   299.69976     -65.990632      53348.651     -22380.467      3352.7353     -19027.732      1.0693327    
    981000   292.52054     -1000.4022      53293.418     -22343.343      3272.4214     -19070.922      1.070441     
    982000   305.65488     -120.41168      53407.617     -22312.981      3419.3551     -18893.626      1.0681521    
    983000   303.03609      431.12831      53442.516     -22294.703      3390.0588     -18904.644      1.0674546    
    984000   296.16342     -10.606707      53779.367     -22175.383      3313.1743     -18862.208      1.0607685    
    985000   305.11433     -53.269499      53584.224     -22208.377      3413.308      -18795.069      1.0646316    
    986000   303.24938     -101.75187      52831.983     -22291.667      3392.4447     -18899.222      1.0797902    
    987000   293.36782      375.66537      53859.357     -22312.766      3281.9        -19030.866      1.0591931    
    988000   300.84856     -7.8061994      53539.22      -22351.519      3365.5869     -18985.932      1.0655265    
    989000   300.84232      216.54312      53078.439     -22398.689      3365.517      -19033.172      1.0747765    
    990000   296.68928      198.93643      53674.028     -22292.379      3319.0571     -18973.322      1.0628503    
    991000   300.32241      46.81207       53010.979     -22298.641      3359.7009     -18938.94       1.0761442    
    992000   300.39388     -117.07995      53372.055     -22247.668      3360.5004     -18887.168      1.0688638    
    993000   301.11471     -262.76028      53252.958     -22176.99       3368.5642     -18808.426      1.0712543    
    994000   296.52427      477.14618      52815.816     -22299.356      3317.2111     -18982.145      1.0801207    
    995000   306.82721     -127.52037      53856.782     -22283.967      3432.4699     -18851.497      1.0592437    
    996000   299.90388      86.271202      54044.042     -22298.925      3355.0187     -18943.906      1.0555735    
    997000   298.71417      739.65877      52907.805     -22222.282      3341.7095     -18880.572      1.0782428    
    998000   300.29435      669.72897      53276.321     -22305.877      3359.3869     -18946.49       1.0707845    
    999000   301.41713      885.51988      53754.672     -22288.967      3371.9475     -18917.019      1.0612558    
   1000000   301.87991      354.09317      53203.084     -22321.432      3377.1246     -18944.308      1.0722585    
   1001000   297.57858      143.28543      53388.038     -22338.157      3329.0057     -19009.151      1.0685438    
   1002000   302.14739      869.10495      53297.225     -22229.366      3380.1169     -18849.249      1.0703645    
   1003000   298.62811     -106.90572      53420.827     -22252.787      3340.7467     -18912.04       1.0678879    
   1004000   293.64842      688.06344      52983.391     -22237.86       3285.039      -18952.821      1.0767045    
   1005000   308.63869     -18.167016      52982.443     -22264.716      3452.7349     -18811.981      1.0767238    
   1006000   300.08694      98.452858      53340.925     -22299.385      3357.0666     -18942.318      1.0694876    
   1007000   298.15307     -1.9207073      53557.845     -22147.352      3335.4325     -18811.92       1.065156     
   1008000   304.457       -320.7627       53590.39      -22298.377      3405.9544     -18892.423      1.0645091    
   1009000   294.82317     -563.78205      53559.255     -22312.474      3298.1809     -19014.293      1.0651279    
   1010000   302.15249      237.37675      53454.631     -22164.683      3380.1739     -18784.509      1.0672126    
   1011000   297.55804      30.555293      53319.307     -22262.389      3328.7759     -18933.613      1.0699212    
   1012000   298.44004      202.45249      53548.556     -22210.839      3338.6428     -18872.197      1.0653407    
   1013000   295.12308     -417.02952      53870.866     -22305.334      3301.536      -19003.798      1.0589668    
   1014000   299.61425      862.57096      53566.215     -22336.786      3351.7786     -18985.008      1.0649895    
   1015000   297.69776     -20.007317      52778.298     -22308.711      3330.3389     -18978.372      1.0808885    
   1016000   296.54697     -1322.6076      53641.742     -22370.187      3317.4651     -19052.722      1.06349      
   1017000   304.03851     -407.18182      52778.147     -22388.473      3401.2727     -18987.2        1.0808916    
   1018000   300.62495      293.95352      52974.364     -22282.645      3363.0853     -18919.56       1.076888     
   1019000   299.13595      452.51321      53526.747     -22274.444      3346.428      -18928.016      1.0657748    
   1020000   305.72814     -226.8397       53440.473     -22265.627      3420.1747     -18845.453      1.0674954    
   1021000   307.0196      -167.37668      53092.578     -22272.588      3434.6222     -18837.966      1.0744903    
   1022000   298.60318      444.68175      53499.504     -22229.56       3340.4678     -18889.092      1.0663175    
   1023000   302.01064     -625.72095      53515.227     -22246.388      3378.587      -18867.801      1.0660042    
   1024000   308.58423     -266.14931      53459.553     -22166.629      3452.1257     -18714.503      1.0671144    
   1025000   301.3336       765.614        53431.527     -22239.022      3371.0129     -18868.009      1.0676741    
   1026000   304.60894     -670.70959      54009.067     -22344.395      3407.6542     -18936.741      1.0562571    
   1027000   301.57048     -105.89084      53637.518     -22362.552      3373.6629     -18988.889      1.0635738    
   1028000   299.20623     -344.76336      53469.424     -22243.885      3347.2141     -18896.671      1.0669174    
   1029000   303.68087      547.08408      53009.558     -22307.154      3397.2719     -18909.882      1.076173     
   1030000   302.22985     -517.95124      53411.712     -22344.365      3381.0393     -18963.325      1.0680702    
   1031000   301.23334      445.84309      53221.428     -22204.414      3369.8914     -18834.522      1.0718889    
   1032000   309.03817      36.242481      52663.354     -22316.339      3457.2039     -18859.135      1.0832477    
   1033000   291.1136      -282.74534      53337.252     -22278.491      3256.682      -19021.809      1.0695612    
   1034000   294.14952     -156.72149      53923.837     -22228.559      3290.6448     -18937.914      1.0579265    
   1035000   294.68363      13.146798      53726.293     -22299.81       3296.62       -19003.19       1.0618164    
   1036000   292.70133     -1003.3377      53512.909     -22295.224      3274.4439     -19020.78       1.0660504    
   1037000   306.62048      353.42943      53369.947     -22294.836      3430.1572     -18864.679      1.068906     
   1038000   300.84247      136.38692      53299.843     -22297.519      3365.5187     -18932          1.0703119    
   1039000   297.99912     -227.67712      53694.164     -22176.796      3333.7102     -18843.085      1.0624517    
   1040000   293.73809     -212.96488      53271.988     -22180.412      3286.0421     -18894.37       1.0708716    
   1041000   300.68283      410.33587      53329.666     -22341.28       3363.7328     -18977.547      1.0697134    
   1042000   299.33972      488.5008       52986.455     -22232.576      3348.7075     -18883.868      1.0766423    
   1043000   300.59364     -495.68984      53589.834     -22285.101      3362.7351     -18922.366      1.0645201    
   1044000   303.78646     -172.20993      53559.079     -22316.42       3398.4531     -18917.967      1.0651314    
   1045000   304.75966     -876.68769      53328.777     -22364.537      3409.3403     -18955.196      1.0697312    
   1046000   297.02864      329.85152      53173.408     -22375.409      3322.8535     -19052.555      1.0728569    
   1047000   298.78755      523.56369      53293.761     -22446.405      3342.5304     -19103.874      1.0704341    
   1048000   303.25706      384.14951      53055.665     -22336.258      3392.5306     -18943.727      1.0752378    
   1049000   297.71803     -552.84467      53522.466     -22307.688      3330.5657     -18977.123      1.06586      
   1050000   299.11904      358.75534      53261.31      -22319.065      3346.2387     -18972.827      1.0710863    
   1051000   299.29116     -265.03888      53341.608     -22313.597      3348.1642     -18965.433      1.0694739    
   1052000   305.61196     -1365.0349      53401.054     -22251.751      3418.8749     -18832.876      1.0682834    
   1053000   299.40425     -639.38102      53619.264     -22279.826      3349.4294     -18930.397      1.0639359    
   1054000   301.2718      -342.39764      53602.059     -22066.514      3370.3216     -18696.192      1.0642774    
   1055000   304.84994     -126.54451      53553.027     -22338.566      3410.3502     -18928.216      1.0652518    
   1056000   297.37005     -846.23585      53589.65      -22328.19       3326.6728     -19001.517      1.0645238    
   1057000   304.13418      65.976727      53402.497     -22256.978      3402.343      -18854.635      1.0682545    
   1058000   300.09258      452.25408      53270.908     -22233.572      3357.1297     -18876.442      1.0708933    
   1059000   300.21751     -329.41957      53632.017     -22227.716      3358.5274     -18869.189      1.0636829    
   1060000   293.62028     -234.5747       53641.329     -22277.055      3284.7242     -18992.331      1.0634982    
   1061000   309.3177       649.3003       53659.225     -22217.247      3460.331      -18756.916      1.0631435    
   1062000   303.20896      893.59864      53639.647     -22260.127      3391.9926     -18868.134      1.0635316    
   1063000   310.76946      572.71287      53448.456     -22295.78       3476.5718     -18819.208      1.0673359    
   1064000   293.20536     -27.721027      53339.89      -22194.925      3280.0825     -18914.842      1.0695084    
   1065000   290.47991      463.3951       53417.368     -22293.169      3249.593      -19043.576      1.0679571    
   1066000   301.69364      584.70028      53192.718     -22320.433      3375.0408     -18945.393      1.0724674    
   1067000   303.53965     -427.32064      53018.065     -22184.026      3395.692      -18788.334      1.0760004    
   1068000   305.49991     -947.11265      53508.879     -22268.333      3417.6214     -18850.712      1.0661307    
   1069000   305.17932     -232.74038      53068.316     -22304.373      3414.0349     -18890.338      1.0749815    
   1070000   293.80476      536.8093       53856.544     -22219.691      3286.7881     -18932.903      1.0592484    
   1071000   299.45942      317.42718      53468.647     -22245.141      3350.0466     -18895.095      1.0669329    
   1072000   301.18639      155.02082      53518.899     -22185.345      3369.3662     -18815.978      1.0659311    
   1073000   308.02817     -295.297        53185.008     -22325.145      3445.905      -18879.24       1.0726229    
   1074000   302.93673     -114.3043       52813.781     -22358.341      3388.9471     -18969.394      1.0801624    
   1075000   301.20754     -695.32355      53557.319     -22241.042      3369.6028     -18871.439      1.0651664    
   1076000   297.78452     -314.62422      53542.022     -22283.34       3331.3095     -18952.031      1.0654707    
   1077000   302.34         293.73031      53487.214     -22273.761      3382.2715     -18891.489      1.0665625    
   1078000   296.26997      735.296        53783.751     -22295.934      3314.3662     -18981.568      1.060682     
   1079000   305.36132      583.04496      53481.332     -22186.758      3416.071      -18770.687      1.0666798    
   1080000   298.01749     -350.12907      53652.399     -22189.393      3333.9158     -18855.478      1.0632788    
   1081000   305.30168     -531.76349      53876.671     -22200.177      3415.4039     -18784.773      1.0588527    
   1082000   303.64582     -952.22148      54114.788     -22159.605      3396.8797     -18762.726      1.0541935    
   1083000   296.64748      558.30574      53757.345     -22246.69       3318.5894     -18928.101      1.061203     
   1084000   295.88729      721.09643      53546.555     -22266.875      3310.0853     -18956.79       1.0653805    
   1085000   303.16718     -113.17853      53678.812     -22271.334      3391.5253     -18879.809      1.0627556    
   1086000   306.85877     -176.8776       53382.276     -22213.703      3432.823      -18780.88       1.0686592    
   1087000   298.14746     -785.94458      53755.616     -22231.101      3335.3697     -18895.731      1.0612372    
   1088000   308.76566     -442.69303      53478.205     -22405.675      3454.1552     -18951.52       1.0667422    
   1089000   303.88576     -172.83941      53768.238     -22326.048      3399.564      -18926.484      1.060988     
   1090000   302.31565      41.852912      53425.849     -22302.908      3381.9992     -18920.909      1.0677876    
   1091000   298.88795      181.30645      53536.895     -22350.713      3343.6536     -19007.06       1.0655728    
   1092000   306.02523      872.67945      53438.018     -22204.582      3423.4982     -18781.083      1.0675444    
   1093000   298.99266      152.40108      53547.412     -22241.447      3344.8249     -18896.622      1.0653635    
   1094000   299.13071     -27.355612      53373.494     -22238.373      3346.3693     -18892.003      1.068835     
   1095000   296.49768      324.55171      53424.787     -22220.401      3316.9137     -18903.488      1.0678088    
   1096000   294.82773      125.06711      53258.801     -22220.315      3298.2319     -18922.083      1.0711367    
   1097000   301.07703     -644.3207       53352.003     -22248.94       3368.1428     -18880.797      1.0692655    
   1098000   296.60194      265.068        53183.196     -22274.293      3318.08       -18956.213      1.0726595    
   1099000   297.50986      352.6587       52924.136     -22240.139      3328.2369     -18911.902      1.07791      
   1100000   304.2671       199.83521      53351.878     -22334.977      3403.83       -18931.147      1.069268     
   1101000   292.96472     -682.66633      53125.653     -22190.733      3277.3905     -18913.343      1.0738213    
   1102000   305.31195     -44.951442      53030.436     -22247.661      3415.5187     -18832.143      1.0757494    
   1103000   300.61024      959.20753      52744.769     -22097.085      3362.9208     -18734.164      1.0815756    
   1104000   300.42206      577.99271      53117.371     -22235.203      3360.8157     -18874.387      1.0739887    
   1105000   300.78124     -180.95761      53392.066     -22376.493      3364.8337     -19011.659      1.0684632    
   1106000   303.79723     -215.53124      53395.401     -22288.245      3398.5735     -18889.671      1.0683965    
   1107000   304.00864      365.72443      52959.696     -22199.768      3400.9386     -18798.829      1.0771863    
   1108000   299.52543     -970.85551      53639.989     -22231.599      3350.785      -18880.814      1.0635248    
   1109000   300.41355      399.13183      53368.99      -22148.873      3360.7204     -18788.153      1.0689252    
   1110000   301.45833     -8.8836701      54152.76      -22218.496      3372.4083     -18846.088      1.0534543    
   1111000   300.22891     -250.05967      53430.971     -22317.718      3358.6548     -18959.063      1.0676852    
   1112000   298.63677      964.03293      53351.848     -22360.41       3340.8436     -19019.567      1.0692686    
   1113000   297.22562      969.43029      52998.71      -22210.368      3325.0571     -18885.311      1.0763933    
   1114000   296.46138      477.33529      52816.655     -22248.535      3316.5076     -18932.027      1.0801036    
   1115000   300.41134     -127.27481      53516.812     -22215.671      3360.6957     -18854.975      1.0659726    
   1116000   298.79256      918.62421      52981.182     -22232.183      3342.5864     -18889.597      1.0767494    
   1117000   305.48231     -570.89359      53506.008     -22303.322      3417.4245     -18885.897      1.0661879    
   1118000   297.15625     -686.34144      53471.488     -22203.046      3324.2811     -18878.765      1.0668762    
   1119000   304.92765      43.567137      53575.821     -22304.821      3411.2195     -18893.601      1.0647986    
   1120000   307.32933     -275.66016      53440.904     -22186.785      3438.0871     -18748.698      1.0674868    
   1121000   295.77799     -798.03328      53323.544     -22198.791      3308.8625     -18889.928      1.0698362    
   1122000   293.78102     -293.21023      53878.222     -22303.184      3286.5224     -19016.662      1.0588222    
   1123000   297.483       -413.62195      53680.644     -22371.186      3327.9364     -19043.25       1.0627193    
   1124000   298.4923      -126.60274      53687.431     -22178.263      3339.2274     -18839.035      1.062585     
   1125000   301.429       -594.15592      53688.285     -22272.649      3372.0802     -18900.569      1.0625681    
   1126000   304.87517      167.71069      53548.775     -22204.737      3410.6325     -18794.104      1.0653364    
   1127000   294.2432      -278.05953      53365.51      -22310.878      3291.6928     -19019.185      1.0689949    
   1128000   296.58374      253.88788      53410.09      -22263.051      3317.8764     -18945.175      1.0681026    
   1129000   299.49764     -5.9517904      53461.403     -22317.605      3350.4742     -18967.131      1.0670775    
   1130000   297.80632      642.79969      53634.677     -22325.513      3331.5534     -18993.96       1.0636301    
   1131000   300.48467      768.96572      53847.801     -22285.196      3361.5161     -18923.68       1.0594204    
   1132000   302.11224      11.744366      53700.191     -22311.475      3379.7237     -18931.751      1.0623325    
   1133000   299.69326     -156.4173       53352.679     -22293.18       3352.6625     -18940.518      1.069252     
   1134000   298.94641     -243.73246      53594.9       -22297.343      3344.3075     -18953.035      1.0644195    
   1135000   292.06081     -199.04898      53269.687     -22311.828      3267.2784     -19044.549      1.0709178    
   1136000   298.53285     -707.03524      53133.538     -22257.605      3339.6811     -18917.924      1.0736619    
   1137000   296.25701     -680.22256      53408.665     -22219.853      3314.2212     -18905.632      1.0681311    
   1138000   300.92384      646.20292      53653.405     -22162.754      3366.429      -18796.325      1.0632589    
   1139000   308.23043      169.31374      53180.889     -22196.984      3448.1677     -18748.816      1.072706     
   1140000   301.89323     -886.94233      53600.547     -22225.735      3377.2736     -18848.461      1.0643074    
   1141000   299.28996     -548.72437      53260.572     -22334.572      3348.1508     -18986.422      1.0711011    
   1142000   302.55399      153.96064      53256.868     -22172.05       3384.6655     -18787.384      1.0711756    
   1143000   307.83893      352.39183      53516.169     -22199.974      3443.788      -18756.186      1.0659855    
   1144000   299.42158      348.57834      53547.573     -22243.935      3349.6233     -18894.312      1.0653603    
   1145000   300.75627      609.86134      53137.688     -22293.18       3364.5544     -18928.626      1.0735781    
   1146000   294.43652      86.095102      52885.627     -22295.633      3293.8555     -19001.777      1.0786949    
   1147000   293.75767     -436.99314      52933.646     -22252.731      3286.2612     -18966.469      1.0777164    
   1148000   301.79185     -1063.6561      53474.259     -22269.056      3376.1394     -18892.917      1.0668209    
   1149000   297.6518      -89.813342      53234.329     -22185.684      3329.8248     -18855.859      1.0716291    
   1150000   298.0346      -918.22441      53455.958     -22230.535      3334.1072     -18896.428      1.0671861    
   1151000   298.26209      851.37079      52775.484     -22260.279      3336.652      -18923.627      1.0809462    
   1152000   293.32396     -242.01895      53290.615     -22339.252      3281.4093     -19057.843      1.0704973    
   1153000   302.57803      677.58065      53184.527     -22277.491      3384.9344     -18892.557      1.0726326    
   1154000   295.06308      1096.8753      53438.881     -22222.682      3300.8648     -18921.818      1.0675272    
   1155000   297.90717     -456.26618      53467.585     -22282.514      3332.6816     -18949.833      1.0669541    
   1156000   294.61571      472.67039      53512.151     -22239.726      3295.8601     -18943.866      1.0660655    
   1157000   296.26054      526.01459      52947.712     -22275.384      3314.2608     -18961.124      1.0774301    
   1158000   300.65827     -268.97222      53191.816     -22165.995      3363.458      -18802.537      1.0724856    
   1159000   296.84647     -883.54714      53561.514     -22163.203      3320.8155     -18842.387      1.065083     
   1160000   302.24307      1137.5043      53736.435     -22168.618      3381.1873     -18787.43       1.061616     
   1161000   301.07018      1173.6986      53457.084     -22225.409      3368.0661     -18857.343      1.0671637    
   1162000   299.27668      791.90824      53212.229     -22351.194      3348.0023     -19003.191      1.0720742    
   1163000   299.81937     -582.66283      53563.54      -22290.932      3354.0733     -18936.859      1.0650427    
   1164000   300.57315     -248.15886      53663.393     -22263.879      3362.5059     -18901.373      1.0630609    
   1165000   300.05477     -304.91512      53250.583     -22301.17       3356.7067     -18944.463      1.071302     
   1166000   293.45983     -254.57032      53227.142     -22333.001      3282.9293     -19050.072      1.0717738    
   1167000   307.46845      773.34333      53214.259     -22270.045      3439.6434     -18830.402      1.0720333    
   1168000   295.54016      537.59902      52887.458     -22269.025      3306.2019     -18962.823      1.0786576    
   1169000   295.64254      143.46629      53708.747     -22208.84       3307.3472     -18901.493      1.0621633    
   1170000   299.38737     -327.80354      52984.304     -22219.736      3349.2405     -18870.496      1.076686     
   1171000   295.38607     -208.67634      53032.538     -22269.315      3304.4781     -18964.837      1.0757067    
   1172000   301.955        409.95897      53039.367     -22317.467      3377.9646     -18939.502      1.0755682    
   1173000   305.01116      155.61438      53234.893     -22240.583      3412.1537     -18828.429      1.0716178    
   1174000   301.1212      -426.71664      53978.97      -22226.119      3368.6369     -18857.482      1.056846     
   1175000   297.23318     -636.17592      52969.488     -22269.838      3325.1417     -18944.696      1.0769872    
   1176000   298.57534     -116.88982      53048.406     -22268.631      3340.1564     -18928.475      1.075385     
   1177000   311.17286     -65.615971      53585.431     -22255.001      3481.0846     -18773.917      1.0646076    
   1178000   292.38271      110.11818      53105.492     -22387.208      3270.8796     -19116.329      1.074229     
   1179000   304.61486     -634.28072      53497.233     -22353.659      3407.7203     -18945.939      1.0663628    
   1180000   298.62165      350.54858      53437.777     -22285.451      3340.6745     -18944.776      1.0675492    
   1181000   300.62861      359.91169      53852.112     -22195.14       3363.1263     -18832.014      1.0593356    
   1182000   293.77019      64.716519      53147.237     -22337.203      3286.4013     -19050.801      1.0733852    
   1183000   302.89095     -252.47131      53234.259     -22218.913      3388.4351     -18830.478      1.0716305    
   1184000   294.67162     -152.06728      53078.761     -22305.177      3296.4856     -19008.691      1.07477      
   1185000   305.45596      212.76123      53165.613     -22117.796      3417.1298     -18700.667      1.0730142    
   1186000   302.26844     -349.18208      53578.165     -22238.452      3381.4711     -18856.981      1.064752     
   1187000   302.52452      249.70234      52802.889     -22260.128      3384.3358     -18875.793      1.0803852    
   1188000   299.02654      362.20522      53416.698     -22212.481      3345.204      -18867.277      1.0679705    
   1189000   296.28186     -108.73879      53329.906     -22219.704      3314.4992     -18905.205      1.0697086    
   1190000   300.9366       213.80911      53096.186     -22206.299      3366.5718     -18839.727      1.0744172    
   1191000   302.78144      719.36407      53379.825     -22189.39       3387.2099     -18802.18       1.0687082    
   1192000   296.25848      71.049395      53235.803     -22259.99       3314.2377     -18945.752      1.0715995    
   1193000   303.89388      526.82141      52994.277     -22372.674      3399.6548     -18973.019      1.0764834    
   1194000   302.21471     -276.14152      53456.853     -22306.841      3380.87       -18925.971      1.0671683    
   1195000   293.12008      270.41604      53516.837     -22143.885      3279.1286     -18864.756      1.0659721    
   1196000   296.63311     -840.38913      53764.33      -22215.05       3318.4287     -18896.621      1.0610652    
   1197000   298.38464     -725.51004      53514.169     -22323.462      3338.0231     -18985.439      1.0660253    
   1198000   302.95339      634.43607      52788.366     -22219.373      3389.1336     -18830.24       1.0806824    
   1199000   305.16364     -480.85186      53022.666     -22347.003      3413.8596     -18933.143      1.075907     
   1200000   305.29007     -462.7416       53487.657     -22221.872      3415.274      -18806.598      1.0665537    
   1201000   299.72712     -619.08187      53019.407     -22261.246      3353.0414     -18908.204      1.0759731    
   1202000   302.60433      275.76488      53350.356     -22372.447      3385.2286     -18987.219      1.0692985    
   1203000   304.57002     -324.01492      53163.408     -22359.12       3407.2188     -18951.901      1.0730587    
   1204000   305.40118     -315.97057      53015.644     -22362.984      3416.5169     -18946.467      1.0760495    
   1205000   298.38631     -50.658357      53351.451     -22186.492      3338.0417     -18848.45       1.0692766    
   1206000   301.8195       717.76505      53100.335     -22304.596      3376.4488     -18928.147      1.0743333    
   1207000   292.66826      465.82238      53258.559     -22286.11       3274.074      -19012.036      1.0711416    
   1208000   294.73001     -833.13714      53514.183     -22194.389      3297.1387     -18897.25       1.066025     
   1209000   301.72307     -685.34152      53872.502     -22158.298      3375.3699     -18782.928      1.0589346    
   1210000   302.71814      341.61092      53441.867     -22153.48       3386.5018     -18766.979      1.0674675    
   1211000   293.0149      -98.51723       53194.847     -22295.868      3277.9519     -19017.916      1.0724245    
   1212000   302.06765     -474.80601      53466.97      -22260.082      3379.2248     -18880.857      1.0669663    
   1213000   294.97027      515.75082      52799.247     -22363.615      3299.8265     -19063.789      1.0804597    
   1214000   304.12009     -25.683296      53478.853     -22225.723      3402.1854     -18823.538      1.0667293    
   1215000   303.20339     -386.90003      53492.26      -22166.981      3391.9303     -18775.051      1.0664619    
   1216000   300.84003      378.61401      53467.76      -22355.632      3365.4914     -18990.141      1.0669506    
   1217000   306.53089      190.03246      53151.141     -22224.839      3429.155      -18795.684      1.0733064    
   1218000   298.74087      103.35596      53739.942     -22212.373      3342.0081     -18870.365      1.0615467    
   1219000   300.90488      576.56097      53523.85      -22331.072      3366.2169     -18964.855      1.0658325    
   1220000   307.86862     -533.24408      53688.176     -22240.148      3444.1202     -18796.028      1.0625702    
   1221000   300.98475     -84.234048      53817.301     -22270.213      3367.1105     -18903.103      1.0600208    
   1222000   304.55904      46.613928      53685.062     -22229.043      3407.0959     -18821.947      1.0626319    
   1223000   306.07336      74.552726      53379.275     -22302.092      3424.0366     -18878.055      1.0687192    
   1224000   301.56502      21.350927      53725.333     -22107.632      3373.6018     -18734.03       1.0618353    
   1225000   299.35306     -104.81983      53663.068     -22182.652      3348.8568     -18833.795      1.0630674    
   1226000   304.46793      177.20423      53114.203     -22238.811      3406.0767     -18832.735      1.0740528    
   1227000   307.80506     -304.77451      53135.543     -22359.308      3443.4091     -18915.899      1.0736214    
   1228000   299.6057       441.99442      53182.562     -22380.268      3351.683      -19028.585      1.0726722    
   1229000   304.22686      202.10023      53516.792     -22135.604      3403.3798     -18732.224      1.065973     
   1230000   294.12796     -135.3539       53435.08      -22224.326      3290.4037     -18933.922      1.0676031    
   1231000   295.26287      9.4398149      53550.23      -22273.607      3303.0999     -18970.507      1.0653074    
   1232000   298.92164     -148.06529      53365.213     -22241.662      3344.0305     -18897.631      1.0690008    
   1233000   299.29745      430.96308      53447.303     -22265.642      3348.2346     -18917.408      1.067359     
   1234000   302.6835       62.197866      53254.169     -22264.769      3386.1143     -18878.654      1.0712299    
   1235000   297.79676     -203.95904      52772.224     -22305.54       3331.4464     -18974.093      1.081013     
   1236000   303.8088       835.50145      53351.616     -22276.583      3398.703      -18877.88       1.0692733    
   1237000   298.3613       382.74229      53641.184     -22243.57       3337.7619     -18905.808      1.0635011    
   1238000   303.44067      250.76949      53389.326     -22167.362      3394.5848     -18772.777      1.068518     
   1239000   298.31828     -487.74322      53545.209     -22188.344      3337.2807     -18851.064      1.0654073    
   1240000   296.08458      203.23382      53618.289     -22253.436      3312.2923     -18941.144      1.0639552    
   1241000   298.00206      363.26594      53280.226     -22189.567      3333.7431     -18855.824      1.070706     
   1242000   293.98408      721.48031      53034.706     -22157.978      3288.7941     -18869.184      1.0756627    
   1243000   297.35788      126.7607       52968.996     -22298.277      3326.5367     -18971.74       1.0769971    
   1244000   304.64032      201.11064      52767.079     -22230.163      3408.0052     -18822.157      1.0811184    
   1245000   302.84198      91.018521      53616.826     -22260.739      3387.8872     -18872.852      1.0639842    
   1246000   301.87572      846.91903      53209.825     -22224.506      3377.0776     -18847.428      1.0721226    
   1247000   297.53301     -360.28902      53240.987     -22276.902      3328.4959     -18948.407      1.0714951    
   1248000   298.38048     -148.66331      53273.75      -22269.933      3337.9765     -18931.956      1.0708361    
   1249000   308.79551     -1244.5264      53838.25      -22350.924      3454.4893     -18896.434      1.0596083    
   1250000   305.42979      90.414568      53575.647     -22267.353      3416.837      -18850.516      1.064802     
   1251000   304.38865      313.74077      53350.26      -22444.979      3405.1897     -19039.789      1.0693005    
   1252000   303.28917     -141.59377      53404.064     -22419.887      3392.8899     -19026.997      1.0682232    
   1253000   295.68013      269.39367      53490.268     -22305.876      3307.7677     -18998.108      1.0665016    
   1254000   298.7634      -109.27886      53222.186     -22313.725      3342.2602     -18971.465      1.0718736    
   1255000   303.22769      98.932834      53406.082     -22261.112      3392.2022     -18868.91       1.0681828    
   1256000   303.76481     -333.30817      53500.723     -22195.359      3398.2109     -18797.149      1.0662932    
   1257000   295.77165     -163.84426      53573.873     -22196.22       3308.7915     -18887.428      1.0648373    
   1258000   300.15717      161.44198      53433.424     -22218.711      3357.8523     -18860.859      1.0676362    
   1259000   301.63502      96.033949      53381.544     -22278.433      3374.385      -18904.048      1.0686738    
   1260000   300.623       -72.013187      53204.999     -22241.244      3363.0636     -18878.18       1.0722199    
   1261000   301.82834      563.91821      53261.287     -22263.007      3376.5477     -18886.459      1.0710867    
   1262000   304.3866       153.8158       53297.397     -22323.068      3405.1668     -18917.901      1.070361     
   1263000   301.69202      138.00329      53524.609     -22240.402      3375.0227     -18865.379      1.0658174    
   1264000   302.69479      483.05927      53179.141     -22207.563      3386.2406     -18821.323      1.0727412    
   1265000   299.55584      440.54528      53415.114     -22315.615      3351.1253     -18964.489      1.0680022    
   1266000   296.43733      157.80837      52991.991     -22245.971      3316.2385     -18929.732      1.0765298    
   1267000   303.13916     -179.43592      53088.562     -22264.066      3391.2118     -18872.854      1.0745715    
   1268000   297.40844      705.16328      53359.114     -22080.008      3327.1023     -18752.906      1.069123     
   1269000   299.86372     -82.260718      53889.047     -22202.906      3354.5694     -18848.337      1.0586095    
   1270000   305.19944     -498.26296      53538.51      -22191.604      3414.26       -18777.344      1.0655406    
   1271000   301.06846     -72.798248      53395.725     -22212.372      3368.0468     -18844.325      1.06839      
   1272000   301.48975      748.47692      52550.254     -22228.179      3372.7599     -18855.419      1.0855791    
   1273000   300.77383      375.3545       53289.952     -22349.015      3364.7509     -18984.264      1.0705106    
   1274000   296.06734      467.81674      53396.919     -22369.989      3312.0995     -19057.89       1.0683661    
   1275000   296.99802      59.52436       53514.221     -22299.632      3322.511      -18977.121      1.0660242    
   1276000   293.50467      124.88078      53259.213     -22327.538      3283.4309     -19044.107      1.0711284    
   1277000   302.62579      274.61187      53760.684     -22297.781      3385.4687     -18912.312      1.0611371    
   1278000   304.36339     -1139.2588      53746.091     -22185.356      3404.9072     -18780.448      1.0614252    
   1279000   304.1518       1415.4286      52874.012     -22345.738      3402.5401     -18943.198      1.0789319    
   1280000   300.18759      390.86983      53298.556     -22198.858      3358.1926     -18840.666      1.0703378    
   1281000   302.05884     -56.628889      53260.955     -22309.833      3379.1262     -18930.706      1.0710934    
   1282000   300.90612      547.42941      53393.843     -22266.143      3366.2308     -18899.912      1.0684276    
   1283000   298.94067      42.853815      53864.503     -22229.3        3344.2433     -18885.056      1.0590919    
   1284000   303.34521      423.56831      53113.325     -22329.345      3393.5168     -18935.828      1.0740705    
   1285000   300.97942     -753.48517      53459.42      -22318.622      3367.0508     -18951.571      1.067117     
   1286000   305.5824       493.53029      53195.829     -22251.607      3418.5443     -18833.062      1.0724047    
   1287000   298.89763     -334.29935      53312.02      -22317.667      3343.7618     -18973.905      1.0700675    
   1288000   299.35167      388.87393      53107.639     -22461.683      3348.8412     -19112.842      1.0741855    
   1289000   301.94814     -195.32635      53215.825     -22284.835      3377.8878     -18906.948      1.0720017    
   1290000   302.50837      79.607206      53231.022     -22401.475      3384.1552     -19017.32       1.0716957    
   1291000   301.93708      525.12627      53398.856     -22329.869      3377.7642     -18952.105      1.0683273    
   1292000   303.65872     -367.19959      52994.461     -22362.636      3397.0241     -18965.612      1.0764796    
   1293000   299.74916      506.81984      52788.395     -22439.065      3353.2879     -19085.777      1.0806818    
   1294000   298.6853      -554.94183      54309.86      -22180.25       3341.3865     -18838.863      1.050407     
   1295000   306.82648      1204.0743      53245.655     -22344.335      3432.4618     -18911.873      1.0714012    
   1296000   302.9134      -369.61617      53298.257     -22261.641      3388.6862     -18872.955      1.0703438    
   1297000   300.55392     -307.15832      53124.48      -22170.537      3362.2907     -18808.246      1.073845     
   1298000   296.97757      119.9774       53562.28      -22328.147      3322.2821     -19005.865      1.0650678    
   1299000   299.92032      342.08072      53350.827     -22248.108      3355.2027     -18892.905      1.0692891    
   1300000   298.93566     -223.37089      53759.172     -22141.023      3344.1873     -18796.836      1.061167     
   1301000   309.67391      1101.8545      52920.865     -22386.81       3464.3159     -18922.494      1.0779767    
   1302000   299.82339      9.0249329      54070.303     -22319.229      3354.1183     -18965.111      1.0550608    
   1303000   307.34672     -205.32947      53324.174     -22407.558      3438.2816     -18969.277      1.0698236    
   1304000   308.72019     -35.808098      53316.308     -22171.485      3453.6466     -18717.838      1.0699814    
   1305000   302.16101     -278.22368      53565.022     -22155.884      3380.2692     -18775.614      1.0650132    
   1306000   298.20318      198.23832      53197.284     -22166.07       3335.993      -18830.077      1.0723754    
   1307000   297.43276      2.846767       52856.552     -22071.254      3327.3744     -18743.88       1.0792883    
   1308000   301.46201      269.82077      53080.026     -22365.746      3372.4495     -18993.297      1.0747443    
   1309000   293.66804     -18.498746      52909.728     -22321.281      3285.2586     -19036.022      1.0782036    
   1310000   296.32034      218.37796      53146.711     -22302.226      3314.9297     -18987.296      1.0733958    
   1311000   298.71319     -693.36478      53215.146     -22369.439      3341.6986     -19027.74       1.0720154    
   1312000   294.82076      678.84386      52878.958     -22272.839      3298.1539     -18974.685      1.078831     
   1313000   305.24876      257.92346      53112.303     -22271.269      3414.8118     -18856.458      1.0740912    
   1314000   298.13231      176.92243      53683.811     -22363.928      3335.2003     -19028.728      1.0626566    
   1315000   300.9809      -119.4552       53323.071     -22299.551      3367.0673     -18932.483      1.0698457    
   1316000   295.63079     -1123.8666      53786.149     -22202.54       3307.2157     -18895.324      1.0606347    
   1317000   299.21488      397.86048      53156.981     -22216.729      3347.311      -18869.418      1.0731884    
   1318000   302.34067      388.32412      52989.705     -22299.643      3382.2791     -18917.364      1.0765763    
   1319000   294.28766      95.54302       53350.936     -22368.806      3292.1903     -19076.616      1.0692869    
   1320000   300.94816     -73.874352      53859.84      -22320.191      3366.701      -18953.49       1.0591836    
   1321000   300.50484      165.12369      53080.064     -22168.946      3361.7417     -18807.204      1.0747436    
   1322000   296.83115      866.60242      53178.729     -22134.726      3320.6442     -18814.082      1.0727495    
   1323000   302.23306     -290.52461      53170.733     -22252.401      3381.0752     -18871.326      1.0729109    
   1324000   297.50273      420.35027      53210.46      -22305.425      3328.1572     -18977.268      1.0721098    
   1325000   299.04257     -466.78271      53332.518     -22210.219      3345.3832     -18864.836      1.0696562    
   1326000   301.98747     -89.748498      53263.502     -22239.24       3378.3279     -18860.913      1.0710422    
   1327000   301.61396      73.73828       53532.529     -22211.022      3374.1493     -18836.873      1.0656597    
   1328000   300.35555      605.18772      53283.075     -22269.566      3360.0716     -18909.494      1.0706488    
   1329000   297.33824      77.754809      53722.371     -22290.263      3326.3169     -18963.946      1.0618939    
   1330000   297.83726      689.91396      53608.309     -22154.151      3331.8995     -18822.252      1.0641533    
   1331000   302.49811     -801.51898      53566.414     -22180.752      3384.0403     -18796.712      1.0649856    
   1332000   303.14286      98.586148      53718.544     -22090.088      3391.2532     -18698.835      1.0619695    
   1333000   299.18885     -681.23068      53368.705     -22182.63       3347.0198     -18835.61       1.0689309    
   1334000   295.36947      138.13186      53482.327     -22314.532      3304.2924     -19010.24       1.06666      
   1335000   303.21109     -246.677        53369.233     -22228.823      3392.0165     -18836.806      1.0689203    
   1336000   302.99594      487.11967      52718.574     -22186.937      3389.6096     -18797.327      1.0821131    
   1337000   289.54321     -556.38496      53052.083     -22228.972      3239.1141     -18989.858      1.0753104    
   1338000   301.2467      -402.85894      53720.204     -22209.361      3370.0409     -18839.32       1.0619367    
   1339000   304.75642      206.92684      53679.822     -22339.663      3409.304      -18930.359      1.0627356    
   1340000   295.99981     -233.39454      53896.182     -22233.662      3311.344      -18922.318      1.0584694    
   1341000   300.22642      1097.8169      53318.06      -22207.103      3358.627      -18848.476      1.0699462    
   1342000   297.48169      518.22394      53584.624     -22208.109      3327.9217     -18880.187      1.0646236    
   1343000   296.71767     -254.97281      53533.693     -22241.003      3319.3746     -18921.629      1.0656365    
   1344000   302.40215     -176.64786      53302.514     -22359.963      3382.9669     -18976.996      1.0702583    
   1345000   303.95349      164.78872      53164.892     -22304.776      3400.3216     -18904.455      1.0730287    
   1346000   300.25796     -409.82562      53734.145     -22432.801      3358.9798     -19073.822      1.0616612    
   1347000   294.94114      168.42656      53671.595     -22234.157      3299.5007     -18934.656      1.0628985    
   1348000   311.06         29.506871      53270.126     -22357.474      3479.822      -18877.652      1.070909     
   1349000   299.83899      592.98474      52824.765     -22376.867      3354.2928     -19022.574      1.0799378    
   1350000   298.07916     -169.63104      53391.058     -22394.022      3334.6057     -19059.416      1.0684834    
   1351000   302.21439      47.107596      53799.533     -22193.226      3380.8664     -18812.359      1.0603709    
   1352000   304.40887     -381.97927      54004.121     -22238.666      3405.416      -18833.251      1.0563538    
   1353000   297.59915      629.7885       53483.125     -22325.721      3329.2357     -18996.485      1.0666441    
   1354000   305.13265     -559.56926      53478.662     -22307.907      3413.5128     -18894.394      1.0667331    
   1355000   298.86851     -632.59952      53836.643     -22288.674      3343.436      -18945.238      1.05964      
   1356000   294.07826      377.6786       53766.639     -22168.541      3289.8476     -18878.693      1.0610196    
   1357000   303.61411     -826.75254      53572.861     -22167.251      3396.525      -18770.726      1.0648574    
   1358000   298.79048     -415.11931      53466.203     -22174.099      3342.5631     -18831.536      1.0669817    
   1359000   301.21286      116.84649      53065.827     -22113.608      3369.6623     -18743.945      1.0750319    
   1360000   299.29735      26.581672      53243.635     -22273.906      3348.2335     -18925.673      1.0714418    
   1361000   305.97024      318.26861      53265.532     -22299.757      3422.883      -18876.874      1.0710014    
   1362000   303.0665      -642.16302      53478.651     -22309.372      3390.3989     -18918.973      1.0667333    
   1363000   295.32376     -451.12839      53049.175     -22262.828      3303.781      -18959.047      1.0753694    
   1364000   298.02503      98.833066      53425.996     -22292.135      3334.0001     -18958.134      1.0677846    
   1365000   309.58407      606.82829      53090.75      -22397.468      3463.3109     -18934.157      1.0745273    
   1366000   307.22742      64.924295      53327.385     -22292.978      3436.947      -18856.031      1.0697591    
   1367000   297.95202     -118.65995      53656.936     -22245.926      3333.1833     -18912.743      1.0631889    
   1368000   300.22091      304.19525      53231.956     -22208.674      3358.5653     -18850.109      1.0716769    
   1369000   299.10569      383.39445      52952.629     -22389.148      3346.0894     -19043.059      1.07733      
   1370000   294.70718     -40.337389      53666.588     -22350.927      3296.8833     -19054.044      1.0629977    
   1371000   298.65044      546.52915      53246.388     -22247.536      3340.9966     -18906.539      1.0713864    
   1372000   299.81289     -539.28292      53604.807     -22192.23       3354.0009     -18838.229      1.0642228    
   1373000   299.11706      87.825964      52907.966     -22230.575      3346.2166     -18884.359      1.0782395    
   1374000   307.65344     -322.38398      53341.768     -22379.882      3441.7129     -18938.169      1.0694707    
   1375000   303.70067     -565.13296      53024.301     -22285.581      3397.4933     -18888.088      1.0758738    
   1376000   301.9329      -128.16122      53450.135     -22240.107      3377.7173     -18862.39       1.0673024    
   1377000   299.25265      402.71551      53062.242     -22151.214      3347.7334     -18803.481      1.0751046    
   1378000   303.9814       483.5023       52946.85      -22278.359      3400.6339     -18877.725      1.0774476    
   1379000   297.8554       849.5639       52497.653     -22342.857      3332.1024     -19010.755      1.0866668    
   1380000   301.85764      610.07464      53016.239     -22197.013      3376.8754     -18820.138      1.0760374    
   1381000   294.16325      728.98055      53624.843     -22082.542      3290.7984     -18791.744      1.0638252    
   1382000   307.04284      574.03202      52975.145     -22344.257      3434.8822     -18909.375      1.0768721    
   1383000   300.41441      487.17333      52849.314     -22266.646      3360.73       -18905.916      1.0794361    
   1384000   298.88476      19.752376      53450.223     -22247.381      3343.6179     -18903.763      1.0673006    
   1385000   295.68762      55.593964      53439.856     -22288.219      3307.8515     -18980.368      1.0675077    
   1386000   300.53699      16.79853       53541.714     -22301.999      3362.1013     -18939.897      1.0654769    
   1387000   298.45156      125.57332      53338.168     -22255.842      3338.7716     -18917.071      1.0695429    
   1388000   302.65759     -142.17746      53409.11      -22182.519      3385.8245     -18796.694      1.0681222    
   1389000   302.39867      52.513824      53305.182     -22210.26       3382.9279     -18827.332      1.0702047    
   1390000   298.09861     -897.30909      53443.845     -22330.193      3334.8232     -18995.37       1.067428     
   1391000   300.00186      407.45971      53122.019     -22192.243      3356.1149     -18836.129      1.0738948    
   1392000   291.9925      -221.65189      52911.176     -22199.825      3266.5143     -18933.31       1.0781741    
   1393000   297.16502      213.01284      53056.1       -22321.986      3324.3792     -18997.607      1.075229     
   1394000   300.5248      -436.54819      53058.526     -22386.484      3361.965      -19024.519      1.0751798    
   1395000   302.99808     -150.27025      53085.525     -22276.026      3389.6335     -18886.393      1.074633     
   1396000   295.99721     -862.76788      53907.438     -22079.799      3311.3149     -18768.484      1.0582483    
   1397000   303.93756     -371.76976      53011.808     -22217.366      3400.1434     -18817.223      1.0761274    
   1398000   296.82967     -328.93867      52684.788     -22272.967      3320.6277     -18952.339      1.082807     
   1399000   295.43173      612.78064      52939.278     -22290.608      3304.9888     -18985.62       1.0776017    
   1400000   297.07584      215.57451      53487.562     -22277.54       3323.3815     -18954.158      1.0665556    
   1401000   298.0441       278.27232      53582.72      -22180.427      3334.2135     -18846.214      1.0646615    
   1402000   299.49413      459.1387       53578.013     -22234.357      3350.4349     -18883.922      1.064755     
   1403000   299.1689      -838.07468      53309.347     -22263.282      3346.7965     -18916.485      1.0701211    
   1404000   307.36922      857.02235      53225.88      -22275.616      3438.5333     -18837.083      1.0717992    
   1405000   299.92977      367.63076      53237.947     -22333.765      3355.3083     -18978.457      1.0715563    
   1406000   301.38131     -364.87758      53517.703     -22325.227      3371.5467     -18953.681      1.0659549    
   1407000   299.80861      437.09761      53414.652     -22368.559      3353.9529     -19014.607      1.0680114    
   1408000   298.78419      1024.5868      53446.215     -22220.989      3342.4928     -18878.497      1.0673807    
   1409000   299.09454      23.644901      53437.709     -22225.986      3345.9647     -18880.021      1.0675506    
   1410000   298.83015      222.30485      53259.84      -22151.134      3343.007      -18808.127      1.0711158    
   1411000   301.91057     -238.18423      54154.321     -22251.465      3377.4675     -18873.998      1.0534239    
   1412000   299.10326     -858.13457      53405.504     -22333.298      3346.0622     -18987.235      1.0681943    
   1413000   298.19724     -586.61296      53075.199     -22282.687      3335.9266     -18946.761      1.0748421    
   1414000   303.80908     -104.32196      53427.868     -22284.001      3398.7061     -18885.295      1.0677472    
   1415000   297.14156     -278.5676       53992.443     -22349.115      3324.1167     -19024.998      1.0565823    
   1416000   298.73117     -670.29212      53996.09      -22287.329      3341.8997     -18945.429      1.0565109    
   1417000   301.29038     -167.24346      53594.656     -22258.006      3370.5295     -18887.477      1.0644244    
   1418000   297.18181     -108.75945      52682.221     -22284.582      3324.5669     -18960.015      1.0828598    
   1419000   302.09079     -46.749705      53467.767     -22206.622      3379.4837     -18827.138      1.0669504    
   1420000   301.4405      -84.678646      52906.008     -22238.989      3372.2089     -18866.78       1.0782794    
   1421000   298.82012     -318.93232      53075.23      -22323.343      3342.8947     -18980.448      1.0748415    
   1422000   303.26805     -50.820609      53703.52      -22322.331      3392.6536     -18929.677      1.0622666    
   1423000   301.99213      335.58024      53442.035     -22443.657      3378.38       -19065.277      1.0674642    
   1424000   298.66224      353.45603      53297.805     -22406.528      3341.1286     -19065.4        1.0703528    
   1425000   303.60158      804.31979      53080.991     -22340.036      3396.3848     -18943.651      1.0747248    
   1426000   291.15486     -241.46053      53341.061     -22267.369      3257.1436     -19010.225      1.0694849    
   1427000   298.17586     -1233.3074      53675.717     -22316.114      3335.6874     -18980.426      1.0628169    
   1428000   300.86778      323.21958      52915.376     -22290.197      3365.8019     -18924.395      1.0780885    
   1429000   299.03154      833.73058      53362.681     -22384.689      3345.2599     -19039.43       1.0690516    
   1430000   295.1175      -436.85609      53201.803     -22274.19       3301.4736     -18972.716      1.0722843    
   1431000   299.98198      723.96893      53223.134     -22214.512      3355.8924     -18858.619      1.0718545    
   1432000   304.83245      159.19259      53066.651     -22171.153      3410.1545     -18760.998      1.0750152    
   1433000   295.41733      610.76439      53157.317     -22298.041      3304.8278     -18993.213      1.0731817    
   1434000   306.73683      378.21364      52887.306     -22302.3        3431.4588     -18870.841      1.0786607    
   1435000   300.19273      833.35446      52982.582     -22290.716      3358.2502     -18932.466      1.076721     
   1436000   301.22857     -198.87412      53662.264     -22209.758      3369.8381     -18839.92       1.0630833    
   1437000   307.2531       377.55874      53578.211     -22271.431      3437.2344     -18834.197      1.0647511    
   1438000   292.9134       326.8897       53216.03      -22267.833      3276.8164     -18991.016      1.0719976    
   1439000   295.13469      150.21204      53150.041     -22293.716      3301.6659     -18992.05       1.0733286    
   1440000   296.42187      306.342        53267.123     -22255.857      3316.0656     -18939.791      1.0709694    
   1441000   309.241       -432.65388      53734.467     -22307.406      3459.4729     -18847.933      1.0616549    
   1442000   298.75864      440.39257      52790.721     -22369.194      3342.207      -19026.987      1.0806342    
   1443000   294.18648      102.10378      53339.665     -22257.6        3291.0583     -18966.542      1.0695129    
   1444000   297.63214      418.49561      53218.262     -22205.913      3329.6048     -18876.308      1.0719527    
   1445000   303.85342      236.92831      53274.34      -22398.579      3399.2022     -18999.377      1.0708243    
   1446000   298.74485     -250.51329      53368.736     -22282.207      3342.0526     -18940.154      1.0689303    
   1447000   302.53755     -484.12544      53545.219     -22233.661      3384.4816     -18849.18       1.0654071    
   1448000   297.65004     -713.2881       53389.164     -22297.17       3329.8051     -18967.365      1.0685213    
   1449000   297.54422     -34.468382      53131.063     -22296.994      3328.6213     -18968.373      1.073712     
   1450000   300.44873     -96.987661      53575.573     -22303.84       3361.1139     -18942.726      1.0648035    
   1451000   302.69417     -38.519036      53212.571     -22279.954      3386.2337     -18893.721      1.0720673    
   1452000   297.7295       563.80173      53666.365     -22306.854      3330.6941     -18976.16       1.0630021    
   1453000   301.59295     -492.11257      53931.142     -22235.222      3373.9143     -18861.308      1.0577832    
   1454000   293.90647     -538.06357      53370.872     -22177.53       3287.9258     -18889.604      1.0688875    
   1455000   298.40134      97.846643      53393.011     -22179.318      3338.2099     -18841.108      1.0684443    
   1456000   298.33138      581.10047      53139.116     -22322.953      3337.4273     -18985.526      1.0735492    
   1457000   295.90921     -375.64454      53446.319     -22249.65       3310.3305     -18939.319      1.0673786    
   1458000   296.73484     -1318.0902      53447.505     -22357.686      3319.5668     -19038.119      1.0673549    
   1459000   302.22372      62.93346       53040.694     -22181.759      3380.9707     -18800.788      1.0755413    
   1460000   307.30384      235.89031      53468.629     -22184.961      3437.8019     -18747.159      1.0669332    
   1461000   306.43443      161.14123      52923.603     -22229.907      3428.0759     -18801.831      1.0779209    
   1462000   308.14739      66.008179      52983.861     -22268.401      3447.2387     -18821.162      1.076695     
   1463000   304.53734      801.87419      53597.517     -22292.157      3406.8531     -18885.304      1.0643676    
   1464000   298.23302      1024.4454      53199.224     -22225.96       3336.3269     -18889.633      1.0723363    
   1465000   298.9845       332.41875      53409.034     -22208.272      3344.7336     -18863.538      1.0681237    
   1466000   296.26731      336.59877      53038.595     -22297.898      3314.3365     -18983.561      1.0755839    
   1467000   308.32688     -785.16129      53085.151     -22351.343      3449.2467     -18902.096      1.0746406    
   1468000   298.73353      360.47434      53633.893     -22257.271      3341.9261     -18915.345      1.0636457    
   1469000   307.02736     -117.15449      53812.702     -22229.923      3434.7089     -18795.214      1.0601114    
   1470000   300.60246      600.20935      53557.781     -22236.459      3362.8337     -18873.626      1.0651572    
   1471000   298.23275      453.95726      53242.144     -22285.664      3336.3239     -18949.34       1.0714718    
   1472000   296.14149      360.76716      53576.763     -22341.118      3312.929      -19028.189      1.0647799    
   1473000   301.65745     -562.07758      53526.045     -22275.953      3374.6359     -18901.317      1.0657888    
   1474000   292.97543      20.056113      53153.45      -22320.696      3277.5103     -19043.185      1.0732597    
   1475000   299.4406      -74.149511      52980.549     -22192.04       3349.836      -18842.204      1.0767623    
   1476000   302.372        76.57223       53218.388     -22285.757      3382.6296     -18903.127      1.0719501    
   1477000   294.02392      422.18758      53185.466     -22164.558      3289.2397     -18875.318      1.0726137    
   1478000   300.91888      441.35321      53773.732     -22240.671      3366.3736     -18874.298      1.0608796    
   1479000   296.59634     -208.88119      53253.419     -22319.455      3318.0174     -19001.437      1.071245     
   1480000   298.906       -33.156778      53678.404     -22286.277      3343.8555     -18942.422      1.0627637    
   1481000   303.65762     -719.92444      53068.752     -22290.214      3397.0117     -18893.202      1.0749727    
   1482000   298.42256     -296.12996      53177.089     -22210.488      3338.4472     -18872.041      1.0727826    
   1483000   290.72671      380.62707      53113.117     -22287.947      3252.3539     -19035.593      1.0740747    
   1484000   299.58264      306.53147      53381.999     -22186.06       3351.425      -18834.635      1.0686647    
   1485000   304.77389      606.76293      53297.085     -22283.871      3409.4995     -18874.371      1.0703673    
   1486000   309.37454      164.24388      53527.511     -22428.576      3460.9668     -18967.61       1.0657596    
   1487000   302.70646     -119.7983       53260.691     -22312.313      3386.3712     -18925.941      1.0710987    
   1488000   297.88786      131.10841      53207.639     -22276.363      3332.4656     -18943.897      1.0721667    
   1489000   296.46706     -360.72492      53981.565     -22161.551      3316.5711     -18844.98       1.0567952    
   1490000   303.78489      734.96812      52760.402     -22219.814      3398.4356     -18821.379      1.0812552    
   1491000   300.85741     -178.18897      53438.985     -22149.621      3365.6859     -18783.935      1.0675251    
   1492000   300.53275     -296.50987      52608.079     -22329.796      3362.0539     -18967.742      1.0843859    
   1493000   299.89657      284.66236      52991.287     -22219.875      3354.937      -18864.938      1.0765441    
   1494000   302.33727      617.7954       53526.25      -22146.263      3382.2411     -18764.022      1.0657847    
   1495000   305.6193       154.54328      53660.512     -22184.706      3418.9571     -18765.749      1.063118     
   1496000   299.9249       226.77471      53382.417     -22269.063      3355.2539     -18913.809      1.0686563    
   1497000   300.54368      262.71328      52861.319     -22216.581      3362.1762     -18854.404      1.079191     
   1498000   308.42053     -281.83645      54020.598     -22183.47       3450.2943     -18733.175      1.0560316    
   1499000   297.14794     -751.26319      53354.622     -22397.101      3324.188      -19072.913      1.069213     
   1500000   299.8568      -538.38959      53831.586     -22261.83       3354.4921     -18907.337      1.0597395    
   1501000   303.78719      1.1980525      53614.066     -22168.03       3398.4613     -18769.569      1.064039     
   1502000   302.78084     -370.16003      52867.638     -22265.084      3387.2033     -18877.88       1.079062     
   1503000   299.55407      321.97172      53014.132     -22301.629      3351.1055     -18950.524      1.0760802    
   1504000   294.03665     -76.329777      53157.363     -22157.451      3289.3822     -18868.069      1.0731807    
   1505000   302.97159      527.99734      53372.3       -22365.686      3389.3372     -18976.349      1.0688589    
   1506000   294.59304      751.58922      53073.582     -22355.772      3295.6065     -19060.165      1.0748748    
   1507000   297.03434      463.27383      52994.86      -22401.531      3322.9172     -19078.614      1.0764715    
   1508000   294.28474     -682.54543      52780.168     -22211.984      3292.1575     -18919.826      1.0808503    
   1509000   299.31097      20.092854      53046.862     -22335.077      3348.3858     -18986.692      1.0754163    
   1510000   302.92135     -183.0728       53098.208     -22295.77       3388.7751     -18906.995      1.0743763    
   1511000   299.30065     -663.27999      52999.951     -22329.806      3348.2704     -18981.535      1.0763681    
   1512000   301.67389      324.67667      53052.436     -22336.911      3374.8198     -18962.091      1.0753033    
   1513000   299.72531     -289.2246       53440.111     -22195.874      3353.0211     -18842.853      1.0675026    
   1514000   301.38324      233.44299      53683.767     -22206.67       3371.5683     -18835.102      1.0626575    
   1515000   300.62537     -518.57455      53940.106     -22238.383      3363.09       -18875.293      1.0576074    
   1516000   300.97788     -674.23382      53569.355     -22403.895      3367.0335     -19036.862      1.0649271    
   1517000   298.49009      220.68111      53204.646     -22287.504      3339.2027     -18948.302      1.072227     
   1518000   305.07463     -244.06661      53181.377     -22319.031      3412.8639     -18906.167      1.0726961    
   1519000   300.06075     -804.8011       53131.479     -22320.846      3356.7737     -18964.072      1.0737035    
   1520000   300.05219     -144.86083      53252.769     -22212.8        3356.6779     -18856.122      1.0712581    
   1521000   301.57338      72.601494      53591.53      -22333.138      3373.6954     -18959.443      1.0644864    
   1522000   303.52375     -302.41161      52713.353     -22365.043      3395.5142     -18969.528      1.0822203    
   1523000   296.04531      327.94879      53365.127     -22397.279      3311.853      -19085.426      1.0690026    
   1524000   296.62308     -571.45899      53404.461     -22367.465      3318.3165     -19049.149      1.0682152    
   1525000   308.64021      503.69593      53348.736     -22206.252      3452.7519     -18753.5        1.069331     
   1526000   299.58419      300.84414      53070.712     -22274.163      3351.4423     -18922.721      1.074933     
   1527000   295.91423     -20.146191      52977.244     -22313.771      3310.3866     -19003.385      1.0768295    
   1528000   300.84923     -489.59593      53027.204     -22184.947      3365.5943     -18819.353      1.0758149    
   1529000   294.73937      298.31081      53268.902     -22233.699      3297.2435     -18936.455      1.0709336    
   1530000   308.90422     -202.4919       52806.236     -22371.494      3455.7054     -18915.788      1.0803167    
   1531000   298.18385      25.141445      53304.381     -22155.466      3335.7768     -18819.689      1.0702208    
   1532000   295.94851      785.74991      53279.208     -22213.298      3310.7701     -18902.528      1.0707265    
   1533000   299.26864     -21.68334       52865.567     -22259.477      3347.9123     -18911.564      1.0791042    
   1534000   299.79344     -582.89431      53671.434     -22349.633      3353.7833     -18995.85       1.0629017    
   1535000   301.31148      97.387066      53111.081     -22255.59       3370.7655     -18884.825      1.0741159    
   1536000   302.57398     -496.51949      53303.559     -22337.638      3384.8891     -18952.749      1.0702373    
   1537000   295.29791     -462.62638      53869.841     -22194.11       3303.4918     -18890.618      1.0589869    
   1538000   296.56653     -217.00357      53427.49      -22280.69       3317.6838     -18963.006      1.0677548    
   1539000   293.28591     -1034.4201      53476.043     -22305.619      3280.9836     -19024.635      1.0667853    
   1540000   296.35159      157.46417      52975.253     -22225.51       3315.2794     -18910.23       1.0768699    
   1541000   302.12836      621.36417      52883.857     -22264.715      3379.9039     -18884.811      1.078731     
   1542000   305.8461      -520.67603      53398.348     -22299.432      3421.4942     -18877.937      1.0683375    
   1543000   297.49987     -387.58873      53470.355     -22204.124      3328.1251     -18875.999      1.0668988    
   1544000   300.30288      171.11625      53428.243     -22188.1        3359.4823     -18828.618      1.0677397    
   1545000   295.65833      346.69457      52839.683     -22261.37       3307.5239     -18953.846      1.0796329    
   1546000   304.92005      78.380394      52939.431     -22344.089      3411.1345     -18932.955      1.0775986    
   1547000   303.02175     -448.57833      53424.86      -22237.608      3389.8983     -18847.709      1.0678073    
   1548000   303.53609     -664.98866      53275.606     -22290.032      3395.6522     -18894.38       1.0707988    
   1549000   296.68026     -422.89903      52647.238     -22173.78       3318.9562     -18854.824      1.0835793    
   1550000   296.96766     -226.56075      53563.421     -22268.247      3322.1713     -18946.075      1.0650451    
   1551000   291.77004     -337.88803      52978.975     -22279.49       3264.0256     -19015.464      1.0767943    
   1552000   297.42784     -62.764228      53411.392     -22178.043      3327.3193     -18850.724      1.0680766    
   1553000   293.64292     -754.02909      53451.237     -22151.617      3284.9775     -18866.64       1.0672804    
   1554000   297.70275      47.15897       53335.806     -22291.825      3330.3947     -18961.431      1.0695902    
   1555000   305.32141      176.7729       52817.281     -22136.066      3415.6245     -18720.441      1.0800908    
   1556000   290.15709     -27.087268      52546.282     -22344.119      3245.9816     -19098.137      1.0856612    
   1557000   295.544        501.33987      52732.315     -22275.819      3306.2449     -18969.574      1.0818311    
   1558000   301.04027     -285.85927      53520.573     -22335.257      3367.7316     -18967.526      1.0658977    
   1559000   302.71146     -431.07819      53357.609     -22140.777      3386.4271     -18754.35       1.0691532    
   1560000   298.73503     -186.03614      53159.958     -22261.855      3341.9429     -18919.913      1.0731283    
   1561000   299.446        43.38399       52793.648     -22194.015      3349.8965     -18844.119      1.0805743    
   1562000   296.32881      212.03313      53443.011     -22184.751      3315.0245     -18869.727      1.0674447    
   1563000   298.81462      66.872353      53556.814     -22203.177      3342.8332     -18860.344      1.0651765    
   1564000   298.20453     -18.293972      53366.679     -22261.417      3336.0081     -18925.409      1.0689715    
   1565000   301.77259     -50.49646       53395.905     -22179.241      3375.924      -18803.318      1.0683864    
   1566000   297.07139      807.60733      53186.479     -22160.295      3323.3318     -18836.964      1.0725932    
   1567000   293.51809     -812.20296      53315.932     -22235.273      3283.581      -18951.692      1.0699889    
   1568000   300.73605     -306.34129      53391.979     -22246.45       3364.3282     -18882.122      1.0684649    
   1569000   303.35578      728.81673      53309.194     -22238.087      3393.6351     -18844.452      1.0701242    
   1570000   307.5908      -202.18728      53379.292     -22122.76       3441.0121     -18681.748      1.0687189    
   1571000   292.34275      749.11218      53112.994     -22199.573      3270.4326     -18929.141      1.0740772    
   1572000   302.08179     -155.51162      52886.547     -22262.927      3379.383      -18883.544      1.0786762    
   1573000   307.44524     -252.92688      53199.32      -22181.595      3439.3837     -18742.211      1.0723343    
   1574000   304.29259     -262.95347      52718.111     -22286.431      3404.1151     -18882.316      1.0821226    
   1575000   294.19313     -230.30191      52948.089     -22201.262      3291.1327     -18910.13       1.0774224    
   1576000   300.10548      132.77143      52695.834     -22209.838      3357.274      -18852.564      1.08258      
   1577000   303.06886      665.14452      52708.524     -22305.585      3390.4253     -18915.16       1.0823194    
   1578000   299.4036      -569.04226      53506.21      -22162.604      3349.4221     -18813.182      1.0661839    
   1579000   299.33487      877.37751      52696.171     -22260.883      3348.6532     -18912.23       1.0825731    
   1580000   295.77007     -310.4689       53266.987     -22256.323      3308.7739     -18947.549      1.0709721    
   1581000   301.40329      965.71184      53364.278     -22286.59       3371.7926     -18914.797      1.0690196    
   1582000   296.52772     -394.78441      53682.633     -22160.131      3317.2497     -18842.882      1.06268      
   1583000   295.69682     -61.349426      54165.894     -22255.898      3307.9545     -18947.943      1.0531989    
   1584000   298.67997     -416.04106      53330.175     -22139.38       3341.3269     -18798.053      1.0697032    
   1585000   298.60648      893.88698      53424.719     -22311.249      3340.5048     -18970.744      1.0678102    
   1586000   296.50549      388.37272      53733.19      -22247.178      3317.001      -18930.177      1.0616801    
   1587000   300.30728     -44.95079       53387.435     -22385.791      3359.5316     -19026.259      1.0685559    
   1588000   304.80548      227.18542      53392.652     -22437.447      3409.8528     -19027.594      1.0684515    
   1589000   303.43948      421.34469      52949.541     -22321.19       3394.5714     -18926.619      1.0773929    
   1590000   305.00387     -557.00508      53358.734     -22230.729      3412.0722     -18818.657      1.0691306    
   1591000   297.71925     -634.88356      53501.639     -22271.491      3330.5794     -18940.912      1.066275     
   1592000   302.61269     -959.10858      53322.663     -22357.358      3385.3222     -18972.036      1.0698539    
   1593000   301.55116      21.955134      53107.116     -22119.087      3373.4469     -18745.64       1.0741961    
   1594000   301.22327      611.7303       52883.819     -22394.273      3369.7787     -19024.494      1.0787318    
   1595000   303.20835      894.13743      53408.409     -22236.728      3391.9858     -18844.743      1.0681363    
   1596000   296.63391     -605.79019      53663.004     -22275.756      3318.4376     -18957.318      1.0630687    
   1597000   303.83106      958.84536      53262.393     -22272.554      3398.952      -18873.602      1.0710645    
   1598000   293.29169      36.414879      53450.328     -22191.898      3281.0483     -18910.85       1.0672985    
   1599000   296.61709      583.73742      52764.082     -22203.895      3318.2495     -18885.646      1.0811798    
   1600000   302.52044      703.72604      52881.014     -22334.19       3384.2901     -18949.9        1.078789     
   1600010   295.46017      388.25804      52887.049     -22270.752      3305.307      -18965.445      1.0786659    
Loop time of 44818.3 on 5 procs for 1000000 steps with 5541 atoms

Performance: 3.856 ns/day, 6.225 hours/ns, 22.312 timesteps/s, 123.633 katom-step/s
334.1% CPU use with 1 MPI tasks x 5 OpenMP threads

MPI task timing breakdown:
Section |  min time  |  avg time  |  max time  |%varavg| %total
---------------------------------------------------------------
Pair    | 1707.4     | 1707.4     | 1707.4     |   0.0 |  3.81
Bond    | 21.76      | 21.76      | 21.76      |   0.0 |  0.05
Kspace  | 22360      | 22360      | 22360      |   0.0 | 49.89
Neigh   | 46.918     | 46.918     | 46.918     |   0.0 |  0.10
Comm    | 557.33     | 557.33     | 557.33     |   0.0 |  1.24
Output  | 16.786     | 16.786     | 16.786     |   0.0 |  0.04
Modify  | 19914      | 19914      | 19914      |   0.0 | 44.43
Other   |            | 193.3      |            |       |  0.43

Nlocal:           5541 ave        5541 max        5541 min
Histogram: 1 0 0 0 0 0 0 0 0 0
Nghost:          36095 ave       36095 max       36095 min
Histogram: 1 0 0 0 0 0 0 0 0 0
Neighs:    4.90624e+06 ave 4.90624e+06 max 4.90624e+06 min
Histogram: 1 0 0 0 0 0 0 0 0 0

Total # of neighbors = 4906237
Ave neighs/atom = 885.44252
Ave special neighs/atom = 2.4872767
Neighbor list builds = 93159
Dangerous builds = 0

unfix mynpt
undump prod_traj
undump prod_dcd
undump prod_img
unfix thermo_avg
unfix thermo_detailed
unfix rdf_CO_avg
unfix rdf_CC_avg
unfix rdf_OO_avg
unfix rdf_C60_1_O_avg
unfix rdf_C60_2_O_avg
unfix rdf_C60_3_O_avg

unfix msd_avg
uncompute rdf_CO
uncompute rdf_CC
uncompute rdf_OO
uncompute rdf_C60_1_O
uncompute rdf_C60_2_O
uncompute rdf_C60_3_O

uncompute msd_water

#==============================================================================
# FINAL OUTPUT AND VERIFICATION
#==============================================================================
print ""

print "===== Saving Final Configuration ====="
===== Saving Final Configuration =====

write_data equilibrated_system.data
System init for write_data ...
PPPM initialization ...
  extracting TIP4P info from pair style
  using 12-bit tables for long-range coulomb
  G vector (1/distance) = 0.28878025
  grid = 50 50 50
  stencil order = 5
  estimated absolute RMS force accuracy = 0.00032175105
  estimated relative force accuracy = 9.6894372e-07
  using double precision FFTW3
  3d grid and FFT values/proc = 205379 125000
Generated 0 of 3 mixed pair_coeff terms from geometric mixing rule
WARNING: Not all mixed pair coeffs generated from mixing. Use write_data with 'pair ij' option to store all pair coeffs. (src/write_data.cpp:364)
write_restart equilibrated_system.restart
System init for write_restart ...
PPPM initialization ...
  extracting TIP4P info from pair style
  using 12-bit tables for long-range coulomb
  G vector (1/distance) = 0.28878025
  grid = 50 50 50
  stencil order = 5
  estimated absolute RMS force accuracy = 0.00032175105
  estimated relative force accuracy = 9.6894372e-07
  using double precision FFTW3
  3d grid and FFT values/proc = 205379 125000
Generated 0 of 3 mixed pair_coeff terms from geometric mixing rule

print ""

print "â•â•â•â•â•â•â•â•â•â•â•â•â•â•â•â•â•â•â•â•â•â•â•â•â•â•â•â•â•â•â•â•â•â•â•â•â•â•â•â•â•â•â•â•â•â•â•â•â•â•â•â•â•â•â•â•â•â•â•â•â•â•â•â•â•â•â•â•â•â•â•â•â•â•â•â•"
••••••••••••••••••••••••••••••••••••••••••••••••••••••••••••••••••••••••••••
print "                     EQUILIBRATION COMPLETE - SUCCESS!"
                     EQUILIBRATION COMPLETE - SUCCESS!
print "â•â•â•â•â•â•â•â•â•â•â•â•â•â•â•â•â•â•â•â•â•â•â•â•â•â•â•â•â•â•â•â•â•â•â•â•â•â•â•â•â•â•â•â•â•â•â•â•â•â•â•â•â•â•â•â•â•â•â•â•â•â•â•â•â•â•â•â•â•â•â•â•â•â•â•â•"
••••••••••••••••••••••••••••••••••••••••••••••••••••••••••••••••••••••••••••
print ""

print "Simulation Summary:"
Simulation Summary:
print "  Total simulation time: 5.22 ns"
  Total simulation time: 5.22 ns
print "    - NVT thermalization:     50 ps"
    - NVT thermalization:     50 ps
print "    - Pre-equilibration:      50 ps  (NEW - prevents PPPM artifacts)"
    - Pre-equilibration:      50 ps  (NEW - prevents PPPM artifacts)
print "    - Pressure ramp:         100 ps  (EXTENDED and with drag damping)"
    - Pressure ramp:         100 ps  (EXTENDED and with drag damping)
print "    - NPT equilibration:    1000 ps"
    - NPT equilibration:    1000 ps
print "    - Production run:       4000 ps (4 ns)"
    - Production run:       4000 ps (4 ns)
print ""


# Final measurements
variable final_temp equal temp
variable final_press equal press
variable final_dens equal density
variable final_vol equal vol
variable final_boxsize equal vol^(1.0/3.0)
variable final_pe equal pe
variable final_ke equal ke
variable final_etotal equal etotal

print "Final Thermodynamic State:"
Final Thermodynamic State:
print "  Temperature:    ${final_temp} K      (target: 300K)"
  Temperature:    295.460165470164 K      (target: 300K)
print "  Pressure:       ${final_press} atm   (target: 1 atm)"
  Pressure:       388.258043482924 atm   (target: 1 atm)
print "  Density:        ${final_dens} g/cmÂ³  (target: 0.95-1.05)"
  Density:        1.07866593117051 g/cm³  (target: 0.95-1.05)
print "  Volume:         ${final_vol} Ã…Â³"
  Volume:         52887.0486845663 …³
print "  Box size:       ${final_boxsize} Ã…    (expected: 58-63)"
  Box size:       37.5361544494419 …    (expected: 58-63)
print ""

print "Final Energies:"
Final Energies:
print "  Potential:      ${final_pe} kcal/mol"
  Potential:      -22270.7524459705 kcal/mol
print "  Kinetic:        ${final_ke} kcal/mol"
  Kinetic:        3305.3069966723 kcal/mol
print "  Total:          ${final_etotal} kcal/mol"
  Total:          -18965.4454492982 kcal/mol
print ""


# Comprehensive validation - simplified to avoid quoting issues
print ""

if "${final_dens} >= 0.85" then   "if \"${final_dens} <= 1.15\" then \"jump SELF validation_success\" else \"jump SELF validation_warning\""
if "${final_dens} >= 0.85" then   "if \"1.07866593117051 <= 1.15\" then \"jump SELF validation_success\" else \"jump SELF validation_warning\""
ERROR: Input line quote not followed by white-space (src/input.cpp:556)
Last input line: if "${final_dens} >= 0.85" then "if \"${final_dens} <= 1.15\" then \"jump SELF validation_success\" else \"jump SELF validation_warning\""
