LAMMPS (10 Sep 2025)
  using 4 OpenMP thread(s) per MPI task
package gpu 1 neigh yes newton off binsize 2.8 split 1.0
# LAMMPS Input Script: FULLY CORRECTED NPT Equilibration
# Purpose: Equilibrate solvated nanoparticle system at 300K, 1 bar
# Water Model: TIP4P/2005 (implicit M-site)
# GPU acceleration: Enabled for MD stages
#
# COMPLETE FIXES APPLIED (2024-11-13):
# 1. âœ… CRITICAL FIX: PPPM grid locked to prevent recalculation artifacts
# 2. âœ… CRITICAL FIX: Pre-equilibration stage to reduce initial pressure
# 3. âœ… FIXED: Gentler pressure ramp (100 atm â†’ 1 atm) with drag damping
# 4. âœ… FIXED: SHAKE verification and proper constraint application
# 5. âœ… EXTENDED: Longer equilibration (1000 ps) and production (4000 ps)
# 6. âœ… ENHANCED: Multiple density checkpoints to catch failures early
# 7. âœ… OPTIMIZED: 2 fs timestep (SHAKE allows this, 2Ã— speedup)
#
# Total time: 5.22 ns (50ps NVT + 50ps pre-equil + 100ps ramp + 1000ps NPT + 4000ps prod)
#
# ROOT CAUSE OF PREVIOUS FAILURE:
# - PPPM grid recalculation at step 51,000 caused 169,712 atm pressure spike
# - Barostat overreacted â†’ box expanded 63Ã— â†’ gas phase (Ï=0.025 g/cmÂ³)
# - All epsilon values failed identically (proves it's numerical, not physical)
#
# SOLUTION: Lock PPPM grid + reduce initial pressure + add checkpoints

# ===== INITIALIZATION =====
units real
atom_style full
boundary p p p
atom_modify map array

# ===== COMMUNICATION =====
# Increased cutoff to handle potential box fluctuations safely
comm_modify cutoff 18.0

# ===== FORCE FIELD (FULLY GPU-accelerated) =====
# CORRECTED: O=type2, H=type3 (C60 carbon is type1)
pair_style lj/cut/tip4p/long/gpu 2 3 2 1 0.1546 12.0

# ğŸ”§ CRITICAL: Use pppm/gpu for FULL GPU acceleration of Coulomb forces
# pppm/tip4p is CPU-based bottleneck (~90% CPU, ~10% GPU)
# pppm/gpu runs Coulomb solver on GPU â†’ 5-10Ã— speedup for long-range forces
kspace_style pppm/gpu 1.0e-4

# ğŸ”§ CRITICAL FIX #1: Lock PPPM grid to prevent recalculation
# This prevents the 169,712 atm pressure spike that caused gas-phase failure
kspace_modify mesh 50 50 50    # Fixed grid (handles boxes up to ~125 Ã…, increased from 40)
kspace_modify order 5           # Higher interpolation order for accuracy
kspace_modify force/disp/real 0.8  # Balance real/k-space work

bond_style harmonic
angle_style harmonic

read_data large_C60_solvated.data
Reading data file ...
  orthogonal box = (-20 -20 -20) to (20 20 20)
  1 by 1 by 1 MPI processor grid
  reading atoms ...
  5541 atoms
  reading velocities ...
  5541 velocities
  scanning bonds ...
  3 = max bonds/atom
  scanning angles ...
  1 = max angles/atom
  orthogonal box = (-20 -20 -20) to (20 20 20)
  1 by 1 by 1 MPI processor grid
  reading bonds ...
  3844 bonds
  reading angles ...
  1787 angles
Finding 1-2 1-3 1-4 neighbors ...
  special bond factors lj:    0        0        0       
  special bond factors coul:  0        0        0       
     3 = max # of 1-2 neighbors
     6 = max # of 1-3 neighbors
    18 = max # of 1-4 neighbors
    17 = max # of special neighbors
  special bonds CPU = 0.002 seconds
  read_data CPU = 0.082 seconds

# ===== PAIR COEFFICIENTS (CORRECTED ATOM TYPE MAPPING) =====
# Type 1: C60 carbon (180 atoms from 3 C60 particles)
# Type 2: Water oxygen (~2000 molecules)
# Type 3: Water hydrogen (~4000 atoms)
# TIP4P/2005 parameters (verified against literature)
pair_coeff 2 2 0.1852 3.1589    # O-O (type 2, Îµ=0.1852 kcal/mol, Ïƒ=3.1589 Ã…)
pair_coeff 3 3 0.0 0.0          # H-H (type 3, no interaction)

# C60 fullerene parameters
pair_coeff 1 1 0.07 3.4         # C-C (type 1, Îµ=0.07 kcal/mol, Ïƒ=3.4 Ã…)

# C60-water cross interactions
# Tunable parameter (passed from bash script via -var)
variable epsilon_co equal ${EPSILON_CO}
variable epsilon_co equal 0.05
pair_coeff 1 2 ${epsilon_co} 3.2   # C-O (hydrophobicity parameter)
pair_coeff 1 2 0.05 3.2   
pair_coeff 1 3 0.0 0.0             # C-H (no interaction)
pair_coeff 2 3 0.0 0.0             # O-H (no LJ, only Coulombic)

# Bond and angle coefficients
bond_coeff 1 938.0 1.42         # C-C bonds in C60 (bond type 1)
bond_coeff 2 0.0 0.9572         # O-H bonds in water (bond type 2, SHAKE controlled)
angle_coeff 1 0.0 104.52        # H-O-H angle in water (angle type 1, SHAKE controlled)

# ===== SETTINGS =====
neighbor 2.0 bin                 # Increased skin for safety
neigh_modify delay 5 every 1 check yes

# Define groups (CORRECTED)
group carbon type 1        # C60 atoms (type 1)
180 atoms in group carbon
group water type 2 3       # All water atoms (O=type2, H=type3)
5361 atoms in group water
group oxygen type 2        # Water oxygen atoms (type 2)
1787 atoms in group oxygen
group hydrogen type 3      # Water hydrogen atoms (type 3)
3574 atoms in group hydrogen

# Define thermodynamic variables
variable temp equal c_thermo_temp
variable press equal c_thermo_press
variable pe equal pe
variable ke equal ke
variable etotal equal etotal
variable vol equal vol
variable dens equal density

thermo_style custom step temp press vol pe ke etotal density
thermo 1000

# ğŸ”§ CRITICAL FIX #2: Use 2 fs timestep (SHAKE allows this, 2Ã— speedup)
timestep 2.0

# Print system info
print "â•â•â•â•â•â•â•â•â•â•â•â•â•â•â•â•â•â•â•â•â•â•â•â•â•â•â•â•â•â•â•â•â•â•â•â•â•â•â•â•â•â•â•â•â•â•â•â•â•â•â•â•â•â•â•â•â•â•â•â•â•â•â•â•â•â•â•â•â•â•â•â•â•â•â•â•"
WARNING: Detected non-ASCII characters in input. Will try to continue by replacing with ASCII equivalents where known. (src/input.cpp:479)
••••••••••••••••••••••••••••••••••••••••••••••••••••••••••••••••••••••••••••
print "SYSTEM INFORMATION:"
SYSTEM INFORMATION:
print "  Epsilon (O-C): ${epsilon_co} kcal/mol"
  Epsilon (O-C): 0.05 kcal/mol
print "  Random seed:   ${RANDOM_SEED}"
  Random seed:   42
print "  Timestep:      2.0 fs (with SHAKE constraints)"
  Timestep:      2.0 fs (with SHAKE constraints)
print "  PPPM grid:     40Ã—40Ã—40 (LOCKED to prevent artifacts)"
  PPPM grid:     40—40—40 (LOCKED to prevent artifacts)
print "â•â•â•â•â•â•â•â•â•â•â•â•â•â•â•â•â•â•â•â•â•â•â•â•â•â•â•â•â•â•â•â•â•â•â•â•â•â•â•â•â•â•â•â•â•â•â•â•â•â•â•â•â•â•â•â•â•â•â•â•â•â•â•â•â•â•â•â•â•â•â•â•â•â•â•â•"
••••••••••••••••••••••••••••••••••••••••••••••••••••••••••••••••••••••••••••
print ""


#==============================================================================
# STAGE 0: Gentle Minimization (CPU pair style for stability)
#==============================================================================
print "===== STAGE 0: Gentle Minimization (removing any overlaps) ====="
===== STAGE 0: Gentle Minimization (removing any overlaps) =====
print "Using CPU pair style for numerical stability during minimization"
Using CPU pair style for numerical stability during minimization
print ""


# Switch to CPU pair style for minimization (GPU can be unstable)
pair_style lj/cut/tip4p/long 2 3 2 1 0.1546 12.0
kspace_style pppm/tip4p 1.0e-4
kspace_modify mesh 50 50 50
kspace_modify order 5

# Re-apply pair coefficients with current epsilon_co
pair_coeff 1 1 0.07 3.4            # C-C
pair_coeff 2 2 0.1852 3.1589       # O-O
pair_coeff 3 3 0.0 0.0             # H-H
pair_coeff 1 2 ${epsilon_co} 3.2   # C-O (variable)
pair_coeff 1 2 0.05 3.2   
pair_coeff 1 3 0.0 0.0             # C-H
pair_coeff 2 3 0.0 0.0             # O-H

# Very gentle minimization (just remove bad contacts, if any)
# Using very relaxed tolerances and limited steps for speed
thermo 100
minimize 0.0 10.0 10 100  # Ultra-gentle: etol=0, ftol=10, max 10 eval, max 100 iter

CITE-CITE-CITE-CITE-CITE-CITE-CITE-CITE-CITE-CITE-CITE-CITE-CITE

Your simulation uses code contributions which should be cited:

- GPU package (short-range, long-range and three-body potentials): doi:10.1016/j.cpc.2010.12.021, doi:10.1016/j.cpc.2011.10.012, doi:10.1016/j.cpc.2013.08.002, doi:10.1016/j.commatsci.2014.10.068, doi:10.1016/j.cpc.2016.10.020, doi:10.3233/APC200086

@Article{Brown11,
 author = {W. M. Brown and P. Wang and S. J. Plimpton and A. N. Tharrington},
 title = {Implementing Molecular Dynamics on Hybrid High Performance Computers---Short Range Forces},
 journal = {Comput.\ Phys.\ Commun.},
 year =    2011,
 volume =  182,
 pages =   {898--911},
 doi =     {10.1016/j.cpc.2010.12.021}
}

@Article{Brown12,
 author = {W. M. Brown and A. Kohlmeyer and S. J. Plimpton and A. N. Tharrington},
 title = {Implementing Molecular Dynamics on Hybrid High Performance Computers - Particle-Particle Particle-Mesh},
 journal = {Comput.\ Phys.\ Commun.},
 year =    2012,
 volume =  183,
 doi =     {10.1016/j.cpc.2011.10.012},
 pages =   {449--459}
}

@Article{Brown13,
 author = {W. M. Brown and Y. Masako},
 title = {Implementing Molecular Dynamics on Hybrid High Performance Computers---Three-Body Potentials},
 journal = {Comput.\ Phys.\ Commun.},
 year =    2013,
 volume =  184,
 pages =   {2785--2793},
 doi =     {10.1016/j.cpc.2013.08.002},
}

@Article{Trung15,
 author = {T. D. Nguyen and S. J. Plimpton},
 title = {Accelerating Dissipative Particle Dynamics Simulations for Soft Matter Systems},
 journal = {Comput.\ Mater.\ Sci.},
 year =    2015,
 doi =     {10.1016/j.commatsci.2014.10.068},
 volume =  100,
 pages =   {173--180}
}

@Article{Trung17,
 author = {T. D. Nguyen},
 title = {{GPU}-Accelerated {T}ersoff Potentials for Massively Parallel
    Molecular Dynamics Simulations},
 journal = {Comput.\ Phys.\ Commun.},
 year =    2017,
 doi =     {10.1016/j.cpc.2016.10.020},
 volume =  212,
 pages =   {113--122}
}

@inproceedings{Nikolskiy19,
 author = {V. Nikolskiy and V. Stegailov},
 title = {{GPU} Acceleration of Four-Site Water Models in {LAMMPS}},
 booktitle = {Proceedings of the International Conference on Parallel
    Computing (ParCo 2019), Prague, Czech Republic},
 doi =     {10.3233/APC200086},
 year =    2019
}

CITE-CITE-CITE-CITE-CITE-CITE-CITE-CITE-CITE-CITE-CITE-CITE-CITE

Switching to 'neigh_modify every 1 delay 0 check yes' setting during minimization
PPPM initialization ...
  extracting TIP4P info from pair style
  using 12-bit tables for long-range coulomb
  G vector (1/distance) = 0.28512662
  grid = 50 50 50
  stencil order = 5
  estimated absolute RMS force accuracy = 0.00038934319
  estimated relative force accuracy = 1.1724955e-06
  using double precision FFTW3
  3d grid and FFT values/proc = 185193 125000
Generated 0 of 3 mixed pair_coeff terms from geometric mixing rule
Per MPI rank memory allocation (min/avg/max) = 50.33 | 50.33 | 50.33 Mbytes
   Step          Temp          Press          Volume         PotEng         KinEng         TotEng        Density    
         0   36.495381      27255.884      64000         -23217.812      602.67332     -22615.139      0.89136653   
        10   36.495381     -19464.651      64000         -142289.95      602.67332     -141687.28      0.89136653   
Loop time of 0.132507 on 4 procs for 10 steps with 5541 atoms

398.9% CPU use with 1 MPI tasks x 4 OpenMP threads

Minimization stats:
  Stopping criterion = max iterations
  Energy initial, next-to-last, final = 
     -23217.8122317064  -124454.292459814  -142289.953765321
  Force two-norm initial, final = 2152.6419 6848.3848
  Force max component initial, final = 49.699778 360.52718
  Final line search alpha, max atom move = 0.00038974688 0.14051435
  Iterations, force evaluations = 10 10

MPI task timing breakdown:
Section |  min time  |  avg time  |  max time  |%varavg| %total
---------------------------------------------------------------
Pair    | 0.0036563  | 0.0036563  | 0.0036563  |   0.0 |  2.76
Bond    | 0.0016425  | 0.0016425  | 0.0016425  |   0.0 |  1.24
Kspace  | 0.12251    | 0.12251    | 0.12251    |   0.0 | 92.46
Neigh   | 0          | 0          | 0          |   0.0 |  0.00
Comm    | 0.0020995  | 0.0020995  | 0.0020995  |   0.0 |  1.58
Output  | 7.4368e-05 | 7.4368e-05 | 7.4368e-05 |   0.0 |  0.06
Modify  | 7.56e-07   | 7.56e-07   | 7.56e-07   |   0.0 |  0.00
Other   |            | 0.002521   |            |       |  1.90

Nlocal:           5541 ave        5541 max        5541 min
Histogram: 1 0 0 0 0 0 0 0 0 0
Nghost:          33839 ave       33839 max       33839 min
Histogram: 1 0 0 0 0 0 0 0 0 0
Neighs:              0 ave           0 max           0 min
Histogram: 1 0 0 0 0 0 0 0 0 0

Total # of neighbors = 0
Ave neighs/atom = 0
Ave special neighs/atom = 2.4872767
Neighbor list builds = 0
Dangerous builds = 0

variable pe_minimized equal pe
print "Minimization complete. PE = ${pe_minimized} kcal/mol (was -23,217)"
Minimization complete. PE = -142289.953765321 kcal/mol (was -23,217)

# Switch back to GPU pair style for MD
pair_style lj/cut/tip4p/long/gpu 2 3 2 1 0.1546 12.0
kspace_style pppm/tip4p 1.0e-4
kspace_modify mesh 50 50 50
kspace_modify order 5

# Re-apply pair coefficients again after style change
pair_coeff 1 1 0.07 3.4            # C-C
pair_coeff 2 2 0.1852 3.1589       # O-O
pair_coeff 3 3 0.0 0.0             # H-H
pair_coeff 1 2 ${epsilon_co} 3.2   # C-O (variable)
pair_coeff 1 2 0.05 3.2   
pair_coeff 1 3 0.0 0.0             # C-H
pair_coeff 2 3 0.0 0.0             # O-H

print ""


#==============================================================================
# STAGE 0.5: Apply SHAKE Constraints
#==============================================================================
thermo 1000

# ğŸ”§ CRITICAL FIX #3: Apply SHAKE with proper verification
print "Applying SHAKE constraints..."
Applying SHAKE constraints...
# CORRECTED: bond type 2 = O-H, angle type 1 = H-O-H
fix myshk water shake 0.0001 20 0 b 2 a 1
Finding SHAKE clusters ...
       0 = # of size 2 clusters
       0 = # of size 3 clusters
       0 = # of size 4 clusters
    1787 = # of frozen angles
  find clusters CPU = 0.001 seconds

# Verify SHAKE is working
print "SHAKE constraint verification:"
SHAKE constraint verification:
print "  Expected: ~2000 water molecules with constrained bonds and angles"
  Expected: ~2000 water molecules with constrained bonds and angles
print "  Check minimization output for cluster sizes"
  Check minimization output for cluster sizes
print ""

print "GPU Acceleration Status:"
GPU Acceleration Status:
print "  âœ“ Pair forces (LJ):      GPU (lj/cut/tip4p/long/gpu)"
  œ“ Pair forces (LJ):      GPU (lj/cut/tip4p/long/gpu)
print "  âœ“ Coulomb (PPPM):        CPU (pppm/tip4p) - GPU suffix not available"
  œ“ Coulomb (PPPM):        CPU (pppm/tip4p) - GPU suffix not available
print "  âœ“ Neighbor lists:        GPU (neigh yes)"
  œ“ Neighbor lists:        GPU (neigh yes)
print "  â†’ Expected speedup:      2-3Ã— vs CPU-only version (pair forces only)"
  †’ Expected speedup:      2-3— vs CPU-only version (pair forces only)

#==============================================================================
# STAGE 1: NVT Thermalization (50 ps)
#==============================================================================
print ""

print "===== STAGE 1: NVT Thermalization (50 ps, GPU) ====="
===== STAGE 1: NVT Thermalization (50 ps, GPU) =====
print "Objective: Reach 300K while maintaining initial density"
Objective: Reach 300K while maintaining initial density

velocity all create 300.0 ${RANDOM_SEED} dist gaussian loop geom
velocity all create 300.0 42 dist gaussian loop geom

fix mynvt all nvt temp 300.0 300.0 100.0

# Trajectory output (every 4 ps) - using wrapped coordinates for proper visualization
dump nvt_traj all custom 2000 nvt_thermalization.lammpstrj id type xu yu zu
dump_modify nvt_traj sort id

dump nvt_dcd all dcd 2000 nvt_thermalization.dcd
dump_modify nvt_dcd unwrap yes

run 25000  # 50 ps at 2 fs timestep
PPPM initialization ...
  extracting TIP4P info from pair style
  using 12-bit tables for long-range coulomb
  G vector (1/distance) = 0.28512662
  grid = 50 50 50
  stencil order = 5
  estimated absolute RMS force accuracy = 0.00038934319
  estimated relative force accuracy = 1.1724955e-06
  using double precision FFTW3
  3d grid and FFT values/proc = 185193 125000
Generated 0 of 3 mixed pair_coeff terms from geometric mixing rule
Per MPI rank memory allocation (min/avg/max) = 49.79 | 49.79 | 49.79 Mbytes
   Step          Temp          Press          Volume         PotEng         KinEng         TotEng        Density    
        10   300           -112440.25      64000         -142289.95      3356.094      -138933.86      0.89136653   
      1000   290.90044     -578.63447      64000         -19854.702      3254.2974     -16600.405      0.89136653   
      2000   306.36414     -718.91513      64000         -19943.132      3427.2895     -16515.842      0.89136653   
      3000   296.99517     -904.64983      64000         -19942.527      3322.479      -16620.048      0.89136653   
      4000   301.35936     -577.17584      64000         -19991.555      3371.3012     -16620.254      0.89136653   
      5000   296.55238     -986.41676      64000         -20069.637      3317.5256     -16752.111      0.89136653   
      6000   304.41979     -115.70444      64000         -20112.607      3405.5382     -16707.069      0.89136653   
      7000   300.78746     -510.44523      64000         -19903.573      3364.9034     -16538.67       0.89136653   
      8000   294.37935     -1115.5989      64000         -19760.786      3293.2159     -16467.57       0.89136653   
      9000   294.67009     -1542.5287      64000         -19907.369      3296.4684     -16610.901      0.89136653   
     10000   304.92619     -1081.7253      64000         -19918.71       3411.2032     -16507.507      0.89136653   
     11000   297.09014     -553.83783      64000         -19902.463      3323.5415     -16578.922      0.89136653   
     12000   302.15158     -721.07634      64000         -19972.307      3380.1638     -16592.143      0.89136653   
     13000   298.81297     -216.95774      64000         -19933.175      3342.8148     -16590.36       0.89136653   
     14000   305.28477     -1018.8166      64000         -19972.25       3415.2147     -16557.035      0.89136653   
     15000   298.24521     -754.45883      64000         -19952.745      3336.4632     -16616.282      0.89136653   
     16000   298.42253     -763.04017      64000         -19991.008      3338.4469     -16652.561      0.89136653   
     17000   306.17441     -1549.1608      64000         -19812.649      3425.1671     -16387.482      0.89136653   
     18000   306.54646     -1343.0226      64000         -19980.911      3429.3292     -16551.582      0.89136653   
     19000   303.74188     -1435.4095      64000         -19969.666      3397.9544     -16571.711      0.89136653   
     20000   302.0773      -1318.3724      64000         -19866.295      3379.3328     -16486.962      0.89136653   
     21000   307.46745     -1079.594       64000         -19999.457      3439.6322     -16559.824      0.89136653   
     22000   296.84283     -1066.6078      64000         -19938.263      3320.7748     -16617.488      0.89136653   
     23000   300.49661     -1596.7852      64000         -19973.499      3361.6496     -16611.85       0.89136653   
     24000   304.14388     -1224.5991      64000         -19993.71       3402.4515     -16591.258      0.89136653   
     25000   300.97954     -1544.1491      64000         -20070.365      3367.0522     -16703.312      0.89136653   
     25010   301.05319     -570.66368      64000         -20072.716      3367.8761     -16704.84       0.89136653   
Loop time of 356.095 on 4 procs for 25000 steps with 5541 atoms

Performance: 12.132 ns/day, 1.978 hours/ns, 70.206 timesteps/s, 389.012 katom-step/s
398.7% CPU use with 1 MPI tasks x 4 OpenMP threads

MPI task timing breakdown:
Section |  min time  |  avg time  |  max time  |%varavg| %total
---------------------------------------------------------------
Pair    | 13.776     | 13.776     | 13.776     |   0.0 |  3.87
Bond    | 0.10821    | 0.10821    | 0.10821    |   0.0 |  0.03
Kspace  | 319.03     | 319.03     | 319.03     |   0.0 | 89.59
Neigh   | 0.041295   | 0.041295   | 0.041295   |   0.0 |  0.01
Comm    | 6.8154     | 6.8154     | 6.8154     |   0.0 |  1.91
Output  | 0.090214   | 0.090214   | 0.090214   |   0.0 |  0.03
Modify  | 14.295     | 14.295     | 14.295     |   0.0 |  4.01
Other   |            | 1.94       |            |       |  0.54

Nlocal:           5541 ave        5541 max        5541 min
Histogram: 1 0 0 0 0 0 0 0 0 0
Nghost:          32990 ave       32990 max       32990 min
Histogram: 1 0 0 0 0 0 0 0 0 0
Neighs:              0 ave           0 max           0 min
Histogram: 1 0 0 0 0 0 0 0 0 0

Total # of neighbors = 0
Ave neighs/atom = 0
Ave special neighs/atom = 2.4872767
Neighbor list builds = 2322
Dangerous builds = 1

unfix mynvt
undump nvt_traj
undump nvt_dcd

write_restart nvt_complete.restart
System init for write_restart ...
PPPM initialization ...
  extracting TIP4P info from pair style
  using 12-bit tables for long-range coulomb
  G vector (1/distance) = 0.28512662
  grid = 50 50 50
  stencil order = 5
  estimated absolute RMS force accuracy = 0.00038934319
  estimated relative force accuracy = 1.1724955e-06
  using double precision FFTW3
  3d grid and FFT values/proc = 185193 125000
Generated 0 of 3 mixed pair_coeff terms from geometric mixing rule

# Check temperature
variable current_temp equal temp
print "NVT complete. Temperature: ${current_temp} K (target: 300K)"
NVT complete. Temperature: 301.053190838141 K (target: 300K)

# ğŸ”§ CHECKPOINT #1: Verify we're still at reasonable density
variable current_dens equal density
if "${current_dens} < 0.7" then     "print 'ERROR: Density dropped during NVT! Current: ${current_dens} g/cmÂ³'"     "print 'This should not happen - check initial configuration'"     "quit 1"

print "âœ“ Checkpoint 1 PASSED: Density = ${current_dens} g/cmÂ³"
œ“ Checkpoint 1 PASSED: Density = 0.891366525253077 g/cm³

#==============================================================================
# STAGE 1.5: Pre-Equilibration at 100 atm (50 ps) - NEW STAGE
#==============================================================================
print ""

print "===== STAGE 1.5: Pre-Equilibration at 100 atm (50 ps, GPU) ====="
===== STAGE 1.5: Pre-Equilibration at 100 atm (50 ps, GPU) =====
print "ğŸ”§ CRITICAL FIX: Reducing initial pressure before main ramp"
Ÿ”§ CRITICAL FIX: Reducing initial pressure before main ramp
print "Objective: Equilibrate volume at moderate pressure to prevent PPPM artifacts"
Objective: Equilibrate volume at moderate pressure to prevent PPPM artifacts
print ""

print "Why this is needed:"
Why this is needed:
print "  - NVT creates high pressure (~800 atm) in fixed volume"
  - NVT creates high pressure (~800 atm) in fixed volume
print "  - Direct ramp from 800â†’1 atm caused 169k atm spike (PPPM grid change)"
  - Direct ramp from 800†’1 atm caused 169k atm spike (PPPM grid change)
print "  - Pre-equilibrating at 100 atm reduces initial pressure safely"
  - Pre-equilibrating at 100 atm reduces initial pressure safely
print "  - Main ramp (100â†’1 atm) will then cause only ~5% box expansion"
  - Main ramp (100†’1 atm) will then cause only ~5% box expansion

# Higher barostat damping for this stage (more conservative)
fix mynpt_pre all npt temp 300.0 300.0 100.0 iso 100.0 100.0 5000.0

dump pre_dcd all dcd 2000 pre_equilibration.dcd
dump_modify pre_dcd unwrap yes

run 25000  # 50 ps at 2 fs timestep
PPPM initialization ...
  extracting TIP4P info from pair style
  using 12-bit tables for long-range coulomb
  G vector (1/distance) = 0.28512662
  grid = 50 50 50
  stencil order = 5
  estimated absolute RMS force accuracy = 0.00038934319
  estimated relative force accuracy = 1.1724955e-06
  using double precision FFTW3
  3d grid and FFT values/proc = 185193 125000
Generated 0 of 3 mixed pair_coeff terms from geometric mixing rule
Per MPI rank memory allocation (min/avg/max) = 49.79 | 49.79 | 49.79 Mbytes
   Step          Temp          Press          Volume         PotEng         KinEng         TotEng        Density    
     25010   301.05319     -570.45202      64000         -20072.716      3367.8761     -16704.84       0.89136653   
     26000   305.36387     -346.8126       61460.596     -20016.979      3416.0996     -16600.879      0.92819565   
     27000   309.11929     -149.40578      59020.584     -20160.847      3458.1113     -16702.736      0.96656885   
     28000   302.25283     -279.0603       57590.161     -20237.699      3381.2964     -16856.402      0.99057646   
     29000   292.08548     -307.49201      56438.027     -20307.344      3267.5544     -17039.79       1.0107982    
     30000   296.78102      252.48068      55954.417     -20301.868      3320.0834     -16981.784      1.0195345    
     31000   298.28138     -436.77751      56023.803     -20306.383      3336.8678     -16969.515      1.0182718    
     32000   297.33603      658.88688      55399.925     -20284.998      3326.2923     -16958.705      1.0297389    
     33000   296.34152     -6.0307674      55527.342     -20232.762      3315.1667     -16917.596      1.027376     
     34000   298.1991       523.4628       55668.352     -20293.906      3335.9474     -16957.958      1.0247736    
     35000   297.37299      566.18267      55722.092     -20296.834      3326.7058     -16970.128      1.0237853    
     36000   298.60665      650.84244      55786.134     -20313.453      3340.5067     -16972.946      1.02261      
     37000   301.25534      368.06052      56111.75      -20346.81       3370.1375     -16976.672      1.0166758    
     38000   295.02351      1491.4317      55222.95      -20309.282      3300.4221     -17008.859      1.0330389    
     39000   300.88803      520.90353      55191.272     -20216.422      3366.0284     -16850.393      1.0336319    
     40000   300.61967     -672.78057      55828.593     -20194.577      3363.0263     -16831.551      1.0218323    
     41000   295.52786     -468.33932      55495.443     -20242.142      3306.0643     -16936.078      1.0279665    
     42000   303.28895      133.94511      55400.174     -20264.681      3392.8875     -16871.794      1.0297343    
     43000   303.58996      245.71423      55316.659     -20221.122      3396.2549     -16824.867      1.0312889    
     44000   300.74535     -134.08692      55496.361     -20265.792      3364.4323     -16901.36       1.0279495    
     45000   305.98174     -137.12456      55352.997     -20364.994      3423.0116     -16941.983      1.0306119    
     46000   290.79481     -789.85713      55795.429     -20221.131      3253.1158     -16968.015      1.0224396    
     47000   296.35577     -651.68261      55534.793     -20260.677      3315.3261     -16945.351      1.0272381    
     48000   294.59836      318.71427      55200.081     -20244.431      3295.666      -16948.765      1.0334669    
     49000   299.83914     -34.355562      55158.892     -20207.554      3354.2945     -16853.259      1.0342386    
     50000   304.80206      540.44697      55421.144     -20206.023      3409.8146     -16796.209      1.0293446    
     50010   305.28296      468.47731      55424.582     -20191.833      3415.1944     -16776.639      1.0292808    
Loop time of 702.494 on 4 procs for 25000 steps with 5541 atoms

Performance: 6.150 ns/day, 3.903 hours/ns, 35.588 timesteps/s, 197.190 katom-step/s
308.4% CPU use with 1 MPI tasks x 4 OpenMP threads

MPI task timing breakdown:
Section |  min time  |  avg time  |  max time  |%varavg| %total
---------------------------------------------------------------
Pair    | 16.404     | 16.404     | 16.404     |   0.0 |  2.34
Bond    | 0.23296    | 0.23296    | 0.23296    |   0.0 |  0.03
Kspace  | 320.94     | 320.94     | 320.94     |   0.0 | 45.69
Neigh   | 0.04209    | 0.04209    | 0.04209    |   0.0 |  0.01
Comm    | 7.4983     | 7.4983     | 7.4983     |   0.0 |  1.07
Output  | 0.012624   | 0.012624   | 0.012624   |   0.0 |  0.00
Modify  | 354.55     | 354.55     | 354.55     |   0.0 | 50.47
Other   |            | 2.815      |            |       |  0.40

Nlocal:           5541 ave        5541 max        5541 min
Histogram: 1 0 0 0 0 0 0 0 0 0
Nghost:          34956 ave       34956 max       34956 min
Histogram: 1 0 0 0 0 0 0 0 0 0
Neighs:              0 ave           0 max           0 min
Histogram: 1 0 0 0 0 0 0 0 0 0

Total # of neighbors = 0
Ave neighs/atom = 0
Ave special neighs/atom = 2.4872767
Neighbor list builds = 2326
Dangerous builds = 0

unfix mynpt_pre
undump pre_dcd

write_restart pre_equilibration_complete.restart
System init for write_restart ...
PPPM initialization ...
  extracting TIP4P info from pair style
  using 12-bit tables for long-range coulomb
  G vector (1/distance) = 0.2879543
  grid = 50 50 50
  stencil order = 5
  estimated absolute RMS force accuracy = 0.0003364225
  estimated relative force accuracy = 1.0131264e-06
  using double precision FFTW3
  3d grid and FFT values/proc = 205379 125000
Generated 0 of 3 mixed pair_coeff terms from geometric mixing rule
write_data pre_equilibration_complete.data
System init for write_data ...
PPPM initialization ...
  extracting TIP4P info from pair style
  using 12-bit tables for long-range coulomb
  G vector (1/distance) = 0.2879543
  grid = 50 50 50
  stencil order = 5
  estimated absolute RMS force accuracy = 0.0003364225
  estimated relative force accuracy = 1.0131264e-06
  using double precision FFTW3
  3d grid and FFT values/proc = 205379 125000
Generated 0 of 3 mixed pair_coeff terms from geometric mixing rule
WARNING: Not all mixed pair coeffs generated from mixing. Use write_data with 'pair ij' option to store all pair coeffs. (src/write_data.cpp:364)

# ğŸ”§ CHECKPOINT #2: Verify still in liquid phase after pre-equilibration
variable current_dens equal density
variable current_press equal press
variable current_vol equal vol

print ""

print "Pre-equilibration complete:"
Pre-equilibration complete:
print "  Density:  ${current_dens} g/cmÂ³"
  Density:  1.02928078955941 g/cm³
print "  Pressure: ${current_press} atm"
  Pressure: 468.477305360949 atm
print "  Volume:   ${current_vol} Ã…Â³"
  Volume:   55424.5820915558 …³

if "${current_dens} < 0.85" then     "print 'ERROR: Density dropped to ${current_dens} during pre-equilibration!'"     "print 'Expected: Still ~0.95 g/cmÂ³ (may increase slightly due to compression)'"     "print 'System failed before main pressure ramp even started!'"     "quit 1"

print "âœ“ Checkpoint 2 PASSED: System stable at 100 atm"
œ“ Checkpoint 2 PASSED: System stable at 100 atm

#==============================================================================
# STAGE 2: GENTLE Pressure Ramp (100 â†’ 1 atm, 100 ps) - CORRECTED
#==============================================================================
print ""

print "===== STAGE 2: Gentle Pressure Ramp (100 ps, GPU) ====="
===== STAGE 2: Gentle Pressure Ramp (100 ps, GPU) =====
print "Ramping pressure from 100 atm â†’ 1 atm with drag damping"
Ramping pressure from 100 atm †’ 1 atm with drag damping
print ""

print "COMPARISON TO FAILED VERSION:"
COMPARISON TO FAILED VERSION:
print "  OLD: 50 atm â†’ 1 atm, no pre-equil â†’ 169,712 atm spike at step 51k"
  OLD: 50 atm †’ 1 atm, no pre-equil †’ 169,712 atm spike at step 51k
print "  NEW: 100 atm â†’ 1 atm, with pre-equil â†’ should be smooth (< 500 atm max)"
  NEW: 100 atm †’ 1 atm, with pre-equil †’ should be smooth (< 500 atm max)

# ğŸ”§ CRITICAL FIX #4: Add drag damping to prevent explosive expansion
fix mynpt_ramp all npt temp 300.0 300.0 100.0 iso 100.0 1.0 2000.0 drag 2.0

dump ramp_dcd all dcd 1000 pressure_ramp.dcd
dump_modify ramp_dcd unwrap yes

# Monitor closely during ramp (every 500 steps = 1 ps)
thermo 500

run 50000  # 100 ps at 2 fs timestep
PPPM initialization ...
  extracting TIP4P info from pair style
  using 12-bit tables for long-range coulomb
  G vector (1/distance) = 0.2879543
  grid = 50 50 50
  stencil order = 5
  estimated absolute RMS force accuracy = 0.0003364225
  estimated relative force accuracy = 1.0131264e-06
  using double precision FFTW3
  3d grid and FFT values/proc = 205379 125000
Generated 0 of 3 mixed pair_coeff terms from geometric mixing rule
Per MPI rank memory allocation (min/avg/max) = 50.63 | 50.63 | 50.63 Mbytes
   Step          Temp          Press          Volume         PotEng         KinEng         TotEng        Density    
     50010   305.28296      472.63527      55424.582     -20191.904      3415.1944     -16776.709      1.0292808    
     50500   297.37805      577.05105      55537.491     -20214.242      3326.7624     -16887.479      1.0271882    
     51000   300.72988      207.01853      55483.286     -20203.742      3364.2592     -16839.483      1.0281918    
     51500   298.85817     -246.93341      54858.245     -20215.605      3343.3204     -16872.285      1.0399067    
     52000   299.3253      -117.87099      55612.839     -20287.049      3348.5462     -16938.503      1.0257965    
     52500   301.3081       277.97395      55492.863     -20314.233      3370.7277     -16943.506      1.0280143    
     53000   299.73711      456.9633       55464.656     -20239.877      3353.1531     -16886.724      1.0285371    
     53500   297.66315      85.810157      55610.29      -20231.909      3329.9517     -16901.957      1.0258436    
     54000   298.80008     -277.76398      55561.234     -20200.44       3342.6705     -16857.77       1.0267493    
     54500   299.9413       664.21963      55657.347     -20249.151      3355.4373     -16893.714      1.0249762    
     55000   293.836       -277.89725      55761.266     -20169.76       3287.1374     -16882.623      1.023066     
     55500   307.08654      104.98127      55611.16      -20324.703      3435.371      -16889.332      1.0258275    
     56000   301.90444     -199.49428      55533.387     -20311.061      3377.3989     -16933.662      1.0272641    
     56500   294.17606      463.36883      55530.477     -20156.868      3290.9417     -16865.926      1.027318     
     57000   299.62818      93.555923      55547.725     -20226.096      3351.9345     -16874.161      1.026999     
     57500   300.99066      508.23034      55607.667     -20198.971      3367.1765     -16831.794      1.0258919    
     58000   295.50471     -677.3194       55718.428     -20169.198      3305.8053     -16863.393      1.0238526    
     58500   297.75912     -694.18318      55655.395     -20204.329      3331.0254     -16873.304      1.0250122    
     59000   300.41689      656.52964      55720.544     -20259.209      3360.7578     -16898.451      1.0238137    
     59500   301.40987      504.0038       55710.037     -20238.502      3371.8662     -16866.636      1.0240068    
     60000   299.53205      267.46991      55562.295     -20235.8        3350.8591     -16884.94       1.0267297    
     60500   302.19487     -379.67123      55898.133     -20281.074      3380.648      -16900.426      1.0205611    
     61000   300.64884      578.47467      55764.905     -20277.883      3363.3526     -16914.53       1.0229993    
     61500   299.65215     -316.33285      55582.177     -20227.275      3352.2026     -16875.073      1.0263624    
     62000   301.14115     -444.17417      55632.486     -20293.1        3368.86       -16924.24       1.0254343    
     62500   300.15915     -98.662274      55581.571     -20207.833      3357.8744     -16849.959      1.0263736    
     63000   304.32891      410.73814      55588.746     -20317.525      3404.5215     -16913.003      1.0262411    
     63500   298.81232     -0.46776338     55466.314     -20259.457      3342.8075     -16916.65       1.0285064    
     64000   302.41738     -618.09513      55593.206     -20295.815      3383.1372     -16912.678      1.0261588    
     64500   303.52351     -342.2292       55773.028     -20321.991      3395.5114     -16926.479      1.0228503    
     65000   304.74366      584.54398      56036.836     -20296.795      3409.1613     -16887.633      1.0180349    
     65500   294.21373      548.27693      56020.748     -20158.128      3291.3631     -16866.765      1.0183273    
     66000   299.58276     -128.87518      55769.685     -20185.777      3351.4264     -16834.351      1.0229116    
     66500   299.31929     -247.06427      55767.575     -20152.578      3348.4789     -16804.099      1.0229503    
     67000   307.75319     -762.42561      55649.006     -20328.616      3442.8288     -16885.787      1.0251299    
     67500   299.8091       825.01758      55537.058     -20239.067      3353.9585     -16885.108      1.0271963    
     68000   299.42927      300.39524      55583.071     -20191.007      3349.7093     -16841.298      1.0263459    
     68500   299.03835      138.11892      55413.003     -20193.508      3345.336      -16848.172      1.0294959    
     69000   300.71571      370.45323      55724.604     -20241.967      3364.1007     -16877.866      1.0237391    
     69500   300.23728     -10.294348      55642.985     -20215.629      3358.7485     -16856.881      1.0252408    
     70000   299.03321     -292.10197      55256.472     -20186.851      3345.2786     -16841.572      1.0324122    
     70500   293.82017     -619.94299      55242.994     -20156.799      3286.9604     -16869.839      1.0326641    
     71000   304.46492      720.59123      55218.053     -20320.289      3406.043      -16914.246      1.0331305    
     71500   301.07456      388.76459      55705.606     -20288.844      3368.1151     -16920.729      1.0240883    
     72000   300.11436      232.11258      55725.853     -20284.726      3357.3733     -16927.353      1.0237162    
     72500   300.44028      185.3545       55645.899     -20297.271      3361.0195     -16936.251      1.0251871    
     73000   296.86281      354.81399      55172.873     -20248.505      3320.9983     -16927.507      1.0339766    
     73500   296.80075      142.96443      55507.065     -20250.745      3320.3041     -16930.441      1.0277513    
     74000   300.1424      -352.75851      55557.455     -20274.196      3357.6871     -16916.509      1.0268191    
     74500   297.67194      167.24232      55478.399     -20237.212      3330.0501     -16907.162      1.0282823    
     75000   303.5831       77.318508      55042.427     -20301.673      3396.1781     -16905.495      1.036427     
     75500   300.62715     -91.108288      55131.818     -20271.962      3363.11       -16908.852      1.0347465    
     76000   303.98281     -420.9705       55120.231     -20304.607      3400.6497     -16903.957      1.034964     
     76500   303.16091      144.00751      55223.713     -20270.812      3391.455      -16879.357      1.0330247    
     77000   300.81749      548.31472      55379.492     -20261.214      3365.2392     -16895.975      1.0301188    
     77500   304.28592     -120.01833      55395.091     -20292.581      3404.0405     -16888.54       1.0298288    
     78000   297.16519     -1047.396       55757.134     -20228.05       3324.381      -16903.669      1.0231419    
     78500   299.86357     -43.886607      55556.396     -20239.247      3354.5678     -16884.679      1.0268387    
     79000   303.34732     -127.44909      55546.045     -20289.245      3393.5405     -16895.704      1.0270301    
     79500   301.26879     -502.89577      56210.817     -20293.251      3370.2879     -16922.963      1.014884     
     80000   296.89772      374.63179      55716.726     -20246.035      3321.3889     -16924.647      1.0238839    
     80500   294.84266     -730.57053      56100.335     -20195.866      3298.399      -16897.467      1.0168827    
     81000   298.6098      -284.04352      56014.784     -20227.033      3340.5419     -16886.491      1.0184357    
     81500   301.58955      455.5777       55506.227     -20173.52       3373.8763     -16799.644      1.0277668    
     82000   304.14032     -448.37839      55754.125     -20202.869      3402.4117     -16800.457      1.0231971    
     82500   304.19427      455.61941      55324.383     -20174.499      3403.0152     -16771.484      1.0311449    
     83000   300.10286     -159.17388      55651.964     -20221.744      3357.2447     -16864.499      1.0250754    
     83500   299.27537      414.82152      55604.558     -20245.446      3347.9876     -16897.459      1.0259493    
     84000   298.79872      777.61002      55749.324     -20255.956      3342.6553     -16913.3        1.0232852    
     84500   299.68665     -644.56852      55768.139     -20191.387      3352.5886     -16838.799      1.02294      
     85000   296.76614      816.37877      55665.903     -20227.671      3319.9169     -16907.754      1.0248187    
     85500   297.67727     -72.367323      55973.732     -20223.874      3330.1097     -16893.764      1.0191827    
     86000   301.02561     -837.24479      55958.681     -20264.051      3367.5675     -16896.484      1.0194568    
     86500   296.91687      1007.2481      56396.849     -20228.502      3321.6031     -16906.899      1.0115363    
     87000   299.12623     -576.4003       56202.51      -20260.156      3346.3192     -16913.837      1.015034     
     87500   298.16333      777.03458      55622.805     -20182.663      3335.5473     -16847.116      1.0256127    
     88000   298.50286     -103.6667       55818.872     -20180.612      3339.3456     -16841.267      1.0220102    
     88500   304.5397       224.86245      55974.97      -20272.753      3406.8795     -16865.873      1.0191601    
     89000   302.50824      409.87123      55785.714     -20221.436      3384.1537     -16837.282      1.0226177    
     89500   297.82289     -72.688981      55770.189     -20195.083      3331.7388     -16863.344      1.0229024    
     90000   298.46352      444.31451      55378.188     -20158.368      3338.9054     -16819.462      1.0301431    
     90500   299.31476      434.86444      55640.377     -20171.465      3348.4282     -16823.037      1.0252888    
     91000   297.44865      786.98191      55666.946     -20204.292      3327.5521     -16876.74       1.0247995    
     91500   300.91123      148.52301      56116.535     -20275.159      3366.2879     -16908.871      1.0165891    
     92000   296.02641     -705.93866      55993.499     -20197.182      3311.6415     -16885.54       1.0188229    
     92500   301.86879      714.8403       55599.662     -20266.403      3377.0001     -16889.403      1.0260396    
     93000   296.16024      184.85735      55826.766     -20225.138      3313.1387     -16912          1.0218657    
     93500   299.65158     -28.873718      56124.023     -20232.585      3352.1962     -16880.389      1.0164535    
     94000   301.31367      155.97075      56000.039     -20171.45       3370.7901     -16800.66       1.0187039    
     94500   301.87574      22.09043       56102.357     -20210.645      3377.0779     -16833.567      1.016846     
     95000   299.81995     -480.06223      56405.888     -20193.629      3354.0798     -16839.549      1.0113742    
     95500   297.5898      -8.4968133      56028.254     -20130.539      3329.1311     -16801.408      1.0181909    
     96000   302.33883     -24.456916      55979.533     -20228.356      3382.2584     -16846.098      1.019077     
     96500   291.28153     -84.313405      55633.33      -20171.472      3258.5606     -16912.911      1.0254187    
     97000   301.26714     -422.34361      55553.053     -20217.438      3370.2695     -16847.169      1.0269005    
     97500   298.95492     -505.12698      55609.903     -20170.897      3344.4028     -16826.494      1.0258507    
     98000   300.86782      1546.9041      55421.015     -20221.625      3365.8024     -16855.822      1.029347     
     98500   303.96418      155.33874      55612.422     -20296.223      3400.4412     -16895.782      1.0258042    
     99000   297.692        419.36292      55396.547     -20196.619      3330.2744     -16866.345      1.0298017    
     99500   296.00832     -331.42904      55262.761     -20221.963      3311.4392     -16910.524      1.0322947    
    100000   302.77292     -323.59876      55420.627     -20308.784      3387.1146     -16921.669      1.0293542    
    100010   301.68466     -661.91828      55421.335     -20296.176      3374.9403     -16921.236      1.0293411    
Loop time of 1425.34 on 4 procs for 50000 steps with 5541 atoms

Performance: 6.062 ns/day, 3.959 hours/ns, 35.079 timesteps/s, 194.374 katom-step/s
309.5% CPU use with 1 MPI tasks x 4 OpenMP threads

MPI task timing breakdown:
Section |  min time  |  avg time  |  max time  |%varavg| %total
---------------------------------------------------------------
Pair    | 33.018     | 33.018     | 33.018     |   0.0 |  2.32
Bond    | 0.4683     | 0.4683     | 0.4683     |   0.0 |  0.03
Kspace  | 661.56     | 661.56     | 661.56     |   0.0 | 46.41
Neigh   | 0.085196   | 0.085196   | 0.085196   |   0.0 |  0.01
Comm    | 15.083     | 15.083     | 15.083     |   0.0 |  1.06
Output  | 0.047747   | 0.047747   | 0.047747   |   0.0 |  0.00
Modify  | 709.51     | 709.51     | 709.51     |   0.0 | 49.78
Other   |            | 5.568      |            |       |  0.39

Nlocal:           5541 ave        5541 max        5541 min
Histogram: 1 0 0 0 0 0 0 0 0 0
Nghost:          35147 ave       35147 max       35147 min
Histogram: 1 0 0 0 0 0 0 0 0 0
Neighs:              0 ave           0 max           0 min
Histogram: 1 0 0 0 0 0 0 0 0 0

Total # of neighbors = 0
Ave neighs/atom = 0
Ave special neighs/atom = 2.4872767
Neighbor list builds = 4653
Dangerous builds = 0

thermo 1000  # Return to normal frequency

unfix mynpt_ramp
undump ramp_dcd

write_restart pressure_ramp_complete.restart
System init for write_restart ...
PPPM initialization ...
  extracting TIP4P info from pair style
  using 12-bit tables for long-range coulomb
  G vector (1/distance) = 0.28795534
  grid = 50 50 50
  stencil order = 5
  estimated absolute RMS force accuracy = 0.00033640372
  estimated relative force accuracy = 1.0130698e-06
  using double precision FFTW3
  3d grid and FFT values/proc = 205379 125000
Generated 0 of 3 mixed pair_coeff terms from geometric mixing rule
write_data pressure_ramp_complete.data
System init for write_data ...
PPPM initialization ...
  extracting TIP4P info from pair style
  using 12-bit tables for long-range coulomb
  G vector (1/distance) = 0.28795534
  grid = 50 50 50
  stencil order = 5
  estimated absolute RMS force accuracy = 0.00033640372
  estimated relative force accuracy = 1.0130698e-06
  using double precision FFTW3
  3d grid and FFT values/proc = 205379 125000
Generated 0 of 3 mixed pair_coeff terms from geometric mixing rule
WARNING: Not all mixed pair coeffs generated from mixing. Use write_data with 'pair ij' option to store all pair coeffs. (src/write_data.cpp:364)

# ğŸ”§ CHECKPOINT #3: Critical check after ramp (most likely failure point)
variable current_dens equal density
variable current_press equal press
variable current_vol equal vol
variable current_boxsize equal vol^(1.0/3.0)

print ""

print "Pressure ramp complete:"
Pressure ramp complete:
print "  Density:  ${current_dens} g/cmÂ³"
  Density:  1.02934109841786 g/cm³
print "  Pressure: ${current_press} atm"
  Pressure: -661.91828345655 atm
print "  Volume:   ${current_vol} Ã…Â³"
  Volume:   55421.3347780262 …³
print "  Box size: ${current_boxsize} Ã…"
  Box size: 38.1263877513079 …

if "${current_dens} < 0.75" then     "print ''"     "print 'ğŸ”´ CRITICAL ERROR: Density collapsed to ${current_dens} g/cmÂ³!'"     "print ''"     "print 'This means the PPPM artifact occurred despite fixes.'"     "print 'Check equilibration.log for pressure spike around step 75,000-85,000'"     "print ''"     "print 'If pressure exceeded 10,000 atm during ramp:'"     "print '  â†’ PPPM grid still recalculating (increase mesh size)'"     "print '  â†’ Try mesh 50 50 50 or mesh 60 60 60'"     "print ''"     "print 'If pressure stayed < 1,000 atm but density still dropped:'"     "print '  â†’ Initial configuration may be problematic'"     "print '  â†’ Check initial_system.data for pre-existing issues'"     "print ''"     "quit 1"

print "âœ“ Checkpoint 3 PASSED: Pressure ramp successful, liquid phase maintained"
œ“ Checkpoint 3 PASSED: Pressure ramp successful, liquid phase maintained

#==============================================================================
# STAGE 3: NPT Equilibration (Complete 1000 ps with 2-phase strategy)
#==============================================================================
print ""

print "===== STAGE 3: NPT Equilibration (1000 ps, GPU) ====="
===== STAGE 3: NPT Equilibration (1000 ps, GPU) =====
print "Equilibrating at 300K, 1 atm with improved pressure control"
Equilibrating at 300K, 1 atm with improved pressure control
print ""

print "Strategy:"
Strategy:
print "  Phase 1 (400 ps): Higher damping for gentle pressure equilibration"
  Phase 1 (400 ps): Higher damping for gentle pressure equilibration
print "  Phase 2 (600 ps): Standard damping for final equilibration"
  Phase 2 (600 ps): Standard damping for final equilibration
print ""


# Phase 1: Gentle NPT with stronger pressure damping (400 ps)
print "Phase 1: Gentle pressure equilibration (400 ps, pdamp=5000)..."
Phase 1: Gentle pressure equilibration (400 ps, pdamp=5000)...
# ğŸ”§ CRITICAL: Using npt/gpu instead of npt for FULL GPU acceleration
fix mynpt_gentle all npt/gpu temp 300.0 300.0 100.0 iso 1.0 1.0 5000.0

dump npt_traj all custom 2000 npt_equilibration.lammpstrj id type xu yu zu
dump_modify npt_traj sort id

dump npt_dcd all dcd 2000 npt_equilibration.dcd
dump_modify npt_dcd unwrap yes

# Thermodynamic averaging during NPT
fix thermo_avg_npt all ave/time 100 10 1000 v_epsilon_co v_temp v_press v_pe v_ke v_etotal v_vol v_dens     file npt_equilibration_thermo.dat

run 200000  # 400 ps at 2 fs timestep
PPPM initialization ...
  extracting TIP4P info from pair style
  using 12-bit tables for long-range coulomb
  G vector (1/distance) = 0.28795534
  grid = 50 50 50
  stencil order = 5
  estimated absolute RMS force accuracy = 0.00033640372
  estimated relative force accuracy = 1.0130698e-06
  using double precision FFTW3
  3d grid and FFT values/proc = 205379 125000
Generated 0 of 3 mixed pair_coeff terms from geometric mixing rule
Per MPI rank memory allocation (min/avg/max) = 50.63 | 50.63 | 50.63 Mbytes
   Step          Temp          Press          Volume         PotEng         KinEng         TotEng        Density    
    100010   301.68466     -660.46038      55421.335     -20296.172      3374.9403     -16921.232      1.0293411    
    101000   293.42259     -936.06764      55810.041     -20149.449      3282.5127     -16866.937      1.0221719    
    102000   305.61529      136.05495      55889.833     -20209.368      3418.9122     -16790.456      1.0207126    
    103000   295.9417       563.42158      55321.005     -20213.61       3310.6939     -16902.916      1.0312079    
    104000   299.58186     -297.49616      55388.331     -20318.181      3351.4163     -16966.765      1.0299544    
    105000   302.9888      -484.8711       55837.757     -20258.406      3389.5296     -16868.876      1.0216646    
    106000   297.33407     -137.31212      55638.898     -20227.696      3326.2703     -16901.426      1.0253161    
    107000   296.42081      422.84846      54827.534     -20198.426      3316.0537     -16882.373      1.0404892    
    108000   295.44621      215.14159      55629.807     -20185.062      3305.1509     -16879.912      1.0254837    
    109000   306.68669     -477.87102      56194.587     -20195.16       3430.8979     -16764.262      1.0151771    
    110000   296.32337      580.28235      55544.974     -20207.796      3314.9637     -16892.832      1.0270499    
    111000   298.65537     -586.50596      55205.927     -20337.351      3341.0517     -16996.299      1.0333575    
    112000   293.88876      425.80805      55371.395     -20208.162      3287.7277     -16920.435      1.0302695    
    113000   304.87897     -269.78162      56098.486     -20223.519      3410.675      -16812.844      1.0169162    
    114000   298.0258      -134.30284      56067.261     -20277.62       3334.0086     -16943.612      1.0174825    
    115000   292.42301      331.79634      55840.776     -20311.013      3271.3304     -17039.683      1.0216093    
    116000   303.26178      575.93912      55849.631     -20310.789      3392.5835     -16918.206      1.0214474    
    117000   304.29644     -19.115253      55805.82      -20319.684      3404.1582     -16915.526      1.0222492    
    118000   305.80004      514.13919      55492.659     -20314.949      3420.979      -16893.97       1.0280181    
    119000   303.0122       539.25434      55398.389     -20369.466      3389.7914     -16979.675      1.0297674    
    120000   291.8947       433.13306      55469.225     -20224.142      3265.4202     -16958.722      1.0284524    
    121000   296.27469     -350.71764      55723.549     -20372.351      3314.4191     -17057.932      1.0237585    
    122000   295.69001     -638.78206      55639.752     -20327.402      3307.8783     -17019.524      1.0253004    
    123000   295.87383     -122.61307      55672.056     -20260.932      3309.9347     -16950.997      1.0247054    
    124000   308.44112     -871.77962      56338.714     -20397.018      3450.5247     -16946.493      1.0125801    
    125000   299.33791     -158.81493      55303.617     -20256.214      3348.6872     -16907.527      1.0315321    
    126000   299.28468      978.9345       55127.391     -20312.981      3348.0918     -16964.889      1.0348296    
    127000   297.0162      -107.8526       55594.183     -20173.325      3322.7143     -16850.61       1.0261408    
    128000   304.88208      365.33618      55787.791     -20182.442      3410.7097     -16771.732      1.0225796    
    129000   294.74028      666.75624      55523.564     -20155.632      3297.2536     -16858.378      1.0274459    
    130000   303.426       -324.06499      55570.845     -20376.818      3394.4206     -16982.398      1.0265717    
    131000   296.90609     -1046.5815      55941.934     -20268.908      3321.4825     -16947.425      1.019762     
    132000   299.8378       221.94043      55394.81      -20184.246      3354.2795     -16829.967      1.029834     
    133000   299.5145       376.93629      55201.43      -20251.573      3350.6627     -16900.91       1.0334417    
    134000   292.8743       612.69305      55875.277     -20111.62       3276.379      -16835.241      1.0209785    
    135000   299.23429     -387.26395      55482.625     -20263.863      3347.528      -16916.335      1.028204     
    136000   293.20441      300.01737      55689.819     -20172.75       3280.0719     -16892.678      1.0243786    
    137000   293.92807      419.74262      55951.583     -20194.131      3288.1674     -16905.963      1.0195861    
    138000   298.57033      802.88063      55489.684     -20148.186      3340.1003     -16808.086      1.0280732    
    139000   302.10601      156.24322      56111.927     -20235.057      3379.6539     -16855.403      1.0166726    
    140000   301.80845     -9.9835757      55789.713     -20169.108      3376.3251     -16792.782      1.0225444    
    141000   295.31289     -722.92951      55449.546     -20203.032      3303.6594     -16899.373      1.0288174    
    142000   298.35591     -715.09458      55657.494     -20190.548      3337.7017     -16852.846      1.0249735    
    143000   300.78726      110.24283      56318.766     -20189.785      3364.901      -16824.884      1.0129387    
    144000   295.88264     -283.40298      56095.383     -20301.171      3310.0332     -16991.137      1.0169724    
    145000   298.59123      715.14502      55414.369     -20247.769      3340.3341     -16907.435      1.0294705    
    146000   300.57146     -119.083        55863.026     -20229.437      3362.487      -16866.95       1.0212024    
    147000   293.85386     -72.413134      55627.874     -20349.793      3287.3373     -17062.456      1.0255193    
    148000   295.92442     -192.69904      55283.694     -20151.118      3310.5006     -16840.618      1.0319039    
    149000   302.93049     -167.37451      55968.397     -20218.863      3388.8773     -16829.986      1.0192798    
    150000   307.69895     -604.93555      56336.086     -20169.035      3442.222      -16726.813      1.0126273    
    151000   299.85818      523.43588      54983.336     -20296.535      3354.5075     -16942.027      1.0375409    
    152000   304.40087     -162.18662      55319.328     -20237.804      3405.3265     -16832.478      1.0312392    
    153000   300.26704     -44.220426      55442.615     -20237.536      3359.0814     -16878.454      1.028946     
    154000   298.02115     -256.16092      55471.3       -20358.043      3333.9566     -17024.086      1.0284139    
    155000   299.31927      439.74051      55590.504     -20198.248      3348.4787     -16849.769      1.0262087    
    156000   297.12512     -492.42556      55928.896     -20209.243      3323.9328     -16885.31       1.0199997    
    157000   289.96588     -777.56654      55845.894     -20345.803      3243.8425     -17101.96       1.0215157    
    158000   303.78878      34.918625      55613.516     -20221.661      3398.479      -16823.182      1.0257841    
    159000   295.93185     -286.17345      55730.623     -20248.053      3310.5838     -16937.469      1.0236286    
    160000   302.19819      285.93483      55633.865     -20190.823      3380.6852     -16810.138      1.0254089    
    161000   304.89777      340.84886      55307.423     -20300.716      3410.8853     -16889.831      1.0314611    
    162000   300.46185      784.1309       55674.094     -20243.137      3361.2607     -16881.877      1.0246679    
    163000   302.04957      358.96557      55975.723     -20237.308      3379.0225     -16858.286      1.0191464    
    164000   298.14761     -528.39622      56220.976     -20209.24       3335.3714     -16873.868      1.0147006    
    165000   300.68686     -49.176445      55819.677     -20272.331      3363.7779     -16908.553      1.0219955    
    166000   292.8649       530.9794       55450.582     -20185.222      3276.2739     -16908.948      1.0287982    
    167000   302.61526     -532.22012      55906.324     -20272.148      3385.3509     -16886.797      1.0204115    
    168000   303.4449       354.43718      55794.916     -20278.465      3394.6321     -16883.833      1.022449     
    169000   306.67118     -590.983        56418.328     -20104.146      3430.7243     -16673.422      1.0111512    
    170000   292.97801      882.83858      55785.729     -20238.269      3277.5392     -16960.73       1.0226174    
    171000   303.64528     -455.80646      55549.78      -20214.73       3396.8738     -16817.856      1.026961     
    172000   299.48473     -111.92735      55974.942     -20233.162      3350.3297     -16882.832      1.0191606    
    173000   299.84104     -19.182728      55455.402     -20262.349      3354.3158     -16908.033      1.0287088    
    174000   297.18008     -54.386744      55284.82      -20356.381      3324.5477     -17031.833      1.0318829    
    175000   307.2629       826.46978      56171.094     -20242.036      3437.344      -16804.692      1.0156017    
    176000   298.20797     -246.60477      56194.52      -20223.321      3336.0467     -16887.274      1.0151783    
    177000   293.13553      58.630933      55604.383     -20302.016      3279.3014     -17022.714      1.0259525    
    178000   291.81549     -35.180476      55746.891     -20084.874      3264.5341     -16820.34       1.0233298    
    179000   306.1471      -150.48239      55838.061     -20306.281      3424.8616     -16881.42       1.021659     
    180000   293.86234      320.82344      55919.754     -20148.2        3287.4322     -16860.768      1.0201665    
    181000   296.47709     -39.061618      55734.565     -20307.685      3316.6833     -16991.002      1.0235562    
    182000   292.12276      156.32968      55524.04      -20212.462      3267.9715     -16944.49       1.0274371    
    183000   302.68551     -320.1211       55595.399     -20214.588      3386.1368     -16828.452      1.0261183    
    184000   301.07987     -126.29785      55232.433     -20293.023      3368.1745     -16924.848      1.0328616    
    185000   297.55852     -82.943994      55426.115     -20277.549      3328.7812     -16948.768      1.0292523    
    186000   304.14954     -210.60046      55381.614     -20283.027      3402.5149     -16880.512      1.0300794    
    187000   302.01989     -545.21822      56149.922     -20143.633      3378.6905     -16764.943      1.0159846    
    188000   301.05747     -210.2615       55724.281     -20241.505      3367.9239     -16873.581      1.0237451    
    189000   296.33582      155.8039       55504.82      -20134.77       3315.103      -16819.667      1.0277929    
    190000   298.62358      113.59945      55386.339     -20214.856      3340.6961     -16874.16       1.0299915    
    191000   296.07055     -861.84227      55773.211     -20088.276      3312.1354     -16776.141      1.0228469    
    192000   299.84557      522.49585      55705.024     -20207.521      3354.3664     -16853.155      1.024099     
    193000   304.48703      407.4805       55794.003     -20125.218      3406.2903     -16718.928      1.0224658    
    194000   295.35557      305.14071      55892.838     -20317.811      3304.1368     -17013.674      1.0206577    
    195000   305.7227       432.15423      56517.714     -20277.486      3420.1138     -16857.373      1.0093731    
    196000   303.60748      156.46298      56651.007     -20179.022      3396.4509     -16782.571      1.0069981    
    197000   302.13568      407.14637      55872.142     -20207.988      3379.9858     -16828.002      1.0210358    
    198000   300.91104      695.75229      55617.781     -20181.174      3366.2858     -16814.888      1.0257054    
    199000   289.6102      -443.43958      56029.726     -20213.311      3239.8635     -16973.448      1.0181641    
    200000   301.79426      684.55686      55253.856     -20185.056      3376.1664     -16808.889      1.0324611    
    201000   293.90321     -638.12527      55540.601     -20235.573      3287.8893     -16947.684      1.0271307    
    202000   298.14479      338.15215      56299.253     -20083.686      3335.3398     -16748.346      1.0132898    
    203000   297.71447      699.61068      55860.097     -20283.114      3330.5258     -16952.588      1.021256     
    204000   298.10445     -284.19046      55828.94      -20228.564      3334.8886     -16893.676      1.0218259    
    205000   303.13202      545.60651      55564.767     -20303.242      3391.1319     -16912.11       1.026684     
    206000   297.86911     -574.22347      55985.708     -20197.084      3332.2558     -16864.828      1.0189646    
    207000   295.12315     -803.41739      55790.917     -20191.885      3301.5368     -16890.349      1.0225223    
    208000   299.65626      624.27452      55320.188     -20251.25       3352.2487     -16899.001      1.0312231    
    209000   299.72849     -98.851647      55625.298     -20237.368      3353.0567     -16884.311      1.0255668    
    210000   288.99383      233.23486      55951.718     -20127.481      3232.9683     -16894.512      1.0195837    
    211000   303.65538     -385.11481      56081.94      -20248.336      3396.9867     -16851.35       1.0172162    
    212000   299.28107      119.36584      55938.47      -20249.682      3348.0513     -16901.63       1.0198251    
    213000   293.65195     -472.69604      55696.419     -20219.257      3285.0785     -16934.178      1.0242572    
    214000   303.96843     -634.86102      55553.913     -20238.262      3400.4888     -16837.773      1.0268846    
    215000   296.41369     -549.54275      55780.337     -20144.865      3315.974      -16828.891      1.0227163    
    216000   294.0936       177.85888      55202.176     -20280.198      3290.0193     -16990.179      1.0334277    
    217000   303.8269       38.383268      55346.17      -20157.958      3398.9055     -16759.052      1.030739     
    218000   301.74151     -478.23214      56343.945     -20302.517      3375.5763     -16926.941      1.012486     
    219000   303.83688      130.13864      56000.293     -20144.132      3399.0171     -16745.115      1.0186993    
    220000   295.96232     -147.18694      55584.93      -20148.168      3310.9246     -16837.243      1.0263116    
    221000   303.30991     -361.93421      55881.189     -20139.692      3393.1219     -16746.57       1.0208705    
    222000   299.33766     -240.12883      56018.713     -20209.979      3348.6845     -16861.295      1.0183643    
    223000   294.98947     -551.2059       55704.898     -20189.201      3300.0413     -16889.16       1.0241013    
    224000   298.16158     -1045.7797      55906.095     -20196.722      3335.5276     -16861.195      1.0204157    
    225000   300.22651      722.14964      55969.065     -20224.187      3358.628      -16865.559      1.0192677    
    226000   294.73806     -1002.8097      55816.376     -20178.762      3297.2288     -16881.533      1.0220559    
    227000   302.34167     -49.660287      55076.401     -20356.696      3382.2903     -16974.406      1.0357877    
    228000   296.28969     -431.3615       55556.943     -20267.073      3314.5869     -16952.486      1.0268286    
    229000   294.68081      810.46407      55618.046     -20154.61       3296.5884     -16858.022      1.0257005    
    230000   302.17388     -48.088146      55928.094     -20186.584      3380.4131     -16806.171      1.0200143    
    231000   295.60148      342.09844      55620.297     -20241.768      3306.8879     -16934.88       1.025659     
    232000   302.43693     -273.85594      55827.84      -20211.807      3383.3559     -16828.451      1.0218461    
    233000   299.38103      260.77006      55486.492     -20190.458      3349.1696     -16841.288      1.0281324    
    234000   301.59937     -83.558492      55106.853     -20252.283      3373.9862     -16878.297      1.0352153    
    235000   293.02988      229.23607      55548.108     -20248.194      3278.1194     -16970.074      1.0269919    
    236000   296.06816     -483.50106      55883.037     -20233.784      3312.1087     -16921.675      1.0208367    
    237000   298.56336      538.6704       55335.354     -20260.652      3340.0224     -16920.629      1.0309405    
    238000   300.21787      3.757598       55236.342     -20402.369      3358.5314     -17043.838      1.0327885    
    239000   297.70718     -593.71202      56067.59      -20222.105      3330.4443     -16891.661      1.0174765    
    240000   297.81049      134.17027      55889.536     -20152.157      3331.6        -16820.557      1.020718     
    241000   309.02379     -143.97487      55711.138     -20170.599      3457.043      -16713.556      1.0239866    
    242000   301.8619       806.57404      55185.117     -20372.557      3376.923      -16995.634      1.0337472    
    243000   298.97149     -185.67922      56042.514     -20294.469      3344.5881     -16949.881      1.0179318    
    244000   297.7537       438.61628      55970.602     -20200.462      3330.9648     -16869.498      1.0192397    
    245000   301.55847      486.22611      55321.287     -20349.245      3373.5286     -16975.717      1.0312027    
    246000   298.50458     -157.8447       56045.616     -20138.076      3339.3648     -16798.712      1.0178755    
    247000   288.49436     -62.369414      56111.831     -20341.678      3227.3807     -17114.297      1.0166743    
    248000   300.06857     -84.325843      55360.337     -20233.271      3356.8611     -16876.41       1.0304753    
    249000   293.19448      170.70823      55924.463     -20242.877      3279.9608     -16962.916      1.0200806    
    250000   297.77904     -80.244505      56150.726     -20358.93       3331.2482     -17027.682      1.0159701    
    251000   291.7399       307.6509       56118.524     -20263.735      3263.6885     -17000.046      1.0165531    
    252000   307.61092     -407.4204       55769.945     -20351.644      3441.2373     -16910.407      1.0229068    
    253000   299.04071      78.005423      55611.407     -20361.049      3345.3625     -17015.687      1.0258229    
    254000   296.38723      177.76379      55878.062     -20228.489      3315.678      -16912.811      1.0209276    
    255000   293.24571      258.63279      56075.325     -20221.937      3280.5339     -16941.403      1.0173362    
    256000   297.95048     -499.08056      55924.27      -20284.874      3333.1661     -16951.708      1.0200841    
    257000   294.91031      381.8603       55838.405     -20235.28       3299.1558     -16936.124      1.0216527    
    258000   295.84292     -14.660933      55580.952     -20123.854      3309.5889     -16814.266      1.026385     
    259000   302.84631      88.69076       55670.797     -20310.474      3387.9357     -16922.538      1.0247286    
    260000   302.2479      -230.38233      55634.026     -20262.095      3381.2412     -16880.854      1.0254059    
    261000   298.04438      624.07991      55646.886     -20230.453      3334.2165     -16896.236      1.0251689    
    262000   302.21707      652.17578      55966.356     -20148.712      3380.8964     -16767.816      1.019317     
    263000   293.99409      59.538836      55622.332     -20284.383      3288.906      -16995.477      1.0256215    
    264000   302.06939      574.92954      55560.864     -20372.87       3379.2443     -16993.626      1.0267561    
    265000   299.79011      45.335499      56102.706     -20180.445      3353.746      -16826.699      1.0168397    
    266000   292.57986     -411.41282      56479.383     -20158.836      3273.0851     -16885.75       1.0100581    
    267000   293.57155      434.95892      55855.472     -20261.187      3284.1791     -16977.008      1.0213405    
    268000   300.13433     -505.56539      55762.553     -20242.044      3357.5968     -16884.447      1.0230424    
    269000   300.88872      514.75412      55752.837     -20289.479      3366.0362     -16923.443      1.0232207    
    270000   292.33931      926.11047      55514.208     -20208.914      3270.3941     -16938.519      1.027619     
    271000   305.56386     -203.67028      56310.658     -20169.91       3418.3368     -16751.573      1.0130846    
    272000   300.24131      530.03953      55547.806     -20202.32       3358.7935     -16843.527      1.0269975    
    273000   303.38238      1097.1553      55181.915     -20285.205      3393.9327     -16891.272      1.0338071    
    274000   301.94782     -336.9484       55723.322     -20267.533      3377.8842     -16889.649      1.0237627    
    275000   298.14646      537.95205      55619.462     -20194.898      3335.3585     -16859.539      1.0256744    
    276000   300.04313     -248.46423      55970.059     -20247.151      3356.5765     -16890.575      1.0192496    
    277000   299.10951      54.535163      55767.441     -20214.418      3346.1321     -16868.286      1.0229528    
    278000   296.52062     -336.66203      55796.479     -20249.025      3317.1702     -16931.855      1.0224204    
    279000   305.83339     -62.91143       55885.62      -20173.604      3421.3521     -16752.252      1.0207896    
    280000   297.67004     -18.94273       55914.799     -20306.669      3330.0289     -16976.64       1.0202569    
    281000   302.71918      499.53587      55792.012     -20195.685      3386.5135     -16809.172      1.0225022    
    282000   304.89254     -103.48048      55854.81      -20249.879      3410.8268     -16839.052      1.0213526    
    283000   301.00181      850.53971      55401.06      -20167.155      3367.3013     -16799.853      1.0297178    
    284000   305.91182     -29.231622      55492.176     -20292.953      3422.2295     -16870.724      1.028027     
    285000   305.9934      -702.77656      56098.344     -20173.513      3423.142      -16750.371      1.0169188    
    286000   297.47045     -133.93646      56116.818     -20280.812      3327.796      -16953.016      1.016584     
    287000   298.3462      -191.70319      55943.872     -20233.538      3337.593      -16895.945      1.0197267    
    288000   300.83261     -160.65064      55780.981     -20306.384      3365.4084     -16940.975      1.0227045    
    289000   308.5022       185.40892      55864.521     -20111.182      3451.208      -16659.974      1.0211751    
    290000   300.84187      779.4893       55203.602     -20173.245      3365.512      -16807.733      1.033401     
    291000   309.79151      428.80633      55480.77      -20267.623      3465.6314     -16801.992      1.0282384    
    292000   297.77585      472.72083      56106.097     -20167.579      3331.2126     -16836.366      1.0167782    
    293000   295.25185      648.58955      55723.436     -20241.546      3302.9766     -16938.57       1.0237606    
    294000   297.09247      582.84501      55717.912     -20263.641      3323.5675     -16940.073      1.0238621    
    295000   300.70942      75.105582      55559.583     -20253.278      3364.0303     -16889.248      1.0267798    
    296000   297.66489      144.60036      55584.176     -20275.34       3329.9712     -16945.369      1.0263255    
    297000   301.52494      784.81612      55428.9       -20316.955      3373.1535     -16943.801      1.0292006    
    298000   302.26989      230.83786      56091.665     -20116.49       3381.4873     -16735.003      1.0170398    
    299000   302.44197     -62.911359      56364.737     -20231.92       3383.4123     -16848.507      1.0121125    
    300000   303.99099     -74.542465      55618.251     -20233.867      3400.7412     -16833.125      1.0256967    
    300010   298.45912     -335.85333      55611.062     -20180.831      3338.8563     -16841.975      1.0258293    
Loop time of 5696.68 on 4 procs for 200000 steps with 5541 atoms

Performance: 6.067 ns/day, 3.956 hours/ns, 35.108 timesteps/s, 194.534 katom-step/s
309.6% CPU use with 1 MPI tasks x 4 OpenMP threads

MPI task timing breakdown:
Section |  min time  |  avg time  |  max time  |%varavg| %total
---------------------------------------------------------------
Pair    | 132.84     | 132.84     | 132.84     |   0.0 |  2.33
Bond    | 1.8999     | 1.8999     | 1.8999     |   0.0 |  0.03
Kspace  | 2641.4     | 2641.4     | 2641.4     |   0.0 | 46.37
Neigh   | 0.33899    | 0.33899    | 0.33899    |   0.0 |  0.01
Comm    | 60.189     | 60.189     | 60.189     |   0.0 |  1.06
Output  | 0.73118    | 0.73118    | 0.73118    |   0.0 |  0.01
Modify  | 2837.2     | 2837.2     | 2837.2     |   0.0 | 49.80
Other   |            | 22.11      |            |       |  0.39

Nlocal:           5541 ave        5541 max        5541 min
Histogram: 1 0 0 0 0 0 0 0 0 0
Nghost:          34953 ave       34953 max       34953 min
Histogram: 1 0 0 0 0 0 0 0 0 0
Neighs:              0 ave           0 max           0 min
Histogram: 1 0 0 0 0 0 0 0 0 0

Total # of neighbors = 0
Ave neighs/atom = 0
Ave special neighs/atom = 2.4872767
Neighbor list builds = 18590
Dangerous builds = 0

unfix mynpt_gentle

variable phase1_dens equal density
variable phase1_press equal press
print ""

print "Phase 1 complete:"
Phase 1 complete:
print "  Density:  ${phase1_dens} g/cmÂ³"
  Density:  1.02582930834552 g/cm³
print "  Pressure: ${phase1_press} atm"
  Pressure: -335.853325637351 atm
print ""


# Phase 2: Standard NPT damping (600 ps)
print "Phase 2: Final equilibration (600 ps, pdamp=2000)..."
Phase 2: Final equilibration (600 ps, pdamp=2000)...
# ğŸ”§ CRITICAL: Using npt/gpu instead of npt for FULL GPU acceleration
fix mynpt_standard all npt/gpu temp 300.0 300.0 100.0 iso 1.0 1.0 2000.0

run 300000  # 600 ps at 2 fs timestep
PPPM initialization ...
  extracting TIP4P info from pair style
  using 12-bit tables for long-range coulomb
  G vector (1/distance) = 0.28789498
  grid = 50 50 50
  stencil order = 5
  estimated absolute RMS force accuracy = 0.0003375011
  estimated relative force accuracy = 1.0163745e-06
  using double precision FFTW3
  3d grid and FFT values/proc = 205379 125000
Generated 0 of 3 mixed pair_coeff terms from geometric mixing rule
Per MPI rank memory allocation (min/avg/max) = 53.19 | 53.19 | 53.19 Mbytes
   Step          Temp          Press          Volume         PotEng         KinEng         TotEng        Density    
    300010   298.45912     -342.62852      55611.062     -20180.838      3338.8563     -16841.982      1.0258293    
    301000   302.19102      97.874685      55437.896     -20280.656      3380.605      -16900.051      1.0290336    
    302000   299.39307      556.91663      55692.506     -20202          3349.3043     -16852.695      1.0243291    
    303000   301.78608      792.6443       55138.526     -20245.902      3376.0749     -16869.827      1.0346207    
    304000   296.83486     -128.7919       55463.504     -20179.684      3320.6856     -16858.999      1.0285585    
    305000   298.66049      273.13092      55053.82      -20191.112      3341.109      -16850.003      1.0362125    
    306000   300.69064      238.97055      55795.655     -20184.392      3363.8203     -16820.571      1.0224355    
    307000   300.78253      106.17396      55942.124     -20204.623      3364.8482     -16839.774      1.0197585    
    308000   298.81999     -303.86409      55529.712     -20235.685      3342.8933     -16892.792      1.0273321    
    309000   294.0017       590.41317      55486.451     -20250.95       3288.9912     -16961.959      1.0281331    
    310000   309.64492      322.24845      55576.132     -20185.342      3463.9916     -16721.35       1.0264741    
    311000   295.88308      41.767995      55527.792     -20216.336      3310.0381     -16906.298      1.0273677    
    312000   296.43015     -1040.5303      55842.809     -20223.936      3316.1582     -16907.778      1.0215721    
    313000   296.56576     -539.86677      55904.462     -20235.964      3317.6753     -16918.288      1.0204455    
    314000   299.04027      494.31899      54938.203     -20331.445      3345.3575     -16986.088      1.0383932    
    315000   304.49411      93.951252      55954.153     -20180.621      3406.3696     -16774.251      1.0195393    
    316000   307.71267     -316.10129      55810.186     -20238.956      3442.3755     -16796.58       1.0221693    
    317000   302.78364     -286.7835       55767.124     -20315.784      3387.2346     -16928.549      1.0229586    
    318000   297.6354       405.73217      55830.405     -20206.471      3329.6413     -16876.83       1.0217991    
    319000   296.64124      701.80093      55899.037     -20309.646      3318.5196     -16991.126      1.0205445    
    320000   297.25582      328.6195       55883.787     -20332.372      3325.3949     -17006.977      1.020823     
    321000   305.12256     -457.29248      55607.524     -20321.22       3413.4        -16907.82       1.0258946    
    322000   297.41897      377.54795      55764.657     -20243.786      3327.2201     -16916.566      1.0230038    
    323000   306.5416      -206.00316      55546.175     -20409.571      3429.2748     -16980.297      1.0270277    
    324000   301.53771     -121.4412       55635.769     -20131.353      3373.2963     -16758.057      1.0253738    
    325000   298.38209      308.93813      55072.671     -20343.099      3337.9945     -17005.104      1.0358578    
    326000   295.27759     -164.06025      56276.312     -20200.179      3303.2645     -16896.915      1.0137028    
    327000   305.91579     -533.09929      56224.592     -20261.084      3422.2739     -16838.81       1.0146353    
    328000   308.61602      263.16094      55826.397     -20276.291      3452.4813     -16823.81       1.0218725    
    329000   298.67423     -499.39434      56116.525     -20258.197      3341.2627     -16916.935      1.0165893    
    330000   305.03139     -585.89447      55837.283     -20271.165      3412.3801     -16858.785      1.0216732    
    331000   296.19962     -434.81644      55437.428     -20164.474      3313.5793     -16850.894      1.0290423    
    332000   296.91015     -36.272313      55986.37      -20176.142      3321.5279     -16854.614      1.0189526    
    333000   299.51069     -1240.7272      55838.593     -20190.342      3350.6202     -16839.722      1.0216493    
    334000   301.1945       1072.7552      55853.086     -20279.492      3369.4569     -16910.036      1.0213842    
    335000   300.55601      60.884364      55497.8       -20372.018      3362.3141     -17009.704      1.0279229    
    336000   301.03946      100.10494      55603.887     -20323.902      3367.7224     -16956.179      1.0259617    
    337000   298.78786      345.38901      56353.314     -20168.284      3342.5338     -16825.75       1.0123177    
    338000   297.02884      117.27659      55484.247     -20185.782      3322.8557     -16862.926      1.028174     
    339000   304.68035      25.472513      56015.854     -20162.197      3408.453      -16753.744      1.0184163    
    340000   299.15611      832.8775       55780.965     -20305.307      3346.6534     -16958.653      1.0227048    
    341000   298.3287      -483.58536      55745.54      -20286          3337.3972     -16948.603      1.0233547    
    342000   304.42205     -825.98676      56098.647     -20286.001      3405.5634     -16880.437      1.0169133    
    343000   303.27991     -101.52645      55471.632     -20218.995      3392.7864     -16826.208      1.0284078    
    344000   296.82605     -319.73696      55820.505     -20294.719      3320.5871     -16974.132      1.0219803    
    345000   302.04329      14.234341      55979.282     -20243.47       3378.9523     -16864.518      1.0190816    
    346000   306.34599     -265.99366      55957.705     -20240.811      3427.0865     -16813.725      1.0194746    
    347000   297.03675     -124.74238      55654.063     -20332.926      3322.9442     -17009.982      1.0250367    
    348000   302.88539     -220.88403      55809.609     -20160.948      3388.3728     -16772.575      1.0221799    
    349000   302.89858     -173.44974      55919.728     -20208.878      3388.5204     -16820.357      1.0201669    
    350000   305.14943      194.71644      56132.872     -20248.936      3413.7006     -16835.236      1.0162932    
    351000   299.43259     -380.06481      56291.641     -20002.633      3349.7465     -16652.886      1.0134268    
    352000   295.7179       61.6733        56174.665     -20263.828      3308.1902     -16955.638      1.0155371    
    353000   297.94392      518.84755      56109.673     -20337.343      3333.0927     -17004.25       1.0167134    
    354000   302.56155     -598.10057      56024.43      -20198.53       3384.75       -16813.78       1.0182604    
    355000   304.37723     -9.5789835      55877.926     -20165.315      3405.062      -16760.253      1.0209301    
    356000   295.55715      830.61706      55572.955     -20270.929      3306.392      -16964.537      1.0265327    
    357000   296.07922      334.02516      55175.702     -20313.369      3312.2323     -17001.136      1.0339236    
    358000   294.81247      311.06926      55970.231     -20250.506      3298.0612     -16952.445      1.0192464    
    359000   305.20494     -23.821673      56119.035     -20274.964      3414.3216     -16860.642      1.0165438    
    360000   300.40197     -603.70295      56202.414     -20222.244      3360.5909     -16861.653      1.0150357    
    361000   296.70264      1399.9825      55626.118     -20257.159      3319.2065     -16937.953      1.0255517    
    362000   299.84977     -268.62843      56158.721     -20216.804      3354.4134     -16862.391      1.0158254    
    363000   298.46577      184.80364      55898.872     -20290.443      3338.9306     -16951.513      1.0205476    
    364000   305.01302      764.60501      55534.868     -20207.595      3412.1746     -16795.42       1.0272367    
    365000   299.29757     -19.832523      55200.752     -20311.721      3348.2359     -16963.485      1.0334544    
    366000   293.34866      3.9283478      55659.846     -20215.956      3281.6856     -16934.27       1.0249302    
    367000   297.83872      288.37956      55995.065     -20175.619      3331.9159     -16843.704      1.0187944    
    368000   303.07312     -521.35573      56061.833     -20155.078      3390.4729     -16764.606      1.017581     
    369000   299.66129      181.2829       55748.886     -20105.512      3352.3049     -16753.208      1.0232932    
    370000   299.46906     -210.99722      55856         -20160.8        3350.1545     -16810.645      1.0213309    
    371000   299.71264     -588.15678      56182.611     -20289.102      3352.8794     -16936.223      1.0153935    
    372000   304.62963     -559.37917      55727.072     -20127.615      3407.8857     -16719.73       1.0236938    
    373000   299.36364      391.98667      55949.426     -20084.389      3348.9751     -16735.414      1.0196254    
    374000   298.34649      41.624577      56114.764     -20170.473      3337.5962     -16832.876      1.0166212    
    375000   299.16        -311.32989      55943.136     -20063.852      3346.697      -16717.155      1.0197401    
    376000   299.09333      310.40967      56022.742     -20287.103      3345.9511     -16941.151      1.0182911    
    377000   304.60817      187.86989      55899.781     -20310.756      3407.6455     -16903.111      1.020531     
    378000   299.01811      1112.0686      55784.181     -20171.568      3345.1096     -16826.458      1.0226458    
    379000   297.42979      499.07386      55757.874     -20125.778      3327.3412     -16798.437      1.0231283    
    380000   305.33995     -608.29766      55950.004     -20102.69       3415.8319     -16686.858      1.0196149    
    381000   293.92642      71.015838      55621         -20211.974      3288.1491     -16923.825      1.025646     
    382000   302.98483     -153.56104      55509.248     -20262.46       3389.4852     -16872.975      1.0277109    
    383000   303.56627     -485.01246      56107.703     -20244.785      3395.9898     -16848.795      1.0167491    
    384000   299.08762      132.39503      55791.918     -20121.133      3345.8872     -16775.245      1.022504     
    385000   298.82907     -120.15266      55606.384     -20302.457      3342.9948     -16959.462      1.0259156    
    386000   294.28701     -180.53248      55821.699     -20194.144      3292.183      -16901.961      1.0219585    
    387000   302.25224      257.38413      55685.058     -20276.354      3381.2898     -16895.064      1.0244662    
    388000   301.5323      -370.49151      56325.388     -20295.338      3373.2359     -16922.102      1.0128196    
    389000   296.46206     -45.959881      56181.114     -20337.474      3316.5152     -17020.959      1.0154206    
    390000   298.69852      241.28666      56180.934     -20206.537      3341.5344     -16865.003      1.0154238    
    391000   299.37751     -703.83571      55794.344     -20187.656      3349.1303     -16838.525      1.0224595    
    392000   305.62746     -393.57222      55551.324     -20344.101      3419.0483     -16925.053      1.0269325    
    393000   299.73134     -167.76172      56154.59      -20215.014      3353.0885     -16861.925      1.0159002    
    394000   302.88726     -624.25618      56620.763     -20144.656      3388.3937     -16756.262      1.007536     
    395000   304.40705     -299.81548      55105.044     -20309.867      3405.3956     -16904.471      1.0352493    
    396000   297.86697      195.63505      56094.907     -20119.604      3332.2319     -16787.372      1.0169811    
    397000   307.67737     -220.49463      55867.96      -20184.947      3441.9806     -16742.967      1.0211122    
    398000   301.33537      487.60109      55570.246     -20221.369      3371.0328     -16850.337      1.0265828    
    399000   301.64067      197.6817       55717.217     -20239.297      3374.4481     -16864.849      1.0238749    
    400000   304.25146      177.05441      55852.223     -20150.551      3403.655      -16746.896      1.0213999    
    401000   303.67925     -122.25818      55635.415     -20046.264      3397.2537     -16649.01       1.0253803    
    402000   302.62436     -109.44212      55644.414     -20175.459      3385.4527     -16790.007      1.0252144    
    403000   298.53757     -353.66684      55539.922     -20291.018      3339.7339     -16951.284      1.0271433    
    404000   298.98249      108.63552      56092.843     -20191.56       3344.7112     -16846.849      1.0170185    
    405000   293.76031      177.71924      55963.883     -20247.592      3286.2907     -16961.301      1.019362     
    406000   300.87671     -17.457353      56967.506     -20197.93       3365.9018     -16832.028      1.0014035    
    407000   299.06217     -630.27846      56209.768     -20228.484      3345.6025     -16882.882      1.0149029    
    408000   292.32549     -223.56105      55629.686     -20138.721      3270.2394     -16868.482      1.0254859    
    409000   297.24735     -659.48863      55924.188     -20245.357      3325.3002     -16920.056      1.0200856    
    410000   303.96279      427.17656      55568.983     -20064.701      3400.4257     -16664.275      1.0266061    
    411000   295.89983     -246.77822      56010.38      -20167.944      3310.2255     -16857.718      1.0185158    
    412000   293.48199     -744.15498      55857.362     -20271.098      3283.1772     -16987.921      1.021306     
    413000   298.46031      135.98634      55350.567     -20239.054      3338.8696     -16900.184      1.0306571    
    414000   300.22188     -479.81837      56208.963     -20184.893      3358.5762     -16826.317      1.0149175    
    415000   303.62675     -279.42351      56077.679     -20290.742      3396.6665     -16894.076      1.0172935    
    416000   302.84806     -144.44392      56381.99      -20275.6        3387.9552     -16887.645      1.0118028    
    417000   301.70482     -9.1123987      55969.554     -20409.981      3375.1658     -17034.815      1.0192587    
    418000   303.54921     -376.09763      55818.152     -20286.188      3395.799      -16890.389      1.0220234    
    419000   298.09671      73.409499      55465.636     -20356.82       3334.802      -17022.018      1.0285189    
    420000   300.38015     -142.9699       55981.577     -20187.513      3360.3468     -16827.166      1.0190398    
    421000   303.82357      495.07857      55897.113     -20072.436      3398.8682     -16673.567      1.0205797    
    422000   305.82814     -97.6201        55701.675     -20236.297      3421.2933     -16815.004      1.0241605    
    423000   296.3229       92.911668      55707.42      -20235.241      3314.9584     -16920.283      1.0240549    
    424000   302.98155     -582.42801      55439.952     -20352.791      3389.4486     -16963.342      1.0289954    
    425000   299.60878     -544.60834      56034.795     -20254.91       3351.7174     -16903.193      1.018072     
    426000   296.05893     -415.83416      56047.014     -20259.37       3312.0054     -16947.365      1.0178501    
    427000   296.4557      -538.50464      55890.625     -20165.295      3316.444      -16848.851      1.0206982    
    428000   300.9401      -1246.8485      55839.483     -20260.276      3366.6109     -16893.666      1.021633     
    429000   300.93535      691.45975      55840.91      -20232.283      3366.5578     -16865.725      1.0216069    
    430000   298.39211     -510.78555      55296.143     -20160.208      3338.1067     -16822.101      1.0316716    
    431000   303.1676      -38.377972      55481.413     -20203.857      3391.5299     -16812.327      1.0282265    
    432000   301.3182      -387.11246      55906.525     -20118.598      3370.8407     -16747.757      1.0204079    
    433000   297.73319      206.66944      55924.434     -20157.162      3330.7352     -16826.427      1.0200811    
    434000   304.10363     -55.962096      55700.253     -20174.18       3402.0013     -16772.179      1.0241867    
    435000   307.96835      951.76547      55296.787     -20241.266      3445.2358     -16796.03       1.0316595    
    436000   299.38139     -128.26229      56313.839     -20236.708      3349.1737     -16887.534      1.0130273    
    437000   303.12247     -639.90856      56077.172     -20260.946      3391.025      -16869.921      1.0173027    
    438000   295.75185      35.885131      55783.767     -20234.476      3308.57       -16925.906      1.0226534    
    439000   303.25169      633.72693      55798.704     -20130.329      3392.4707     -16737.858      1.0223796    
    440000   300.47241     -243.308        55338.388     -20301.259      3361.3789     -16939.88       1.030884     
    441000   306.1354       277.48965      56049.714     -20243.058      3424.7307     -16818.327      1.017801     
    442000   300.66311     -246.38892      55598.829     -20251.881      3363.5122     -16888.368      1.026055     
    443000   303.26163     -39.952776      55487.037     -20297.193      3392.5818     -16904.611      1.0281223    
    444000   299.77108     -868.30578      56128.833     -20217.761      3353.5331     -16864.228      1.0163664    
    445000   300.83088      4.861058       55859.173     -20084.285      3365.3891     -16718.896      1.0212729    
    446000   292.07342     -380.38889      56054.207     -20214.729      3267.4195     -16947.31       1.0177195    
    447000   304.9197       310.58913      55803.876     -20240.39       3411.1306     -16829.259      1.0222849    
    448000   300.78973      667.89903      55449.602     -20210.035      3364.9287     -16845.106      1.0288164    
    449000   292.72232     -49.311898      55012.368     -20259.021      3274.6788     -16984.343      1.0369933    
    450000   296.00527      665.37915      56106.177     -20170.564      3311.4051     -16859.159      1.0167768    
    451000   297.93054     -495.00268      55851.045     -20431.554      3332.943      -17098.611      1.0214215    
    452000   301.39175      264.03669      55898.784     -20261.242      3371.6635     -16889.579      1.0205492    
    453000   308.65774      184.53642      55187.112     -20211.832      3452.948      -16758.884      1.0337098    
    454000   299.25696      516.59494      56111.562     -20186.743      3347.7817     -16838.962      1.0166792    
    455000   298.284        463.4886       55814.435     -20234.669      3336.8971     -16897.772      1.0220915    
    456000   298.67678     -715.74533      55529.01      -20183.365      3341.2912     -16842.073      1.0273451    
    457000   300.83666     -550.6107       55794.248     -20172.78       3365.4538     -16807.326      1.0224613    
    458000   296.50729      20.456756      56097.191     -20239.295      3317.0211     -16922.274      1.0169397    
    459000   296.18291     -330.32126      55612.617     -20260.657      3313.3924     -16947.265      1.0258006    
    460000   300.14761      36.095138      55802.556     -20123.773      3357.7453     -16766.028      1.022309     
    461000   299.18926     -467.91806      55731.736     -20107.351      3347.0243     -16760.327      1.0236081    
    462000   300.8599      -626.01439      55812.871     -20204.628      3365.7137     -16838.914      1.0221201    
    463000   303.0084      -300.74261      55859.335     -20173.602      3389.749      -16783.853      1.0212699    
    464000   306.39152     -392.61188      55939.97      -20176.784      3427.5958     -16749.188      1.0197978    
    465000   298.7875       390.66845      55628.714     -20156.751      3342.5298     -16814.221      1.0255038    
    466000   301.15687      803.90129      55414.564     -20386.362      3369.0359     -17017.326      1.0294669    
    467000   297.67331      195.74262      55656.751     -20390.968      3330.0654     -17060.902      1.0249872    
    468000   295.4949      -855.87518      56373.707     -20385.98       3305.6956     -17080.284      1.0119515    
    469000   292.79394     -120.70047      55479.285     -20190.805      3275.48       -16915.325      1.0282659    
    470000   298.53249      252.89291      55154.903     -20357.018      3339.6771     -17017.341      1.0343134    
    471000   301.57534     -66.368463      55989.089     -20202.355      3373.7174     -16828.637      1.0189031    
    472000   296.56332      98.287743      55692.794     -20336.722      3317.648      -17019.074      1.0243239    
    473000   303.37017     -13.548477      55534.05      -20246.175      3393.7961     -16852.379      1.0272519    
    474000   301.29701      352.29427      55305.205     -20207.728      3370.6037     -16837.124      1.0315025    
    475000   296.639        883.97991      55435.723     -20248.97       3318.4946     -16930.475      1.0290739    
    476000   302.83271      234.34272      55708.714     -20266.882      3387.7835     -16879.099      1.0240311    
    477000   295.49017      11.670369      55767.356     -20149.277      3305.6427     -16843.635      1.0229543    
    478000   297.92108      579.51547      55556.057     -20186.155      3332.8372     -16853.318      1.026845     
    479000   300.57464      306.94374      55621.415     -20279.373      3362.5225     -16916.85       1.0256384    
    480000   296.99376     -812.42675      55947.459     -20257.941      3322.4633     -16935.478      1.0196613    
    481000   308.02607      66.294936      56066.61      -20264.135      3445.8815     -16818.254      1.0174943    
    482000   299.45736      361.578        55828.995     -20250.904      3350.0236     -16900.881      1.0218249    
    483000   291.63473      288.35807      55024.512     -20321.423      3262.5119     -17058.911      1.0367644    
    484000   298.38476      812.18648      55747.369     -20280.666      3338.0244     -16942.641      1.0233211    
    485000   299.19082      339.46398      55685.158     -20171.773      3347.0417     -16824.731      1.0244643    
    486000   297.02922     -406.91928      56199.908     -20322.074      3322.8599     -16999.214      1.015081     
    487000   302.96336     -249.36587      55898.439     -20308.571      3389.2451     -16919.326      1.0205555    
    488000   300.0689      -549.84194      56084.125     -20319.259      3356.8649     -16962.394      1.0171766    
    489000   299.05083      365.8168       55849.269     -20309.071      3345.4757     -16963.596      1.021454     
    490000   300.63474      599.85745      55500.996     -20220.797      3363.1949     -16857.602      1.0278637    
    491000   301.54362     -458.73519      56448.699     -20104.995      3373.3625     -16731.633      1.0106071    
    492000   302.48288      518.64104      55315.257     -20167.117      3383.87       -16783.247      1.0313151    
    493000   296.76894     -372.36632      55724.677     -20329.19       3319.9482     -17009.241      1.0237378    
    494000   297.44848     -66.543657      55777.611     -20258.113      3327.5502     -16930.563      1.0227662    
    495000   300.05734     -1159.6912      56036.341     -20295.425      3356.7355     -16938.69       1.0180439    
    496000   297.5135      -138.90705      55422.382     -20117.113      3328.2776     -16788.835      1.0293216    
    497000   294.43638      364.8664       55997.926     -20313.806      3293.8539     -17019.953      1.0187423    
    498000   303.29781      614.43655      56194.908     -20161.477      3392.9866     -16768.491      1.0151713    
    499000   292.92236     -506.56313      55877.442     -20203.703      3276.9166     -16926.786      1.020939     
    500000   297.32473      306.51782      55494.572     -20174.726      3326.1659     -16848.56       1.0279827    
    501000   300.60726      134.72974      55483.364     -20213.037      3362.8874     -16850.15       1.0281903    
    502000   303.842        155.81959      55667.673     -20289.56       3399.0744     -16890.485      1.0247861    
    503000   295.7875      -690.90965      56059.329     -20309.62       3308.9689     -17000.651      1.0176265    
    504000   298.31736      176.01329      55397.794     -20222.55       3337.2704     -16885.279      1.0297785    
    505000   301.51549      431.02302      55854.255     -20365.313      3373.0478     -16992.266      1.0213628    
    506000   300.76151     -572.4796       55530.503     -20208.906      3364.613      -16844.293      1.0273175    
    507000   301.46388      169.45069      56154.428     -20284.708      3372.4705     -16912.238      1.0159031    
    508000   295.50401     -878.11534      56496.067     -20200.354      3305.7974     -16894.556      1.0097598    
    509000   296.70925     -350.66093      55962.853     -20237.811      3319.2805     -16918.53       1.0193808    
    510000   301.06584     -173.33432      55486.674     -20235.018      3368.0176     -16867          1.028129     
    511000   303.90277      420.63772      55804.748     -20115.464      3399.7543     -16715.709      1.0222689    
    512000   305.35707     -96.246192      55940.975     -20378.702      3416.0235     -16962.678      1.0197795    
    513000   297.52331      380.27615      55824.332     -20141.33       3328.3874     -16812.943      1.0219103    
    514000   294.24885     -645.12792      55636.229     -20080.866      3291.756      -16789.11       1.0253653    
    515000   302.54758      341.39826      55851.085     -20169.438      3384.5937     -16784.844      1.0214208    
    516000   304.74082     -355.14864      55818.061     -20212.875      3409.1295     -16803.745      1.0220251    
    517000   300.76081     -680.9381       56022.595     -20309.279      3364.6052     -16944.674      1.0182937    
    518000   301.52466      780.56106      55585.132     -20374.565      3373.1504     -17001.415      1.0263079    
    519000   305.78597      269.58793      55462.477     -20268.6        3420.8216     -16847.779      1.0285775    
    520000   304.21026      101.32967      55546.747     -20259.917      3403.1941     -16856.723      1.0270171    
    521000   298.68841     -56.195923      55668.56      -20307.08       3341.4212     -16965.659      1.0247698    
    522000   303.54481      270.39593      55745.688     -20364.523      3395.7498     -16968.773      1.0233519    
    523000   296.39653     -148.04292      56218.127     -20322.066      3315.782      -17006.284      1.014752     
    524000   301.41708     -437.28511      55648.323     -20164.591      3371.9469     -16792.644      1.0251424    
    525000   303.60562     -531.49794      55895.867     -20127.564      3396.43       -16731.134      1.0206024    
    526000   310.24175      51.605433      55420.794     -20353.468      3470.6683     -16882.8        1.0293511    
    527000   301.21383     -83.894212      56259.246     -20213.709      3369.6732     -16844.036      1.0140104    
    528000   291.01549      310.32321      55758.976     -20241.188      3255.5845     -16985.604      1.0231081    
    529000   302.3905       1525.4122      55050.662     -20237.261      3382.8365     -16854.424      1.036272     
    530000   301.54637      188.23709      55945.883     -20206.039      3373.3932     -16832.645      1.01969      
    531000   296.39785     -295.11653      55433.583     -20275.14       3315.7969     -16959.343      1.0291137    
    532000   299.91013      390.45358      55830.923     -20278.893      3355.0887     -16923.804      1.0217896    
    533000   299.63478     -468.10723      55480.925     -20215.679      3352.0083     -16863.671      1.0282355    
    534000   303.76303      558.1496       54944.032     -20289.794      3398.1909     -16891.603      1.0382831    
    535000   298.25451      144.08079      55802.836     -20180.136      3336.5673     -16843.569      1.0223039    
    536000   300.11141      191.54033      55636.346     -20145.266      3357.3404     -16787.925      1.0253631    
    537000   299.96785      680.35071      55512.392     -20207.368      3355.7343     -16851.633      1.0276527    
    538000   297.66067      864.88674      55625.621     -20108.868      3329.9241     -16778.944      1.0255608    
    539000   300.58715      68.778837      55920.671     -20246.57       3362.6625     -16883.908      1.0201497    
    540000   296.13393     -515.38884      54997.117     -20220.625      3312.8443     -16907.78       1.0372809    
    541000   299.71892     -122.85728      55942.952     -20178.884      3352.9496     -16825.934      1.0197434    
    542000   301.411       -502.89706      56158.522     -20223.98       3371.8788     -16852.101      1.015829     
    543000   302.6916      -403.9554       55863.345     -20259.872      3386.205      -16873.667      1.0211966    
    544000   295.14317     -710.70555      55969.052     -20189.401      3301.7608     -16887.641      1.0192679    
    545000   311.60266      706.63484      55712.058     -20284.038      3485.8927     -16798.146      1.0239697    
    546000   305.33364     -432.30532      55745.25      -20395.292      3415.7614     -16979.53       1.02336      
    547000   299.75275     -368.0801       55947.957     -20226.248      3353.328      -16872.92       1.0196522    
    548000   300.46865      174.24522      55482.779     -20213.306      3361.3368     -16851.969      1.0282012    
    549000   298.66885     -11.054448      55557.444     -20343.835      3341.2025     -17002.632      1.0268193    
    550000   301.89411     -647.79163      55367.257     -20268.585      3377.2834     -16891.301      1.0303465    
    551000   300.30528     -177.17431      55422.813     -20322.684      3359.5091     -16963.175      1.0293136    
    552000   300.76963      177.51821      55856.508     -20317.877      3364.7039     -16953.173      1.0213216    
    553000   302.85887     -321.47505      55581.872     -20208.846      3388.0762     -16820.77       1.0263681    
    554000   304.02585     -258.96861      55762.078     -20223.441      3401.1311     -16822.31       1.0230511    
    555000   304.32981      54.431806      56151.259     -20305.086      3404.5315     -16900.555      1.0159604    
    556000   299.40492      133.41149      56123.424     -20270.1        3349.4369     -16920.663      1.0164643    
    557000   291.40149      59.580788      56174.072     -20218.468      3259.9027     -16958.566      1.0155478    
    558000   301.41316      661.4437       55434.045     -20264.084      3371.9031     -16892.181      1.0291051    
    559000   294.92505     -408.25911      55594.228     -20282.77       3299.3206     -16983.449      1.0261399    
    560000   294.78295      108.01715      55707.599     -20179.792      3297.731      -16882.061      1.0240516    
    561000   298.81422     -644.3822       56013.984     -20248.057      3342.8287     -16905.228      1.0184503    
    562000   301.27103     -376.8789       55880.8       -20241.464      3370.313      -16871.151      1.0208776    
    563000   293.25928      322.55474      55649.94      -20226.385      3280.6858     -16945.7        1.0251127    
    564000   301.10538     -90.637186      56203.287     -20188.246      3368.4599     -16819.786      1.01502      
    565000   302.16742     -344.41899      55701.961     -20149.306      3380.3409     -16768.965      1.0241553    
    566000   300.50624      748.99173      55322.636     -20303.862      3361.7574     -16942.105      1.0311775    
    567000   304.30374     -79.937656      55711.27      -20170.973      3404.2399     -16766.734      1.0239841    
    568000   296.87314      420.84557      55436.68      -20378.096      3321.1139     -17056.982      1.0290562    
    569000   300.9248      -178.72017      56002.891     -20360.862      3366.4398     -16994.422      1.018652     
    570000   305.07292     -290.17796      55593.793     -20309.929      3412.8447     -16897.085      1.026148     
    571000   299.26709      157.99759      55401.736     -20333.459      3347.895      -16985.564      1.0297052    
    572000   297.46033     -312.36785      56014.54      -20137.905      3327.6827     -16810.222      1.0184402    
    573000   308.00744      88.802592      55653.529     -20250.158      3445.6731     -16804.485      1.0250465    
    574000   302.72756      227.89215      55853.509     -20156.47       3386.6072     -16769.863      1.0213764    
    575000   297.45376      222.07919      55264.582     -20259.735      3327.6093     -16932.125      1.0322607    
    576000   297.89145      641.51321      55747.516     -20138.254      3332.5057     -16805.748      1.0233184    
    577000   293.1048      -94.880426      55769.087     -20195.036      3278.9576     -16916.079      1.0229226    
    578000   309.20919     -105.13841      55721.552     -20359.99       3459.1171     -16900.873      1.0237952    
    579000   299.69296      450.919        55524.768     -20316.362      3352.6592     -16963.702      1.0274236    
    580000   300.58878      121.87185      55997.16      -20112.486      3362.6807     -16749.805      1.0187563    
    581000   301.47417     -394.21209      55840.433     -20252.926      3372.5855     -16880.34       1.0216156    
    582000   300.83838      292.65223      55979.084     -20249.234      3365.473      -16883.761      1.0190852    
    583000   301.82892     -316.67837      56172.471     -20345.028      3376.5542     -16968.473      1.0155768    
    584000   298.29029      62.579827      55746.859     -20227.254      3336.9675     -16890.287      1.0233304    
    585000   298.21301      184.8058       56089.368     -20268.497      3336.103      -16932.394      1.0170815    
    586000   303.83618     -615.62032      56064.217     -20227.855      3399.0093     -16828.846      1.0175378    
    587000   301.98983     -1253.3679      56270.256     -20114.137      3378.3543     -16735.783      1.0138119    
    588000   299.36127     -173.65563      56391.923     -20236.753      3348.9486     -16887.804      1.0116246    
    589000   301.98933     -168.25443      56134.729     -20254.019      3378.3486     -16875.67       1.0162596    
    590000   292.14705      229.7829       55865.42      -20260.158      3268.2432     -16991.915      1.0211587    
    591000   294.5225      -121.53709      55871.074     -20238.299      3294.8173     -16943.481      1.0210553    
    592000   301.82072      230.66887      55102.702     -20195.424      3376.4624     -16818.962      1.0352933    
    593000   297.69039      218.24457      55640.194     -20233.784      3330.2565     -16903.528      1.0252922    
    594000   295.45183      573.23582      55361.774     -20359.311      3305.2137     -17054.098      1.0304485    
    595000   306.15816     -47.430184      55612.97      -20178.412      3424.9853     -16753.427      1.0257941    
    596000   296.6628      -562.0604       55714.031     -20310.981      3318.7609     -16992.22       1.0239334    
    597000   292.39088     -340.67325      55822.544     -20267.988      3270.9709     -16997.017      1.021943     
    598000   303.03942     -354.51217      55919.622     -20220.409      3390.0959     -16830.313      1.0201689    
    599000   294.53886     -276.12187      55798.639     -20309.433      3295.0004     -17014.433      1.0223808    
    600000   299.64793      124.03875      56357.206     -20299.644      3352.1554     -16947.489      1.0122478    
    600010   297.38411     -317.92281      56356.156     -20252.185      3326.8302     -16925.355      1.0122667    
Loop time of 8553.6 on 4 procs for 300000 steps with 5541 atoms

Performance: 6.061 ns/day, 3.960 hours/ns, 35.073 timesteps/s, 194.339 katom-step/s
309.7% CPU use with 1 MPI tasks x 4 OpenMP threads

MPI task timing breakdown:
Section |  min time  |  avg time  |  max time  |%varavg| %total
---------------------------------------------------------------
Pair    | 198.76     | 198.76     | 198.76     |   0.0 |  2.32
Bond    | 2.8533     | 2.8533     | 2.8533     |   0.0 |  0.03
Kspace  | 3971.2     | 3971.2     | 3971.2     |   0.0 | 46.43
Neigh   | 0.50833    | 0.50833    | 0.50833    |   0.0 |  0.01
Comm    | 90.23      | 90.23      | 90.23      |   0.0 |  1.05
Output  | 1.1189     | 1.1189     | 1.1189     |   0.0 |  0.01
Modify  | 4255.8     | 4255.8     | 4255.8     |   0.0 | 49.75
Other   |            | 33.08      |            |       |  0.39

Nlocal:           5541 ave        5541 max        5541 min
Histogram: 1 0 0 0 0 0 0 0 0 0
Nghost:          34871 ave       34871 max       34871 min
Histogram: 1 0 0 0 0 0 0 0 0 0
Neighs:              0 ave           0 max           0 min
Histogram: 1 0 0 0 0 0 0 0 0 0

Total # of neighbors = 0
Ave neighs/atom = 0
Ave special neighs/atom = 2.4872767
Neighbor list builds = 27920
Dangerous builds = 0

undump npt_traj
undump npt_dcd
unfix mynpt_standard
unfix thermo_avg_npt

write_restart npt_complete.restart
System init for write_restart ...
PPPM initialization ...
  extracting TIP4P info from pair style
  using 12-bit tables for long-range coulomb
  G vector (1/distance) = 0.28765978
  grid = 50 50 50
  stencil order = 5
  estimated absolute RMS force accuracy = 0.00034181119
  estimated relative force accuracy = 1.0293543e-06
  using double precision FFTW3
  3d grid and FFT values/proc = 205379 125000
Generated 0 of 3 mixed pair_coeff terms from geometric mixing rule
write_data npt_complete.data
System init for write_data ...
PPPM initialization ...
  extracting TIP4P info from pair style
  using 12-bit tables for long-range coulomb
  G vector (1/distance) = 0.28765978
  grid = 50 50 50
  stencil order = 5
  estimated absolute RMS force accuracy = 0.00034181119
  estimated relative force accuracy = 1.0293543e-06
  using double precision FFTW3
  3d grid and FFT values/proc = 205379 125000
Generated 0 of 3 mixed pair_coeff terms from geometric mixing rule
WARNING: Not all mixed pair coeffs generated from mixing. Use write_data with 'pair ij' option to store all pair coeffs. (src/write_data.cpp:364)

# CRITICAL: Save NPT checkpoint for production restart capability
write_restart npt_equilibration_complete.restart
System init for write_restart ...
PPPM initialization ...
  extracting TIP4P info from pair style
  using 12-bit tables for long-range coulomb
  G vector (1/distance) = 0.28765978
  grid = 50 50 50
  stencil order = 5
  estimated absolute RMS force accuracy = 0.00034181119
  estimated relative force accuracy = 1.0293543e-06
  using double precision FFTW3
  3d grid and FFT values/proc = 205379 125000
Generated 0 of 3 mixed pair_coeff terms from geometric mixing rule
write_data npt_equilibration_complete.data
System init for write_data ...
PPPM initialization ...
  extracting TIP4P info from pair style
  using 12-bit tables for long-range coulomb
  G vector (1/distance) = 0.28765978
  grid = 50 50 50
  stencil order = 5
  estimated absolute RMS force accuracy = 0.00034181119
  estimated relative force accuracy = 1.0293543e-06
  using double precision FFTW3
  3d grid and FFT values/proc = 205379 125000
Generated 0 of 3 mixed pair_coeff terms from geometric mixing rule
WARNING: Not all mixed pair coeffs generated from mixing. Use write_data with 'pair ij' option to store all pair coeffs. (src/write_data.cpp:364)

variable current_dens equal density
variable current_vol equal vol
variable current_press equal press
variable current_temp equal temp
print ""

print "NPT equilibration complete (1000 ps total):"
NPT equilibration complete (1000 ps total):
print "  Temperature: ${current_temp} K"
  Temperature: 297.384113751276 K
print "  Density:     ${current_dens} g/cmÂ³"
  Density:     1.01226665358108 g/cm³
print "  Pressure:    ${current_press} atm"
  Pressure:    -317.922806557365 atm
print "  Volume:      ${current_vol} Ã…Â³"
  Volume:      56356.156171283 …³
print ""

print "âœ… CHECKPOINT: NPT equilibration complete"
œ… CHECKPOINT: NPT equilibration complete
print "   Files saved:"
   Files saved:
print "     - npt_complete.restart (legacy name)"
     - npt_complete.restart (legacy name)
print "     - npt_equilibration_complete.restart (for production restart)"
     - npt_equilibration_complete.restart (for production restart)
print "     - npt_equilibration_complete.data (structure file)"
     - npt_equilibration_complete.data (structure file)
print "     - npt_equilibration_thermo.dat (thermodynamics)"
     - npt_equilibration_thermo.dat (thermodynamics)
print ""


# Checkpoint: Verify density
if "${current_dens} < 0.85 || ${current_dens} > 1.15" then     "print 'ERROR: Density outside expected range (0.85-1.15 g/cmÂ³)'"     "print 'Current density: ${current_dens} g/cmÂ³'"     "quit 1"

print "âœ“ Density validation PASSED: ${current_dens} g/cmÂ³"
œ“ Density validation PASSED: 1.01226665358108 g/cm³

print ""


# ğŸ”§ CHECKPOINT #4: Final validation before production
variable current_dens equal density
variable current_press equal press
variable current_vol equal vol
variable current_boxsize equal vol^(1.0/3.0)

print ""

print "NPT equilibration complete. FINAL VALIDATION:"
NPT equilibration complete. FINAL VALIDATION:
print "  Density:  ${current_dens} g/cmÂ³"
  Density:  1.01226665358108 g/cm³
print "  Pressure: ${current_press} atm"
  Pressure: -317.922806557365 atm
print "  Volume:   ${current_vol} Ã…Â³"
  Volume:   56356.156171283 …³
print "  Box size: ${current_boxsize} Ã…"
  Box size: 38.3395597247943 …
print ""

print "âœ… CHECKPOINT: NPT equilibration complete (1000 ps)"
œ… CHECKPOINT: NPT equilibration complete (1000 ps)
print "   Creating restart file: npt_equilibration_complete.restart"
   Creating restart file: npt_equilibration_complete.restart
print "   This checkpoint allows restarting from production stage if needed"
   This checkpoint allows restarting from production stage if needed
print ""


# Save NPT checkpoint for production restart capability
write_restart npt_equilibration_complete.restart
System init for write_restart ...
PPPM initialization ...
  extracting TIP4P info from pair style
  using 12-bit tables for long-range coulomb
  G vector (1/distance) = 0.28765978
  grid = 50 50 50
  stencil order = 5
  estimated absolute RMS force accuracy = 0.00034181119
  estimated relative force accuracy = 1.0293543e-06
  using double precision FFTW3
  3d grid and FFT values/proc = 205379 125000
Generated 0 of 3 mixed pair_coeff terms from geometric mixing rule
write_data npt_equilibration_complete.data
System init for write_data ...
PPPM initialization ...
  extracting TIP4P info from pair style
  using 12-bit tables for long-range coulomb
  G vector (1/distance) = 0.28765978
  grid = 50 50 50
  stencil order = 5
  estimated absolute RMS force accuracy = 0.00034181119
  estimated relative force accuracy = 1.0293543e-06
  using double precision FFTW3
  3d grid and FFT values/proc = 205379 125000
Generated 0 of 3 mixed pair_coeff terms from geometric mixing rule
WARNING: Not all mixed pair coeffs generated from mixing. Use write_data with 'pair ij' option to store all pair coeffs. (src/write_data.cpp:364)

print "âœ… NPT checkpoint saved successfully"
œ… NPT checkpoint saved successfully
print "   Files created:"
   Files created:
print "     - npt_equilibration_complete.restart (for continuation)"
     - npt_equilibration_complete.restart (for continuation)
print "     - npt_equilibration_complete.data (structure file)"
     - npt_equilibration_complete.data (structure file)
print ""


if "${current_dens} < 0.80" then     "print 'ğŸ”´ ERROR: Density ${current_dens} g/cmÂ³ is TOO LOW (gas phase)!'"     "print 'Expected: 0.95-1.05 g/cmÂ³ for liquid water'"     "print ''"     "print 'Possible causes:'"     "print '  1. System escaped to gas phase during equilibration'"     "print '  2. PPPM grid artifacts occurred later in simulation'"     "print '  3. Initial system was not properly solvated'"     "quit 1"

if "${current_dens} > 1.20" then     "print 'ğŸ”´ ERROR: Density ${current_dens} g/cmÂ³ is TOO HIGH (over-compressed)!'"     "print 'Expected: 0.95-1.05 g/cmÂ³ for liquid water'"     "print ''"     "print 'Possible causes:'"     "print '  1. Barostat not converging properly'"     "print '  2. System trapped in metastable compressed state'"     "quit 1"

print "âœ… Density validation PASSED: ${current_dens} g/cmÂ³"
œ… Density validation PASSED: 1.01226665358108 g/cm³
print "Current density: ${current_dens} g/cmÂ³"
Current density: 1.01226665358108 g/cm³

#==============================================================================
# STAGE 4: Production MD (4000 ps = 4 ns)
#==============================================================================
print ""

print "===== STAGE 4: Production MD (4000 ps = 4 ns, GPU) ====="
===== STAGE 4: Production MD (4000 ps = 4 ns, GPU) =====
print "Main data collection phase - RDF, MSD, trajectories"
Main data collection phase - RDF, MSD, trajectories
print ""

print "Pressure control strategy:"
Pressure control strategy:
print "  â€¢ Using MTK barostat for better ensemble accuracy"
  €¢ Using MTK barostat for better ensemble accuracy
print "  â€¢ Tdamp = 100 fs (standard for NosÃ©-Hoover)"
  €¢ Tdamp = 100 fs (standard for Nos©-Hoover)
print "  â€¢ Pdamp = 1000 fs (tighter control for stable production)"
  €¢ Pdamp = 1000 fs (tighter control for stable production)
print ""


# Production NPT with MTK barostat and tighter pressure control
# Using smaller pdamp (1000 fs vs 2000 fs) for more stable pressure
# ğŸ”§ CRITICAL: Using npt/gpu instead of npt for FULL GPU acceleration
fix mynpt all npt/gpu temp 300.0 300.0 100.0 iso 1.0 1.0 1000.0 mtk yes

# Main trajectory dump (every 1 ps for analysis)
# Trajectory output (every 1 ps) - using wrapped coordinates for proper visualization
dump prod_traj all custom 1000 production.lammpstrj id type xu yu zu
dump_modify prod_traj sort id

# DCD dump (every 0.5 ps for smooth visualization)
dump prod_dcd all dcd 500 production.dcd
dump_modify prod_dcd unwrap yes

# Detailed thermodynamics (every 1 ps)
fix thermo_avg all ave/time 100 10 1000 v_epsilon_co v_temp v_press v_pe v_ke v_etotal v_vol v_dens     file production_thermo.dat

# Very detailed thermodynamics (every 0.1 ps for fluctuation analysis)
fix thermo_detailed all ave/time 10 10 100 v_temp v_press v_pe v_ke v_vol v_dens     file production_detailed_thermo.dat

# Compute RDFs on-the-fly (C60-water, C60-C60, water-water)
# Syntax: compute ID group-ID rdf Nbin type1 type2 [cutoff]
# Type 1=C, Type 2=O, Type 3=H
compute rdf_CO all rdf 150 1 2  # C-O pairs (C60-water)
compute rdf_CC all rdf 150 1 1  # C-C pairs (C60-C60)
compute rdf_OO all rdf 150 2 2  # O-O pairs (water-water)

# Average RDFs over production run (every 10 ps)
# FIXED: Explicit column indexing (RDF outputs [1]=r, [2]=g(r), [3]=coordination)
fix rdf_CO_avg all ave/time 1000 10 10000 c_rdf_CO[1] c_rdf_CO[2] c_rdf_CO[3] file rdf_CO.dat mode vector
fix rdf_CC_avg all ave/time 1000 10 10000 c_rdf_CC[1] c_rdf_CC[2] c_rdf_CC[3] file rdf_CC.dat mode vector
fix rdf_OO_avg all ave/time 1000 10 10000 c_rdf_OO[1] c_rdf_OO[2] c_rdf_OO[3] file rdf_OO.dat mode vector

# Compute MSD for water oxygen (diffusion analysis)
# Need to use the oxygen group defined earlier
compute msd_water oxygen msd
# MSD compute outputs: [1]=dxÂ², [2]=dyÂ², [3]=dzÂ², [4]=total rÂ²
fix msd_avg all ave/time 100 10 1000 c_msd_water[1] c_msd_water[2] c_msd_water[3] c_msd_water[4] file msd_water.dat

# Dump images every 20 ps for visualization
dump prod_img all image 10000 production_*.ppm type type     axes yes 0.8 0.02 view 60 30 zoom 1.5     box no 0.01 shiny 0.5
dump_modify prod_img pad 6 backcolor white

run 2000000  # 4000 ps = 4 ns at 2 fs timestep
PPPM initialization ...
  extracting TIP4P info from pair style
  using 12-bit tables for long-range coulomb
  G vector (1/distance) = 0.28765978
  grid = 50 50 50
  stencil order = 5
  estimated absolute RMS force accuracy = 0.00034181119
  estimated relative force accuracy = 1.0293543e-06
  using double precision FFTW3
  3d grid and FFT values/proc = 205379 125000
Generated 0 of 3 mixed pair_coeff terms from geometric mixing rule
Neighbor list info ...
  update: every = 1 steps, delay = 5 steps, check = yes
  max neighbors/atom: 2000, page size: 100000
  master list distance cutoff = 14.3092
  ghost atom cutoff = 18
  binsize = 7.1546, bins = 6 6 6
  3 neighbor lists, perpetual/occasional/extra = 0 3 0
  (1) compute rdf, occasional
      attributes: half, newton off
      pair build: half/bin/newtoff
      stencil: full/bin/3d
      bin: standard
  (2) compute rdf, occasional
      attributes: half, newton off
      pair build: half/bin/newtoff
      stencil: full/bin/3d
      bin: standard
  (3) compute rdf, occasional
      attributes: half, newton off
      pair build: half/bin/newtoff
      stencil: full/bin/3d
      bin: standard
Per MPI rank memory allocation (min/avg/max) = 58.9 | 58.9 | 58.9 Mbytes
   Step          Temp          Press          Volume         PotEng         KinEng         TotEng        Density    
    600010   297.38411     -317.75511      56356.156     -20252.172      3326.8302     -16925.342      1.0122667    
    601000   309.27002     -374.5837       55820.772     -20221.039      3459.7976     -16761.241      1.0219754    
    602000   299.64941      246.56893      55307.92      -20186.686      3352.172      -16834.515      1.0314519    
    603000   297.82743     -225.72715      55669.527     -20244.833      3331.7895     -16913.043      1.024752     
    604000   304.33726      696.40267      55271.449     -20379.382      3404.6149     -16974.767      1.0321325    
    605000   301.22923     -1122.8932      55796.833     -20335.4        3369.8454     -16965.555      1.0224139    
    606000   305.48759      403.46996      55622.075     -20345.116      3417.4835     -16927.632      1.0256262    
    607000   299.31725      132.85696      55854.654     -20150.75       3348.4561     -16802.294      1.0213555    
    608000   294.54179      378.52242      55438.284     -20335.565      3295.0331     -17040.532      1.0290264    
    609000   298.85964      295.27145      55823.937     -20211.357      3343.3369     -16868.02       1.0219175    
    610000   300.28824     -181.50159      55777.684     -20267.65       3359.3185     -16908.331      1.0227649    
    611000   302.15265      202.32143      55722.86      -20096.86       3380.1756     -16716.684      1.0237712    
    612000   300.568       -567.47492      55756.434     -20142.527      3362.4482     -16780.078      1.0231547    
    613000   298.01253      267.64507      55842.413     -20376.669      3333.8603     -17042.809      1.0215794    
    614000   292.24399     -271.63018      55594.102     -20113.896      3269.3278     -16844.568      1.0261423    
    615000   298.64348     -147.58643      56247.689     -20259.73       3340.9187     -16918.812      1.0142187    
    616000   291.1546       820.62989      55712.227     -20206.265      3257.1408     -16949.124      1.0239666    
    617000   295.24781      595.06286      56156.481     -20206.462      3302.9313     -16903.53       1.015866     
    618000   298.516       -292.67001      56388.405     -20242.755      3339.4926     -16903.263      1.0116877    
    619000   295.55079      270.15121      55702.83      -20255.711      3306.3208     -16949.39       1.0241393    
    620000   304.20932      367.65938      56137.528     -20204.79       3403.1836     -16801.607      1.0162089    
    621000   301.59051      253.93803      55791.167     -20191.299      3373.8871     -16817.412      1.0225177    
    622000   298.85453     -1159.9903      56344.557     -20312.4        3343.2797     -16969.121      1.012475     
    623000   297.86973     -315.29637      55897.311     -20204.857      3332.2628     -16872.594      1.0205761    
    624000   298.83172      715.22979      55586.278     -20321.403      3343.0245     -16978.379      1.0262867    
    625000   290.21893      355.48494      55800.466     -20264.884      3246.6734     -17018.211      1.0223473    
    626000   302.63122     -319.26066      55660.14      -20312.827      3385.5294     -16927.298      1.0249248    
    627000   294.69593     -5.7383463      55532.136     -20168.447      3296.7576     -16871.69       1.0272873    
    628000   295.03418      15.366688      55879.301     -20254.449      3300.5415     -16953.908      1.020905     
    629000   299.70374     -236.48544      55880.271     -20188.388      3352.7798     -16835.608      1.0208873    
    630000   304.31186      63.467161      56119.246     -20289.638      3404.3307     -16885.307      1.01654      
    631000   298.6326       116.97206      55864.177     -20309.491      3340.797      -16968.694      1.0211814    
    632000   303.54314      363.97218      55516.294     -20267.76       3395.7311     -16872.028      1.0275804    
    633000   301.3922       816.03869      55394.754     -20209.654      3371.6686     -16837.985      1.029835     
    634000   301.33556     -612.56687      55870.139     -20181.463      3371.0349     -16810.429      1.0210724    
    635000   296.09572     -449.27763      55612.52      -20319.5        3312.4169     -17007.083      1.0258024    
    636000   302.12092      175.1098       55611.944     -20292.477      3379.8207     -16912.656      1.025813     
    637000   294.86487      9.9819028      56081.31      -20148.084      3298.6475     -16849.436      1.0172276    
    638000   296.71743     -96.800983      55987.254     -20135.102      3319.372      -16815.73       1.0189365    
    639000   297.54333     -292.53772      55989.582     -20202.977      3328.6113     -16874.366      1.0188941    
    640000   303.02604     -176.87292      55978.168     -20215.686      3389.9463     -16825.74       1.0191019    
    641000   302.20754     -367.49357      55674.272     -20343.439      3380.7897     -16962.649      1.0246646    
    642000   296.16764     -496.97057      55553.83      -20314.72       3313.2215     -17001.499      1.0268861    
    643000   296.86209     -511.87074      55554.382     -20184.865      3320.9903     -16863.875      1.0268759    
    644000   308.03827      74.152597      55336.361     -20185.576      3446.018      -16739.558      1.0309217    
    645000   299.90408      600.90952      55777.273     -20256.427      3355.021      -16901.406      1.0227724    
    646000   301.28346     -108.99626      55681.028     -20110.454      3370.4521     -16740.002      1.0245403    
    647000   298.04688     -187.75823      55254.253     -20263.623      3334.2445     -16929.378      1.0324537    
    648000   293.29572     -168.79573      55837.431     -20241.973      3281.0934     -16960.879      1.0216705    
    649000   305.8999       429.28322      55956.453     -20260.085      3422.0961     -16837.989      1.0194974    
    650000   300.53496      168.57292      55446.567     -20211.704      3362.0786     -16849.626      1.0288727    
    651000   298.35526      455.38211      55231.563     -20302.743      3337.6944     -16965.049      1.0328778    
    652000   298.1125      -238.50491      55878.802     -20294.458      3334.9786     -16959.479      1.0209141    
    653000   301.8232      -8.8163368      55741.808     -20310.334      3376.4901     -16933.844      1.0234232    
    654000   307.19235      461.43878      55733.057     -20325.329      3436.5547     -16888.774      1.0235839    
    655000   292.78844      597.53934      55882.781     -20279.946      3275.4184     -17004.528      1.0208414    
    656000   297.28115     -108.85195      56151.584     -20268.72       3325.6783     -16943.042      1.0159546    
    657000   304.45158      38.900401      55666.022     -20302.67       3405.8938     -16896.777      1.0248165    
    658000   299.25818      345.70873      55559.348     -20189.803      3347.7953     -16842.008      1.0267841    
    659000   305.21331     -459.20245      55779.562     -20208.586      3414.4152     -16794.17       1.0227305    
    660000   303.88344      1719.3518      55935.08      -20187.619      3399.538      -16788.081      1.0198869    
    661000   299.17046      357.32248      55772.207     -20299.054      3346.814      -16952.24       1.0228653    
    662000   294.07064      247.59197      55494.602     -20228.76       3289.7624     -16938.998      1.0279821    
    663000   299.29067     -100.50183      55731.695     -20206.237      3348.1588     -16858.078      1.0236089    
    664000   304.89591      500.63779      55638.855     -20256.346      3410.8645     -16845.481      1.0253169    
    665000   299.31489      258.07957      54804.116     -20222.182      3348.4298     -16873.753      1.0409338    
    666000   298.08338      204.72231      55892.405     -20266.109      3334.6528     -16931.456      1.0206657    
    667000   295.10568     -279.90116      55814.577     -20191.409      3301.3413     -16890.068      1.0220889    
    668000   294.42032     -491.96317      56016.186     -20230.457      3293.6742     -16936.783      1.0184102    
    669000   300.6679      -372.19795      55497.067     -20362.741      3363.5658     -16999.175      1.0279364    
    670000   301.81646      396.47226      55647.573     -20155.209      3376.4147     -16778.794      1.0251563    
    671000   294.38891     -20.207776      55487.807     -20239.458      3293.3229     -16946.135      1.028108     
    672000   293.50206      90.213753      55662.845     -20364.521      3283.4018     -17081.12       1.024875     
    673000   298.18514     -137.31183      56200.89      -20310.255      3335.7913     -16974.464      1.0150632    
    674000   299.48505     -161.91034      55440.279     -20198.428      3350.3333     -16848.095      1.0289894    
    675000   298.13319      340.70119      55774.219     -20153.494      3335.21       -16818.284      1.0228284    
    676000   307.48046      116.1349       55762.881     -20281.161      3439.7778     -16841.383      1.0230364    
    677000   299.59883     -145.46665      56054.199     -20194.072      3351.6062     -16842.466      1.0177196    
    678000   300.48828      1.2168913      56011.274     -20219.776      3361.5565     -16858.22       1.0184995    
    679000   294.65373     -629.12356      56230.438     -20088.116      3296.2854     -16791.831      1.0145298    
    680000   309.77508      1156.1204      55078.97      -20167.395      3465.4477     -16701.948      1.0357394    
    681000   297.28527      50.316835      55949.777     -20115.364      3325.7245     -16789.639      1.019619     
    682000   298.21386     -86.151639      56373.747     -20306.04       3336.1125     -16969.927      1.0119508    
    683000   305.48127      179.38295      55547.044     -20339.544      3417.4128     -16922.131      1.0270116    
    684000   299.76258      496.6781       55968.388     -20335.588      3353.438      -16982.15       1.01928      
    685000   303.81131     -214.83496      55635.608     -20153.179      3398.7311     -16754.447      1.0253767    
    686000   295.86218      687.86745      55470.468     -20287.731      3309.8043     -16977.926      1.0284294    
    687000   291.60787      223.36548      55526.277     -20256.101      3262.2115     -16993.889      1.0273957    
    688000   296.60956     -600.98126      55876.438     -20284.235      3318.1653     -16966.069      1.0209573    
    689000   297.70477      619.64226      55948.27      -20397.363      3330.4173     -17066.946      1.0196465    
    690000   299.28004     -411.12805      56066.051     -20261.439      3348.0398     -16913.399      1.0175045    
    691000   300.23812      145.47611      55931.386     -20242.029      3358.7579     -16883.271      1.0199543    
    692000   305.76945     -349.74713      56088.645     -20280.18       3420.6367     -16859.543      1.0170946    
    693000   301.15251      145.67491      55734.068     -20223.909      3368.9872     -16854.922      1.0235653    
    694000   303.30383     -256.2168       55683.38      -20224.154      3393.0539     -16831.1        1.024497     
    695000   295.78131     -556.80711      55913.421     -20282.775      3308.8997     -16973.875      1.020282     
    696000   298.78456     -1125.5153      56153.497     -20248.026      3342.497      -16905.529      1.0159199    
    697000   301.71595      816.277        55502.012     -20121.978      3375.2903     -16746.687      1.0278449    
    698000   293.12626      178.77245      55619.007     -20295.48       3279.1976     -17016.282      1.0256828    
    699000   293.93537     -299.24074      55980.302     -20259.014      3288.2492     -16970.765      1.0190631    
    700000   300.31411     -40.370998      55417.842     -20301.836      3359.608      -16942.228      1.029406     
    701000   301.78117     -175.67588      55954.418     -20174.521      3376.02       -16798.501      1.0195345    
    702000   295.94638     -599.89817      56507.604     -20196.731      3310.7463     -16885.985      1.0095536    
    703000   302.53462     -270.07262      55752.002     -20263.072      3384.4487     -16878.624      1.023236     
    704000   300.31096      139.95783      55330.849     -20330.009      3359.5727     -16970.437      1.0310244    
    705000   301.90391      230.39709      56180.236     -20250.146      3377.393      -16872.753      1.0154364    
    706000   302.39542      219.98107      55902.218     -20230.792      3382.8915     -16847.901      1.0204865    
    707000   297.67853     -321.46122      55880.147     -20266.371      3330.1238     -16936.247      1.0208895    
    708000   296.60724     -31.198651      55685.933     -20190.708      3318.1393     -16872.568      1.0244501    
    709000   297.83626     -796.4152       55495.515     -20240.039      3331.8884     -16908.151      1.0279652    
    710000   298.07454      210.76267      55201.88      -20291.987      3334.554      -16957.433      1.0334332    
    711000   301.98258      203.15384      56168.686     -20401.84       3378.2731     -17023.567      1.0156452    
    712000   303.77865     -310.94605      55935.267     -20277.654      3398.3657     -16879.288      1.0198835    
    713000   300.23275      623.01862      55662.374     -20275.813      3358.6979     -16917.115      1.0248837    
    714000   302.12442      809.62365      55567.146     -20156.738      3379.8599     -16776.878      1.0266401    
    715000   305.49018      412.13252      55205.051     -20241.565      3417.5126     -16824.052      1.0333739    
    716000   305.12962      195.66118      55742.475     -20214.581      3413.479      -16801.102      1.0234109    
    717000   298.39726     -480.38117      55631.27      -20189.072      3338.1642     -16850.908      1.0254567    
    718000   294.51968      525.82956      55706.085     -20173.909      3294.7858     -16879.123      1.0240795    
    719000   291.22491      95.083411      56040.835     -20189.675      3257.9273     -16931.748      1.0179623    
    720000   291.9132       554.44286      55131.867     -20240.853      3265.6272     -16975.226      1.0347456    
    721000   295.19525      57.68423       55487.544     -20337.648      3302.3434     -17035.305      1.0281129    
    722000   296.77534      118.31042      56248.327     -20119.081      3320.0198     -16799.061      1.0142072    
    723000   298.88246     -385.61561      56003.829     -20354.639      3343.5922     -17011.047      1.018635     
    724000   301.61438     -132.52175      56259.467     -20063.098      3374.1541     -16688.944      1.0140064    
    725000   300.11993     -863.8516       56254.884     -20145.149      3357.4357     -16787.713      1.014089     
    726000   304.056        445.40231      55467.722     -20324.978      3401.4685     -16923.51       1.0284803    
    727000   306.21422      368.45562      55818.912     -20144.387      3425.6124     -16718.774      1.0220095    
    728000   296.11086      330.81816      55529.771     -20216.736      3312.5863     -16904.149      1.0273311    
    729000   301.09146     -41.505204      55333.431     -20232.075      3368.3042     -16863.77       1.0309763    
    730000   301.48819     -23.945382      55541.578     -20116.644      3372.7424     -16743.901      1.0271127    
    731000   299.33714     -1086.3911      55931.015     -20323.715      3348.6786     -16975.036      1.0199611    
    732000   293.17291      85.501248      56317.258     -20301.241      3279.7196     -17021.521      1.0129658    
    733000   301.25569      32.724987      55883.781     -20315.064      3370.1415     -16944.922      1.0208232    
    734000   292.67886      36.389073      55951.35      -20334.177      3274.1926     -17059.984      1.0195904    
    735000   305.53899     -181.09198      55582.887     -20158.359      3418.0586     -16740.301      1.0263493    
    736000   295.45424      327.49437      55410.298     -20283.738      3305.2407     -16978.497      1.0295461    
    737000   306.7473       786.30884      55655.333     -20342.086      3431.576      -16910.51       1.0250133    
    738000   306.37265     -216.30012      56217.334     -20227.824      3427.3848     -16800.44       1.0147663    
    739000   305.608        1135.3486      55797.435     -20239.627      3418.8306     -16820.797      1.0224029    
    740000   303.81892      1073.5009      55882.133     -20183.942      3398.8162     -16785.125      1.0208533    
    741000   304.13589     -236.41707      55920.494     -20294.383      3402.3621     -16892.021      1.020153     
    742000   304.04533     -857.50814      55688.692     -20234.838      3401.349      -16833.489      1.0243993    
    743000   299.38406     -85.415764      56043.371     -20224.067      3349.2036     -16874.864      1.0179162    
    744000   297.58595     -686.35098      55921.939     -20285.645      3329.0881     -16956.556      1.0201266    
    745000   300.41369      216.72556      55596.707     -20244.92       3360.7219     -16884.198      1.0260942    
    746000   299.27626     -89.194648      55428.057     -20266.425      3347.9976     -16918.427      1.0292163    
    747000   296.70442      319.16919      55660.419     -20237.743      3319.2265     -16918.517      1.0249197    
    748000   298.58833     -72.095591      55901.777     -20277.981      3340.3017     -16937.679      1.0204945    
    749000   300.29814      64.964982      55460.583     -20261.785      3359.4293     -16902.356      1.0286127    
    750000   297.93016      12.228263      56045.393     -20306.258      3332.9387     -16973.319      1.0178795    
    751000   297.97396      102.53558      55361.666     -20261.977      3333.4288     -16928.548      1.0304505    
    752000   305.22715     -219.71826      55778.734     -20313.957      3414.5701     -16899.387      1.0227456    
    753000   298.72009      132.68419      55912.801     -20330.031      3341.7757     -16988.256      1.0202933    
    754000   302.45919      491.18419      55743.829     -20253.62       3383.6049     -16870.015      1.0233861    
    755000   302.71182      40.430351      56056.878     -20346.758      3386.4311     -16960.327      1.017671     
    756000   304.07694     -166.42549      55773.305     -20159.452      3401.7027     -16757.75       1.0228452    
    757000   308.65909     -244.02336      55542.753     -20145.626      3452.9631     -16692.663      1.0270909    
    758000   301.08662      200.13532      56153.117     -20146.502      3368.25       -16778.252      1.0159268    
    759000   301.85826      177.00954      55680.969     -20244.438      3376.8823     -16867.556      1.0245414    
    760000   300.72261     -232.68853      56077.882     -20118.889      3364.1779     -16754.711      1.0172898    
    761000   303.71755     -616.90637      55781.138     -20312.069      3397.6822     -16914.387      1.0227016    
    762000   303.06426     -726.4822       55620.56      -20237.544      3390.3738     -16847.17       1.0256541    
    763000   296.8416      -423.87898      55663.46      -20339.834      3320.7611     -17019.072      1.0248637    
    764000   303.46431      191.97725      55968.765     -20324.7        3394.8492     -16929.851      1.0192731    
    765000   296.58472      261.04441      55875.632     -20247.95       3317.8874     -16930.063      1.020972     
    766000   306.59687     -575.51377      55539.089     -20164.401      3429.893      -16734.508      1.0271587    
    767000   305.94381     -630.17172      56233.39      -20298.599      3422.5873     -16876.012      1.0144766    
    768000   302.41264      17.253755      55503.701     -20322.79       3383.0842     -16939.706      1.0278136    
    769000   302.72046      764.03868      56380.502     -20116.969      3386.5278     -16730.441      1.0118295    
    770000   299.59067     -43.247138      55630.905     -20273.379      3351.5149     -16921.864      1.0254634    
    771000   297.25067     -180.22386      55667.075     -20048.473      3325.3373     -16723.135      1.0247971    
    772000   295.73757      422.30919      54963.206     -20324.316      3308.4103     -17015.906      1.0379209    
    773000   300.76051     -216.92031      55458.004     -20149.493      3364.6019     -16784.891      1.0286605    
    774000   296.32709      1182.0034      55451.095     -20181.717      3315.0053     -16866.712      1.0287886    
    775000   300.556        608.64293      55313.788     -20147.412      3362.314      -16785.098      1.0313425    
    776000   301.30915     -1333.4553      56614.886     -20008.715      3370.7395     -16637.976      1.0076406    
    777000   292.87054     -401.38833      55916.192     -20279.464      3276.3369     -17003.127      1.0202315    
    778000   303.81785      205.79315      55896.397     -20221.054      3398.8042     -16822.25       1.0205928    
    779000   302.09781      179.0802       55830.441     -20147.831      3379.5622     -16768.269      1.0217984    
    780000   297.52745      800.75416      55812.788     -20288.876      3328.4337     -16960.442      1.0221216    
    781000   305.20435      203.07538      56184.536     -20287.537      3414.315      -16873.222      1.0153587    
    782000   298.19873     -38.499379      56148.616     -20295.805      3335.9433     -16959.861      1.0160083    
    783000   292.90222      527.20878      55935.548     -20211.075      3276.6913     -16934.383      1.0198784    
    784000   294.70219     -890.33874      56427.625     -20043.457      3296.8275     -16746.63       1.0109846    
    785000   298.78686      528.54847      55917.696     -20201.215      3342.5227     -16858.692      1.020204     
    786000   298.93835      390.51442      55056.653     -20231.204      3344.2174     -16886.987      1.0361592    
    787000   297.44199     -30.399169      55794.693     -20114.471      3327.4777     -16786.994      1.0224531    
    788000   296.73772     -293.00408      55653.483     -20164.047      3319.599      -16844.448      1.0250474    
    789000   303.1282       228.75243      56349.403     -20117.258      3391.0892     -16726.169      1.012388     
    790000   296.13523     -228.95376      55850.19      -20246.702      3312.8589     -16933.843      1.0214371    
    791000   305.18408      740.88748      56390.238     -20261.792      3414.0883     -16847.704      1.0116549    
    792000   295.19409      215.32029      55836.836     -20304.181      3302.3304     -17001.851      1.0216814    
    793000   302.73677      19.116394      55620.555     -20326.058      3386.7102     -16939.347      1.0256542    
    794000   301.07634     -537.75841      56397.647     -20344.482      3368.135      -16976.347      1.011522     
    795000   303.08221     -296.62676      55823.934     -20130.522      3390.5747     -16739.947      1.0219175    
    796000   299.35547     -134.88499      56361.012     -20340.096      3348.8837     -16991.213      1.0121794    
    797000   305.94281     -128.31009      55361.599     -20401.692      3422.5761     -16979.116      1.0304518    
    798000   293.74263      423.83828      55782.371     -20175.73       3286.093      -16889.637      1.022679     
    799000   296.61395     -920.50151      55452.645     -20275.562      3318.2144     -16957.348      1.0287599    
    800000   300.29389      1.1451129      55787.986     -20178.218      3359.3817     -16818.836      1.022576     
    801000   303.6719      -482.55093      55682.948     -20287.868      3397.1715     -16890.696      1.024505     
    802000   293.97837     -188.74869      56087.784     -20233.171      3288.7302     -16944.441      1.0171102    
    803000   305.14651      366.947        55365.598     -20234.913      3413.6679     -16821.245      1.0303773    
    804000   297.09198      551.60951      55682.601     -20236.611      3323.562      -16913.049      1.0245114    
    805000   295.78702      62.754826      56039.727     -20266.753      3308.9635     -16957.79       1.0179824    
    806000   295.1473      -224.92633      55772.922     -20217.053      3301.807      -16915.246      1.0228522    
    807000   304.06716      95.851049      55382.438     -20043.66       3401.5933     -16642.066      1.030064     
    808000   303.54848      131.11777      55295.855     -20117.845      3395.7908     -16722.054      1.0316769    
    809000   297.66116     -490.60147      55415.376     -20257.762      3329.9295     -16927.833      1.0294518    
    810000   305.5738       438.17295      55446.172     -20248.916      3418.448      -16830.468      1.02888      
    811000   299.59248      725.9763       55588.416     -20180.367      3351.5351     -16828.832      1.0262472    
    812000   305.6348      -478.41104      56428.569     -20292.374      3419.1304     -16873.243      1.0109676    
    813000   302.74827      604.59824      55520.821     -20179.904      3386.8389     -16793.065      1.0274966    
    814000   297.87585      912.27761      55141.975     -20233.242      3332.3312     -16900.911      1.0345559    
    815000   299.28657      251.32558      55293.249     -20233.867      3348.1129     -16885.754      1.0317255    
    816000   294.42216      264.8598       55376.042     -20290.081      3293.6949     -16996.386      1.030183     
    817000   300.69829     -385.49851      56105.311     -20329.784      3363.9058     -16965.878      1.0167925    
    818000   300.12745     -583.09406      56374.069     -20220.359      3357.5199     -16862.839      1.011945     
    819000   299.19691      2.7348121      56345.197     -20226.466      3347.1099     -16879.356      1.0124635    
    820000   299.29384     -4.082206       55419.429     -20235.232      3348.1943     -16887.038      1.0293765    
    821000   298.50139     -54.36513       55963.428     -20193.445      3339.3291     -16854.116      1.0193703    
    822000   302.80947      497.93493      55632.965     -20321.041      3387.5235     -16933.517      1.0254254    
    823000   301.36661     -244.38892      55649.451     -20163.956      3371.3822     -16792.574      1.0251217    
    824000   305.31081      233.83904      55916.635     -20294.179      3415.506      -16878.673      1.0202234    
    825000   301.01791     -527.36195      56067.697     -20289.549      3367.4813     -16922.067      1.0174746    
    826000   300.20393     -68.470768      56119.802     -20201.949      3358.3754     -16843.573      1.0165299    
    827000   298.00798     -243.14196      55388.903     -20179.79       3333.8094     -16845.981      1.0299438    
    828000   301.67002     -1191.6197      55084.487     -20442.435      3374.7765     -17067.658      1.0356356    
    829000   304.0329       540.71064      55797.064     -20192.032      3401.21       -16790.822      1.0224097    
    830000   301.78728     -337.988        56072.66      -20187.665      3376.0883     -16811.577      1.0173845    
    831000   299.70111     -73.935852      55189.362     -20186.841      3352.7503     -16834.091      1.0336676    
    832000   295.57255      984.47345      56107.634     -20232.834      3306.5643     -16926.269      1.0167504    
    833000   300.21633      466.66429      56320.648     -20314.538      3358.5141     -16956.024      1.0129048    
    834000   304.99007     -394.4143       55978.109     -20252.521      3411.9178     -16840.603      1.019103     
    835000   308.10531      224.224        56003.687     -20179.968      3446.7679     -16733.201      1.0186375    
    836000   299.21343     -323.17848      55978.931     -20290.355      3347.2947     -16943.06       1.019088     
    837000   296.64718      80.021511      55836.421     -20400.349      3318.5861     -17081.763      1.021689     
    838000   296.62245      143.66918      55811.808     -20236.642      3318.3094     -16918.333      1.0221396    
    839000   297.57552     -4.6910663      55660.198     -20212.763      3328.9715     -16883.792      1.0249237    
    840000   297.09267     -137.3275       55970.912     -20230.468      3323.5698     -16906.898      1.019234     
    841000   297.02281      142.55833      55247.291     -20264.864      3322.7882     -16942.075      1.0325838    
    842000   302.13416     -413.68763      56383.744     -20182.885      3379.9688     -16802.916      1.0117714    
    843000   301.5554       338.7428       55801.311     -20287.43       3373.4942     -16913.936      1.0223319    
    844000   303.43421     -358.47297      56183.688     -20201.161      3394.5125     -16806.649      1.015374     
    845000   297.18345      889.99964      55741.047     -20240.409      3324.5853     -16915.823      1.0234371    
    846000   304.26164     -491.22404      55870.327     -20153.21       3403.7689     -16749.441      1.021069     
    847000   295.14304     -332.78298      55749.389     -20226.679      3301.7593     -16924.919      1.023284     
    848000   299.04079     -100.55641      55953.633     -20214.061      3345.3633     -16868.698      1.0195488    
    849000   296.99328     -137.74823      56318.429     -20074.999      3322.4579     -16752.541      1.0129448    
    850000   296.21113     -611.22451      55968.54      -20190.163      3313.7081     -16876.455      1.0192772    
    851000   308.04569      292.69253      55877.185     -20186.825      3446.101      -16740.724      1.0209437    
    852000   299.28948     -481.5004       55992.728     -20183.174      3348.1455     -16835.028      1.0188369    
    853000   296.06135      674.76645      55973.592     -20276.51       3312.0324     -16964.478      1.0191852    
    854000   304.08971     -288.79287      56122.991     -20199.839      3401.8455     -16797.993      1.0164721    
    855000   292.78197      84.843019      56293.157     -20106.806      3275.3461     -16831.46       1.0133995    
    856000   299.10413      1056.9906      55597.172     -20117.134      3346.0719     -16771.062      1.0260856    
    857000   303.68019      138.34943      55896.552     -20195.864      3397.2642     -16798.6        1.0205899    
    858000   299.08427     -458.44504      56392.989     -20237.905      3345.8497     -16892.055      1.0116055    
    859000   306.58231      89.30436       55713.35      -20231.055      3429.7302     -16801.325      1.0239459    
    860000   300.14802      155.32174      55142.084     -20180.945      3357.7499     -16823.195      1.0345539    
    861000   303.32517      793.75175      55501.178     -20250.094      3393.2927     -16856.801      1.0278603    
    862000   298.21411     -346.80088      55524.478     -20221.6        3336.1153     -16885.485      1.027429     
    863000   298.3234       173.37907      55704.714     -20326.27       3337.338      -16988.932      1.0241047    
    864000   299.71789     -295.67777      55917.22      -20263.386      3352.9381     -16910.447      1.0202127    
    865000   297.33645     -521.39802      56443.964     -20262.546      3326.297      -16936.249      1.0106919    
    866000   295.25544      630.02169      55348.248     -20205.247      3303.0168     -16902.23       1.0307003    
    867000   306.79864     -508.23255      56094.159     -20240.049      3432.1503     -16807.898      1.0169946    
    868000   310.90894      844.14201      55791.106     -20314.253      3478.1321     -16836.121      1.0225189    
    869000   303.49203      179.45533      55306.051     -20387.467      3395.1593     -16992.307      1.0314867    
    870000   301.6331      -306.15368      55975.503     -20240.686      3374.3635     -16866.322      1.0191504    
    871000   296.58033      14.266767      56021.383     -20122.667      3317.8383     -16804.829      1.0183158    
    872000   295.49645      510.25345      55670.245     -20387.575      3305.7129     -17081.862      1.0247388    
    873000   300.57522      1054.8519      55716.03      -20160.251      3362.529      -16797.722      1.0238967    
    874000   296.18577      333.76818      55406.206     -20193.724      3313.4243     -16880.299      1.0296222    
    875000   299.64193      460.37481      56424.415     -20214.683      3352.0883     -16862.594      1.0110421    
    876000   300.36888     -56.184233      56086.426     -20236.394      3360.2207     -16876.174      1.0171348    
    877000   301.09157     -333.51796      55982.447     -20221.655      3368.3054     -16853.349      1.019024     
    878000   296.73528     -452.46155      55641.188     -20285.621      3319.5717     -16966.049      1.0252739    
    879000   300.62593     -135.61105      55634.291     -20294.364      3363.0963     -16931.267      1.025401     
    880000   302.0636       40.470954      55263.511     -20183.448      3379.1795     -16804.269      1.0322807    
    881000   300.3154       298.73872      55695.944     -20410.904      3359.6224     -17051.281      1.0242659    
    882000   303.65057      1366.8247      55068.239     -20202.837      3396.9329     -16805.904      1.0359412    
    883000   302.42461      316.92812      56593.45      -20234.104      3383.2181     -16850.886      1.0080223    
    884000   297.55277     -137.05285      55741.145     -20242.965      3328.7169     -16914.248      1.0234353    
    885000   300.5193      -343.05524      55743.262     -20320.001      3361.9035     -16958.097      1.0233965    
    886000   300.42142      369.97375      56000.084     -20262.64       3360.8085     -16901.832      1.0187031    
    887000   302.87865     -134.175        55517.304     -20416.625      3388.2974     -17028.328      1.0275617    
    888000   301.52154     -402.89097      55986.872     -20208.957      3373.1155     -16835.841      1.0189435    
    889000   297.31965     -154.42374      56081.172     -20213.775      3326.1091     -16887.666      1.0172301    
    890000   295.41986      381.03509      56218.337     -20179.197      3304.8561     -16874.341      1.0147482    
    891000   300.57237     -356.49313      55844.673     -20254          3362.4971     -16891.503      1.021538     
    892000   296.87543     -60.066302      55877.793     -20175.013      3321.1395     -16853.873      1.0209325    
    893000   306.61097      270.63377      55862.86      -20247.081      3430.0509     -16817.03       1.0212055    
    894000   299.17014     -559.25417      56070.161     -20209.938      3346.8104     -16863.127      1.0174299    
    895000   293.80967     -340.10759      55530.159     -20207.302      3286.8429     -16920.46       1.0273239    
    896000   301.98232      346.97431      55363.39      -20287.036      3378.2702     -16908.765      1.0304184    
    897000   298.9864      -194.08192      55538.278     -20215.485      3344.755      -16870.73       1.0271737    
    898000   298.31697     -266.44394      55036.9       -20172.563      3337.266      -16835.297      1.0365311    
    899000   296.47964      153.90411      55830.853     -20181.207      3316.7118     -16864.495      1.0217909    
    900000   306.34952      346.36879      55813.173     -20181.548      3427.126      -16754.422      1.0221146    
    901000   299.06066      25.07873       55459.082     -20393.223      3345.5856     -17047.637      1.0286405    
    902000   296.69609     -706.31738      56022.594     -20272.764      3319.1333     -16953.63       1.0182938    
    903000   298.86632     -127.48955      56067.864     -20245.222      3343.4116     -16901.81       1.0174716    
    904000   303.22767     -111.62685      55906.95      -20251.991      3392.2019     -16859.789      1.0204001    
    905000   295.3128       888.89026      55486.75      -20374.852      3303.6584     -17071.193      1.0281276    
    906000   300.87512     -289.60134      56585.017     -20172.324      3365.884      -16806.44       1.0081725    
    907000   295.62972     -412.54533      56070.154     -20268.41       3307.2038     -16961.206      1.01743      
    908000   297.61722     -568.65792      55839.459     -20211.226      3329.4379     -16881.788      1.0216334    
    909000   303.24802     -81.14483       56257.627     -20236.731      3392.4296     -16844.302      1.0140395    
    910000   303.58702      844.42175      55957.263     -20301.556      3396.222      -16905.334      1.0194826    
    911000   302.68017     -388.81742      55833.415     -20257.301      3386.0771     -16871.224      1.021744     
    912000   298.95365     -66.380588      56134.304     -20317.477      3344.3885     -16973.089      1.0162673    
    913000   306.36104     -636.96749      55973.41      -20366.831      3427.2549     -16939.576      1.0191885    
    914000   300.21629      919.15669      55620.078     -20198.055      3358.5137     -16839.541      1.025663     
    915000   297.26219     -141.03338      55358.322     -20295.642      3325.4662     -16970.176      1.0305128    
    916000   295.67114     -35.836479      55329.946     -20243.965      3307.6672     -16936.298      1.0310413    
    917000   303.76246     -624.58878      56159.292     -20168.759      3398.1846     -16770.575      1.0158151    
    918000   296.35304      238.6217       55253.18      -20182.135      3315.2956     -16866.839      1.0324737    
    919000   296.4989      -343.39371      56036.774     -20228.543      3316.9272     -16911.616      1.0180361    
    920000   296.05393      689.32228      54980.481     -20202.97       3311.9494     -16891.02       1.0375947    
    921000   302.0829      -699.17841      56015.572     -20298.67       3379.3954     -16919.274      1.0184214    
    922000   295.34266      435.13496      55730.631     -20268.192      3303.9924     -16964.2        1.0236284    
    923000   303.90525      106.63222      55716.861     -20296.02       3399.782      -16896.238      1.0238814    
    924000   298.08724      170.96758      55931.312     -20257.37       3334.6961     -16922.674      1.0199556    
    925000   300.86063      560.76903      55543.839     -20266.595      3365.7219     -16900.873      1.0270708    
    926000   298.56914      10.789915      56105.671     -20263.388      3340.087      -16923.301      1.0167859    
    927000   305.44955     -166.66336      55746.833     -20245.693      3417.0581     -16828.635      1.0233309    
    928000   300.11776     -114.01552      55815.976     -20257.363      3357.4114     -16899.952      1.0220633    
    929000   297.80377      795.75072      55217.165     -20238.616      3331.5249     -16907.092      1.0331472    
    930000   301.93056     -306.85022      55923.629     -20204.132      3377.6912     -16826.441      1.0200958    
    931000   296.54191      65.202372      56117.366     -20182.945      3317.4084     -16865.536      1.016574     
    932000   298.36623      179.96413      56073.65      -20391.541      3337.8171     -17053.724      1.0173666    
    933000   305.93727      274.84125      55286.122     -20115.54       3422.5142     -16693.026      1.0318586    
    934000   300.11403      637.69224      56116.673     -20189.578      3357.3697     -16832.208      1.0165866    
    935000   298.11552     -135.7001       56088.708     -20181.777      3335.0124     -16846.764      1.0170935    
    936000   305.18987      640.80498      55430.806     -20321.797      3414.153      -16907.644      1.0291652    
    937000   297.86975     -66.318928      55452.056     -20257.388      3332.263      -16925.125      1.0287708    
    938000   296.89474     -205.15261      55556.735     -20275.788      3321.3555     -16954.433      1.0268324    
    939000   300.19495      348.2222       55798.586     -20231.021      3358.275      -16872.746      1.0223818    
    940000   301.51465     -546.3868       55879.689     -20193.073      3373.0384     -16820.034      1.0208979    
    941000   296.90117      61.577519      55825.479     -20283.929      3321.4275     -16962.502      1.0218893    
    942000   297.4808       22.895027      55556.204     -20430.687      3327.9118     -17102.775      1.0268423    
    943000   297.67238     -126.13186      55432.021     -20209.217      3330.055      -16879.162      1.0291427    
    944000   308.07693      403.1604       56114.345     -20258.21       3446.4505     -16811.759      1.0166288    
    945000   297.68343      137.55356      55629.227     -20209.421      3330.1787     -16879.242      1.0254944    
    946000   299.08514     -860.15567      55880.094     -20245.352      3345.8595     -16899.492      1.0208905    
    947000   298.68551     -335.32993      55686.807     -20238.137      3341.3889     -16896.748      1.024434     
    948000   300.34514      1041.2539      55768.004     -20104.595      3359.9551     -16744.64       1.0229424    
    949000   302.38892     -488.75059      55346.075     -20283.462      3382.8188     -16900.643      1.0307408    
    950000   303.02441     -480.61101      55332.822     -20288.21       3389.9281     -16898.282      1.0309877    
    951000   298.10912     -457.38379      55837.848     -20198.771      3334.9408     -16863.83       1.0216629    
    952000   300.55701     -191.67439      55654.878     -20311.886      3362.3253     -16949.56       1.0250217    
    953000   296.46303      193.24         56077.693     -20202.387      3316.526      -16885.861      1.0172932    
    954000   290.68945     -793.56114      56408.508     -20114.269      3251.9371     -16862.332      1.0113272    
    955000   299.2571      -1198.7282      56249.234     -20278.243      3347.7832     -16930.46       1.0141908    
    956000   302.10207     -150.39031      55774.17      -20260.587      3379.6098     -16880.977      1.0228293    
    957000   295.23718      802.22386      55643.33      -20269.438      3302.8125     -16966.626      1.0252344    
    958000   300.032       -366.73909      55440.865     -20256.358      3356.452      -16899.906      1.0289785    
    959000   301.54863     -897.72582      56197.59      -20176.842      3373.4185     -16803.424      1.0151228    
    960000   296.67188      679.92752      55766.392     -20200.858      3318.8625     -16881.996      1.022972     
    961000   304.91394      217.62253      55815.954     -20168.207      3411.0662     -16757.141      1.0220637    
    962000   304.45213     -51.422816      55337.98      -20268.954      3405.8999     -16863.054      1.0308916    
    963000   295.74019      508.75073      55326.704     -20260.719      3308.4396     -16952.279      1.0311017    
    964000   301.69727     -355.05756      56250.487     -20304.319      3375.0814     -16929.238      1.0141682    
    965000   305.41552      226.67651      55687.437     -20208.444      3416.6774     -16791.767      1.0244224    
    966000   302.21206      480.39753      55720.493     -20245.624      3380.8404     -16864.784      1.0238147    
    967000   294.4061       60.075011      55804.302     -20271.969      3293.5152     -16978.453      1.0222771    
    968000   300.35095     -566.35571      56134.234     -20344.202      3360.0201     -16984.182      1.0162686    
    969000   302.94478     -188.04217      55625.113     -20225.084      3389.0372     -16836.047      1.0255702    
    970000   298.60607     -100.25503      56018.212     -20180.333      3340.5002     -16839.833      1.0183734    
    971000   298.51392      284.61441      55718.321     -20266.151      3339.4693     -16926.682      1.0238546    
    972000   294.41852      364.02516      55431.081     -20324.018      3293.6542     -17030.364      1.0291601    
    973000   297.31942     -128.37537      55321.016     -20319.945      3326.1065     -16993.839      1.0312077    
    974000   293.65419     -71.777248      55855.11      -20296.449      3285.1036     -17011.346      1.0213471    
    975000   301.17212      58.607829      55811.276     -20289.149      3369.2065     -16919.943      1.0221493    
    976000   298.90992      516.46402      55709         -20350.782      3343.8994     -17006.883      1.0240259    
    977000   309.34505     -171.9978       55634.343     -20186.57       3460.637      -16725.934      1.0254       
    978000   299.68793      283.75125      55879.976     -20243.941      3352.6029     -16891.338      1.0208927    
    979000   299.00495      343.83916      55758.367     -20277.166      3344.9624     -16932.204      1.0231192    
    980000   296.68535     -2.0650471      55943.262     -20250.787      3319.0131     -16931.773      1.0197378    
    981000   297.73996      58.396949      55594.72      -20165.212      3330.811      -16834.401      1.0261309    
    982000   303.87048      522.30731      55667.819     -20297.83       3399.393      -16898.437      1.0247834    
    983000   302.31748      141.457        55643.181     -20248.653      3382.0196     -16866.633      1.0252372    
    984000   311.42742      262.86698      55903.503     -20214.505      3483.9323     -16730.573      1.020463     
    985000   301.47681      111.56972      56078.995     -20101.445      3372.6151     -16728.83       1.0172696    
    986000   298.66118     -622.69434      56199.722     -20392.756      3341.1167     -17051.639      1.0150843    
    987000   297.58203      464.08562      55494.339     -20285.638      3329.0443     -16956.593      1.027987     
    988000   299.37308      631.33278      55873.197     -20265.244      3349.0807     -16916.164      1.0210165    
    989000   293.60576      1570.572       55863.888     -20292.097      3284.5618     -17007.535      1.0211867    
    990000   298.99509     -150.52713      56097.77      -20210.857      3344.8522     -16866.005      1.0169291    
    991000   297.0396      -215.16198      55371.134     -20250.949      3322.9761     -16927.973      1.0302743    
    992000   297.51998      579.26295      55273.605     -20313.126      3328.3501     -16984.775      1.0320922    
    993000   303.08496     -365.68289      56565.135     -20269.416      3390.6054     -16878.811      1.0085269    
    994000   305.12515      4.4129104      56027.963     -20172.91       3413.429      -16759.481      1.0181962    
    995000   303.36632     -628.92957      56074.975     -20277.917      3393.753      -16884.164      1.0173425    
    996000   286.96238     -181.28793      56193.595     -20207.201      3210.2424     -16996.959      1.015195     
    997000   300.35573      238.45135      55642.442     -20291.078      3360.0735     -16931.004      1.0252508    
    998000   299.63357     -281.54969      55526.386     -20224.251      3351.9948     -16872.256      1.0273937    
    999000   298.11177      253.31414      55800.759     -20096.259      3334.9705     -16761.288      1.022342     
   1000000   296.9728      -44.823293      56072.728     -20138.005      3322.2288     -16815.776      1.0173833    
   1001000   302.15991     -34.710798      56066.487     -20213.907      3380.2569     -16833.65       1.0174966    
   1002000   295.60895      202.83686      55888.204     -20288.307      3306.9714     -16981.336      1.0207424    
   1003000   298.05367      27.091315      56265.083     -20307.845      3334.3205     -16973.525      1.0139051    
   1004000   298.12238      26.984854      55332.142     -20278.963      3335.0891     -16943.874      1.0310004    
   1005000   303.99547     -138.45788      55363.748     -20253.079      3400.7913     -16852.288      1.0304118    
   1006000   305.54886     -306.40788      56063.627     -20218.881      3418.169      -16800.712      1.0175485    
   1007000   299.97146      108.21167      55760.471     -20256.048      3355.7748     -16900.273      1.0230806    
   1008000   303.17906     -261.83685      56100.034     -20184.641      3391.6581     -16792.983      1.0168881    
   1009000   297.13432      694.60481      56024.354     -20220.968      3324.0358     -16896.932      1.0182618    
   1010000   303.42336     -868.46179      55739.328     -20398.649      3394.391      -17004.257      1.0234687    
   1011000   299.92311     -72.248561      55502.356     -20251.066      3355.2338     -16895.832      1.0278385    
   1012000   301.5375       443.5673       55244.195     -20185.196      3373.294      -16811.902      1.0326417    
   1013000   292.61092      462.73956      55686.401     -20237.029      3273.4326     -16963.596      1.0244415    
   1014000   299.81955      324.6273       55340.668     -20180.738      3354.0753     -16826.663      1.0308415    
   1015000   307.29982     -670.86241      55646.643     -20310.289      3437.757      -16872.532      1.0251734    
   1016000   293.19977      577.21918      55071.718     -20346.775      3280.02       -17066.755      1.0358758    
   1017000   303.72092      700.05061      55408.184     -20326.378      3397.7199     -16928.658      1.0295854    
   1018000   301.20869      23.264607      55795.644     -20280.359      3369.6156     -16910.743      1.0224357    
   1019000   301.56371     -633.46941      55814.038     -20225.662      3373.5872     -16852.074      1.0220987    
   1020000   297.72836      489.31374      55436.385     -20162.508      3330.6813     -16831.827      1.0290616    
   1021000   292.87078     -233.04015      56209.876     -20172.175      3276.3396     -16895.836      1.014901     
   1022000   302.94264     -190.64341      55856.475     -20127.78       3389.0133     -16738.766      1.0213222    
   1023000   302.82639      172.44956      55303.491     -20201.882      3387.7128     -16814.169      1.0315345    
   1024000   302.713       -346.8757       56136.045     -20172.782      3386.4443     -16786.337      1.0162358    
   1025000   304.81986     -412.36173      56379.844     -20315.527      3410.0137     -16905.513      1.0118414    
   1026000   300.5324      -458.3418       55918.854     -20167.447      3362.05       -16805.397      1.0201829    
   1027000   300.65279     -173.50816      56366.655     -20330.298      3363.3968     -16966.901      1.0120781    
   1028000   300.37263      65.154248      56741.311     -20078.975      3360.2627     -16718.713      1.0053955    
   1029000   301.74108     -203.63183      56246.983     -20201.805      3375.5714     -16826.233      1.0142314    
   1030000   293.86016      428.08859      55902.888     -20159.486      3287.4078     -16872.078      1.0204743    
   1031000   304.64162      66.327673      55354.343     -20400.566      3408.0198     -16992.547      1.0305869    
   1032000   304.86197      231.64543      55778.374     -20298.554      3410.4848     -16888.069      1.0227523    
   1033000   298.56992     -124.68416      55398.077     -20390.071      3340.0958     -17049.975      1.0297732    
   1034000   297.70592     -747.18824      55410.966     -20301.167      3330.4302     -16970.736      1.0295337    
   1035000   295.67316     -106.98312      55370.948     -20070.818      3307.6898     -16763.128      1.0302778    
   1036000   299.7468       424.71402      55914.541     -20229.689      3353.2615     -16876.427      1.0202616    
   1037000   300.67879     -174.63608      55790.634     -20356.51       3363.6876     -16992.823      1.0225275    
   1038000   308.07213     -550.24109      55959.656     -20372.012      3446.3968     -16925.616      1.019439     
   1039000   305.1218       472.35321      55294.537     -20344.559      3413.3915     -16931.168      1.0317015    
   1040000   294.24919      428.43555      55816.593     -20274.466      3291.7598     -16982.706      1.022052     
   1041000   303.67032      179.94294      56204.593     -20327.022      3397.1539     -16929.868      1.0149964    
   1042000   294.30229      213.34684      55721.418     -20287.865      3292.3538     -16995.511      1.0237977    
   1043000   301.0892      -94.860384      55554.072     -20282.86       3368.2789     -16914.581      1.0268817    
   1044000   302.22741      551.90807      56099.853     -20238.309      3381.0121     -16857.296      1.0168914    
   1045000   293.93304     -300.39209      55922.948     -20102.474      3288.223      -16814.251      1.0201082    
   1046000   297.6389       941.37502      55664.292     -20205.461      3329.6804     -16875.781      1.0248483    
   1047000   302.88835     -725.69374      56204.314     -20233.139      3388.406      -16844.733      1.0150014    
   1048000   296.887       -1103.5746      56005.676     -20266.838      3321.2689     -16945.569      1.0186014    
   1049000   302.02073      487.74209      55390.737     -20245.002      3378.6999     -16866.302      1.0299097    
   1050000   304.91273     -31.016578      55893.608     -20162.356      3411.0526     -16751.304      1.0206437    
   1051000   301.2453      -434.33904      55489.329     -20247.031      3370.0252     -16877.006      1.0280798    
   1052000   304.65152     -81.254831      55748.389     -20323.149      3408.1305     -16915.018      1.0233023    
   1053000   302.36276      81.504397      56332.568     -20150.665      3382.5262     -16768.139      1.0126905    
   1054000   299.03631     -883.68338      56138.158     -20167.239      3345.3132     -16821.926      1.0161975    
   1055000   302.75847     -168.33283      55123.815     -20316.699      3386.953      -16929.746      1.0348968    
   1056000   301.7724      -489.85911      55776.315     -20218.8        3375.9218     -16842.878      1.02279      
   1057000   302.32817     -801.23361      55787.006     -20303.189      3382.1392     -16921.05       1.022594     
   1058000   301.46135      141.15699      55338.014     -20197.516      3372.4421     -16825.074      1.0308909    
   1059000   301.67994      197.95097      56030.239     -20138.359      3374.8875     -16763.471      1.0181548    
   1060000   300.35615     -120.65322      55818.388     -20206.84       3360.0782     -16846.762      1.0220191    
   1061000   298.70693     -411.46759      56047.551     -20291.697      3341.6285     -16950.069      1.0178403    
   1062000   295.41816     -118.29117      55864.839     -20115.019      3304.8371     -16810.182      1.0211693    
   1063000   308.22493      49.192687      56153.938     -20112.332      3448.1062     -16664.226      1.015912     
   1064000   297.85055     -63.060293      55985.106     -20227.029      3332.0482     -16894.981      1.0189756    
   1065000   300.25502     -313.77297      55778.926     -20093.663      3358.9469     -16734.716      1.0227421    
   1066000   293.24657     -356.68244      55803.27      -20358.424      3280.5436     -17077.88       1.022296     
   1067000   296.94714      254.29779      55499.523     -20316.417      3321.9417     -16994.475      1.027891     
   1068000   293.23186     -586.75419      55449.011     -20307.815      3280.379      -17027.436      1.0288273    
   1069000   295.62665     -144.80954      55382.71      -20237          3307.1695     -16929.83       1.030059     
   1070000   296.0475       152.87578      56119.893     -20245.685      3311.8775     -16933.807      1.0165283    
   1071000   299.26276      123.36562      55904.494     -20206.04       3347.8466     -16858.193      1.0204449    
   1072000   293.6736      -137.16531      56060.607     -20169.28       3285.3207     -16883.959      1.0176033    
   1073000   297.22249      267.54056      55393.791     -20266.451      3325.0221     -16941.428      1.0298529    
   1074000   305.40032     -368.28697      56362.28      -20197.488      3416.5073     -16780.98       1.0121567    
   1075000   300.56838      195.06839      55807.503     -20220.976      3362.4524     -16858.523      1.0222184    
   1076000   298.49602     -82.609724      55584.636     -20280.592      3339.269      -16941.323      1.026317     
   1077000   307.29296     -742.67783      55618.095     -20281.17       3437.6803     -16843.49       1.0256996    
   1078000   301.19344     -122.0262       55617.84      -20133.583      3369.445      -16764.138      1.0257043    
   1079000   301.90037     -128.49641      55814.203     -20204.238      3377.3535     -16826.885      1.0220957    
   1080000   299.03436      224.62734      55806.27      -20224.612      3345.2914     -16879.32       1.022241     
   1081000   299.93465      796.25485      55367.579     -20278.01       3355.363      -16922.647      1.0303405    
   1082000   298.14035      31.889989      55194.881     -20314.351      3335.2902     -16979.061      1.0335643    
   1083000   300.35177      228.50875      55721.267     -20127.502      3360.0293     -16767.472      1.0238004    
   1084000   301.51043     -534.69843      55696.141     -20126.375      3372.9912     -16753.384      1.0242623    
   1085000   304.0178       356.62903      55813.946     -20182.334      3401.0411     -16781.292      1.0221004    
   1086000   305.65066     -73.379006      55526.801     -20200.029      3419.3079     -16780.721      1.027386     
   1087000   299.82865      662.28867      55555.384     -20303.133      3354.1772     -16948.956      1.0268574    
   1088000   301.02247      575.43163      55453.491     -20253.888      3367.5324     -16886.356      1.0287442    
   1089000   296.00048     -474.10197      56264.975     -20118.348      3311.3514     -16806.997      1.0139071    
   1090000   293.66845     -203.7853       55875.934     -20131.664      3285.2632     -16846.401      1.0209665    
   1091000   301.46582     -404.70309      55848.705     -20211.169      3372.4921     -16838.677      1.0214643    
   1092000   300.82346     -306.48089      56104.081     -20138.784      3365.306      -16773.478      1.0168148    
   1093000   294.61212      79.509814      56145.011     -20204.289      3295.82       -16908.469      1.0160735    
   1094000   303.98892      1067.3761      54936.517     -20195.512      3400.718      -16794.794      1.0384251    
   1095000   299.51814      66.743015      55922.479     -20178.94       3350.7035     -16828.236      1.0201168    
   1096000   298.53228     -38.039437      56165.665     -20248.816      3339.6747     -16909.141      1.0156999    
   1097000   308.08471     -12.395796      56530.438     -20108.718      3446.5375     -16662.181      1.0091459    
   1098000   306.58451     -352.5954       56225.097     -20128.733      3429.7548     -16698.978      1.0146262    
   1099000   294.41806     -162.41362      55507.334     -20225.554      3293.649      -16931.905      1.0277463    
   1100000   293.55283     -394.20069      55884.08      -20119.174      3283.9697     -16835.204      1.0208177    
   1101000   306.14637     -776.13845      55926.769     -20150.632      3424.8533     -16725.778      1.0200385    
   1102000   303.81592     -472.6491       56083.043     -20261.515      3398.7827     -16862.732      1.0171962    
   1103000   293.18736     -124.21378      55289.387     -20304.747      3279.8812     -17024.866      1.0317976    
   1104000   292.2785      -1198.8944      56195.786     -20239.671      3269.7137     -16969.958      1.0151554    
   1105000   293.66281     -311.39112      55968.764     -20343.699      3285.2001     -17058.499      1.0192731    
   1106000   301.53706      396.47297      55541.779     -20245.029      3373.2891     -16871.74       1.0271089    
   1107000   296.70844      497.20039      55617.36      -20189.276      3319.2714     -16870.005      1.0257132    
   1108000   299.63262     -371.2403       55986.125     -20232.987      3351.9841     -16881.003      1.0189571    
   1109000   308.6541       608.3508       55766.864     -20252.956      3452.9073     -16800.049      1.0229633    
   1110000   299.74776     -82.420676      56241.904     -20125.389      3353.2722     -16772.117      1.014323     
   1111000   302.99623     -629.16331      56192.991     -20216.565      3389.6128     -16826.952      1.0152059    
   1112000   303.78872      142.7063       55337.572     -20221.953      3398.4784     -16823.474      1.0308992    
   1113000   302.66516      789.16356      54880.768     -20292.93       3385.9092     -16907.021      1.0394799    
   1114000   304.3554      -185.86788      55727.345     -20297.025      3404.8178     -16892.207      1.0236888    
   1115000   298.51975      56.422237      56243.394     -20178.728      3339.5345     -16839.194      1.0142961    
   1116000   304.16164      446.5506       56015.98      -20164.888      3402.6502     -16762.238      1.018414     
   1117000   302.79689     -682.31348      55562.336     -20343.592      3387.3828     -16956.209      1.0267289    
   1118000   299.66706      505.14713      55667.787     -20247.19       3352.3694     -16894.82       1.024784     
   1119000   299.54095     -129.48996      56167.808     -20268.592      3350.9586     -16917.633      1.0156611    
   1120000   295.62191      45.400904      56399.785     -20119.804      3307.1164     -16812.688      1.0114836    
   1121000   301.72714     -8.5963186      56284.298     -20249.756      3375.4155     -16874.34       1.013559     
   1122000   301.22031     -169.52406      56482.5       -20236.614      3369.7456     -16866.869      1.0100023    
   1123000   304.67226      393.15547      55220.95      -20279.388      3408.3625     -16871.025      1.0330764    
   1124000   302.19569      45.295175      56183.579     -20227.826      3380.6572     -16847.169      1.015376     
   1125000   305.09179     -69.863697      56159.808     -20214.738      3413.0558     -16801.682      1.0158058    
   1126000   298.48479     -90.137056      55710.383     -20344.523      3339.1434     -17005.38       1.0240005    
   1127000   298.03237     -674.83134      55555.569     -20322.474      3334.0822     -16988.392      1.026854     
   1128000   298.5058       109.95143      56433.511     -20222.859      3339.3785     -16883.48       1.0108791    
   1129000   305.30765     -238.33447      55888.211     -20234.363      3415.4706     -16818.893      1.0207422    
   1130000   295.63662      7.4508421      55930.015     -20182.109      3307.281      -16874.828      1.0199793    
   1131000   299.14103     -60.022745      56022.173     -20120.277      3346.4848     -16773.792      1.0183014    
   1132000   305.06296      168.63904      55481.754     -20291.578      3412.7333     -16878.845      1.0282202    
   1133000   292.37613      232.88217      55635.844     -20335.763      3270.806      -17064.957      1.0253724    
   1134000   300.09185     -4.7999395      55422.751     -20288.267      3357.1216     -16931.145      1.0293148    
   1135000   298.4158       1209.1357      55092.465     -20329.428      3338.3717     -16991.056      1.0354857    
   1136000   295.02252     -196.78659      55965.379     -20098.534      3300.4111     -16798.123      1.0193348    
   1137000   292.38602     -83.552492      55903.745     -20097.816      3270.9166     -16826.899      1.0204586    
   1138000   297.92393      417.01247      55792.088     -20177.808      3332.869      -16844.939      1.0225009    
   1139000   296.84167      488.57388      55456.33      -20336.238      3320.7619     -17015.477      1.0286915    
   1140000   300.6235       371.96465      55368.298     -20250.099      3363.0691     -16887.03       1.0303271    
   1141000   303.35304     -619.0434       56362.006     -20202.169      3393.6044     -16808.565      1.0121616    
   1142000   301.68152     -289.47405      56117.865     -20324.393      3374.9052     -16949.488      1.016565     
   1143000   300.63136     -986.05301      56453.154     -20189.328      3363.157      -16826.171      1.0105274    
   1144000   302.46593     -411.61265      55652.27      -20264.887      3383.6803     -16881.206      1.0250697    
   1145000   298.3231      -281.05714      56066.907     -20249.351      3337.3346     -16912.016      1.0174889    
   1146000   307.80979     -521.48576      56212.589     -20341.377      3443.462      -16897.915      1.014852     
   1147000   297.42822      148.40441      55080.27      -20231.312      3327.3236     -16903.988      1.0357149    
   1148000   306.95434      716.37052      55377.89      -20194.225      3433.8921     -16760.333      1.0301486    
   1149000   296.07455      357.78757      55455.294     -20371.286      3312.1801     -17059.106      1.0287108    
   1150000   301.48352      201.94484      55434.487     -20268.423      3372.6902     -16895.733      1.0290969    
   1151000   302.13371     -855.43412      55743.511     -20263.698      3379.9638     -16883.734      1.0233919    
   1152000   299.76732     -601.47194      55349.75      -20239.099      3353.4911     -16885.608      1.0306724    
   1153000   299.76428     -173.54776      55399.874     -20239.197      3353.4571     -16885.74       1.0297398    
   1154000   295.86409     -746.55296      55961.963     -20258.035      3309.8257     -16948.209      1.019397     
   1155000   298.26576     -304.04959      55646.955     -20274.492      3336.6932     -16937.799      1.0251677    
   1156000   295.16777      44.562084      54960.079     -20398.108      3302.0359     -17096.072      1.0379799    
   1157000   298.87852      866.89021      55613.166     -20159.864      3343.5481     -16816.316      1.0257905    
   1158000   308.95955      330.22904      55549.249     -20277.163      3456.3243     -16820.838      1.0269708    
   1159000   298.14325      84.881455      55875.876     -20219.481      3335.3226     -16884.159      1.0209676    
   1160000   298.60137     -664.52641      56218.995     -20293.197      3340.4476     -16952.75       1.0147364    
   1161000   297.82438      788.36817      55407.337     -20208.137      3331.7555     -16876.382      1.0296011    
   1162000   295.62582      232.93822      55826.148     -20200.593      3307.1602     -16893.433      1.021877     
   1163000   301.38921     -328.88267      55713.868     -20303.245      3371.635      -16931.61       1.0239364    
   1164000   301.91903      601.05853      55734.214     -20196.593      3377.5622     -16819.03       1.0235626    
   1165000   308.04501      321.3819       55690.591     -20241.132      3446.0934     -16795.039      1.0243644    
   1166000   294.50969      17.662409      55812.228     -20159.213      3294.674      -16864.539      1.0221319    
   1167000   299.77697     -43.939001      55216.371     -20279.062      3353.599      -16925.463      1.033162     
   1168000   297.47421      287.12728      55375.137     -20221.481      3327.8381     -16893.643      1.0301999    
   1169000   297.18227      710.32324      55146.471     -20290.272      3324.5721     -16965.7        1.0344716    
   1170000   300.1938       117.42292      56174.931     -20400.192      3358.2621     -17041.93       1.0155323    
   1171000   313.70675      299.50428      55845.366     -20333.937      3509.4312     -16824.506      1.0215254    
   1172000   309.37101     -210.94524      55326.833     -20208.564      3460.9273     -16747.636      1.0310993    
   1173000   297.0503      -741.75324      56209.88      -20029.431      3323.0958     -16706.335      1.0149009    
   1174000   295.89621     -696.59239      55635.989     -20118.109      3310.185      -16807.924      1.0253697    
   1175000   300.22012     -800.92098      56174.588     -20239.63       3358.5565     -16881.074      1.0155385    
   1176000   296.16554     -54.3091        55024.832     -20221.288      3313.198      -16908.09       1.0367584    
   1177000   296.1607      -993.65468      55698.904     -20160.66       3313.1439     -16847.516      1.0242115    
   1178000   299.87197      240.48172      55563.714     -20159.315      3354.6618     -16804.653      1.0267035    
   1179000   299.71681      216.99195      55914.498     -20257.27       3352.9259     -16904.344      1.0202624    
   1180000   299.75663     -137.57389      56324.055     -20094.425      3353.3714     -16741.054      1.0128436    
   1181000   302.63035      356.20638      56213.571     -20280.095      3385.5197     -16894.575      1.0148343    
   1182000   301.18915      778.65258      56012.997     -20198.66       3369.397      -16829.263      1.0184682    
   1183000   297.44268     -507.02401      55484.799     -20301.404      3327.4854     -16973.918      1.0281637    
   1184000   298.76878      300.81483      55348.508     -20315.73       3342.3204     -16973.41       1.0306955    
   1185000   297.47582     -431.4927       55386.584     -20261.025      3327.8561     -16933.169      1.0299869    
   1186000   304.57216      115.17016      56210.096     -20178.877      3407.2427     -16771.634      1.014897     
   1187000   303.5339       617.33617      54679.417     -20273.984      3395.6277     -16878.356      1.0433077    
   1188000   304.40096     -555.97554      56150.504     -20168.471      3405.3275     -16763.143      1.0159741    
   1189000   300.58391      112.2881       55963.641     -20156.56       3362.6262     -16793.934      1.0193664    
   1190000   297.96651     -945.5356       56247.167     -20168.221      3333.3454     -16834.876      1.0142281    
   1191000   306.80492      597.24403      55699.052     -20174.391      3432.2205     -16742.17       1.0242088    
   1192000   296.60023     -641.06203      55739.59      -20297.958      3318.0609     -16979.897      1.0234639    
   1193000   300.85531     -233.22046      55818.709     -20306.926      3365.6624     -16941.264      1.0220132    
   1194000   299.19148      349.4343       55637.387     -20247.295      3347.0491     -16900.246      1.0253439    
   1195000   302.49094      397.33428      55748.119     -20226.973      3383.9601     -16843.013      1.0233073    
   1196000   303.36865     -2.3893849      55689.388     -20271.615      3393.779      -16877.836      1.0243865    
   1197000   297.62538      142.19711      55471.309     -20305.644      3329.5292     -16976.115      1.0284138    
   1198000   302.00016      20.422         55261.659     -20252.725      3378.4698     -16874.255      1.0323153    
   1199000   294.66672      303.49865      55782.11      -20254.46       3296.4307     -16958.029      1.0226838    
   1200000   303.18576      703.84657      55507.208     -20239.854      3391.733      -16848.121      1.0277486    
   1201000   307.4367       735.49837      54904.279     -20277.837      3439.2882     -16838.549      1.0390348    
   1202000   299.89143      525.07176      55437.351     -20291          3354.8795     -16936.121      1.0290437    
   1203000   305.38882      739.18883      55649.984     -20252.145      3416.3786     -16835.766      1.0251119    
   1204000   291.74097     -159.83384      55151.365     -20406.216      3263.7005     -17142.515      1.0343798    
   1205000   296.29521     -121.29516      55742.894     -20213.963      3314.6486     -16899.315      1.0234032    
   1206000   296.50446     -524.33875      55655.438     -20272.455      3316.9895     -16955.466      1.0250114    
   1207000   296.46973     -219.55873      56322.328     -20144.081      3316.601      -16827.481      1.0128746    
   1208000   306.55653      22.520882      55935.249     -20262.776      3429.4419     -16833.334      1.0198839    
   1209000   300.01848      208.30186      55801.964     -20207.581      3356.3008     -16851.28       1.0223199    
   1210000   295.83912      45.318296      55248.198     -20401.422      3309.5464     -17091.876      1.0325669    
   1211000   302.09753      503.83585      55152.216     -20286.295      3379.5591     -16906.736      1.0343638    
   1212000   297.8373       533.16353      55426.679     -20294.922      3331.8999     -16963.022      1.0292419    
   1213000   301.90879      342.39972      55750.828     -20232.726      3377.4477     -16855.278      1.0232576    
   1214000   313.412       -199.72977      55881.603     -20196.121      3506.1338     -16689.988      1.0208629    
   1215000   301.64047      600.973        55718.781     -20321.016      3374.4459     -16946.57       1.0238461    
   1216000   297.80637      566.07536      56007.722     -20303.475      3331.5539     -16971.921      1.0185642    
   1217000   302.53223     -24.863996      56368.506     -20374.607      3384.4221     -16990.185      1.0120449    
   1218000   300.38701     -32.655253      56339.073     -20011.205      3360.4235     -16650.782      1.0125736    
   1219000   302.81914      1066.1093      55341.928     -20316.645      3387.6317     -16929.013      1.030818     
   1220000   291.40446     -548.56532      55523.991     -20405.805      3259.9359     -17145.869      1.027438     
   1221000   311.2214      -94.442135      56143.331     -20357.445      3481.6276     -16875.817      1.0161039    
   1222000   299.32218     -628.80385      56539.549     -20179.476      3348.5113     -16830.965      1.0089832    
   1223000   301.4177       519.78508      55038.359     -20241.3        3371.9538     -16869.346      1.0365036    
   1224000   301.44172     -174.85643      55812.106     -20287.079      3372.2225     -16914.856      1.0221341    
   1225000   303.86199      632.73831      55930.79      -20208.934      3399.298      -16809.636      1.0199652    
   1226000   301.88112      303.20774      55598.855     -20273.854      3377.1381     -16896.716      1.0260545    
   1227000   299.3288       488.47667      55493.773     -20340.072      3348.5854     -16991.487      1.0279975    
   1228000   291.26481     -116.38004      56171.718     -20161.08       3258.3736     -16902.706      1.0155904    
   1229000   301.17164      187.7527       55089.697     -20345.881      3369.2012     -16976.68       1.0355377    
   1230000   303.14272      26.610637      55676.798     -20178.027      3391.2516     -16786.775      1.0246181    
   1231000   294.4783      -605.77426      56037.96      -20192.805      3294.3229     -16898.482      1.0180145    
   1232000   304.41325     -601.91109      55878.763     -20205.201      3405.465      -16799.736      1.0209148    
   1233000   297.15179     -582.61903      55642.525     -20230.271      3324.2311     -16906.04       1.0252493    
   1234000   306.78555      204.6095       55299.464     -20122.726      3432.0038     -16690.723      1.0316096    
   1235000   300.66612      386.63041      55591.497     -20200.882      3363.5459     -16837.336      1.0261903    
   1236000   301.71762      173.37186      55082.759     -20332.064      3375.309      -16956.755      1.0356681    
   1237000   300.89354      723.14413      55306.174     -20159.059      3366.0901     -16792.969      1.0314844    
   1238000   300.89125      163.57074      55131.38      -20193.38       3366.0644     -16827.315      1.0347548    
   1239000   294.03563      420.4992       55842.347     -20115.201      3289.3708     -16825.831      1.0215806    
   1240000   302.6237       581.52522      55729.197     -20111.104      3385.4453     -16725.659      1.0236548    
   1241000   293.046       -245.73781      56000.306     -20224.797      3278.2998     -16946.497      1.018699     
   1242000   299.19918     -15.822684      55695.926     -20275.101      3347.1353     -16927.966      1.0242663    
   1243000   304.24041     -211.61155      55730.9       -20274.56       3403.5314     -16871.029      1.0236235    
   1244000   299.45469     -272.68274      55495.971     -20157.538      3349.9937     -16807.544      1.0279567    
   1245000   299.99172     -29.964154      55871.388     -20241.525      3356.0015     -16885.524      1.0210496    
   1246000   299.4028      -147.14637      55501.327     -20311.372      3349.4132     -16961.959      1.0278576    
   1247000   300.04766     -116.50733      55689.166     -20361.898      3356.6272     -17005.271      1.0243906    
   1248000   300.76874      119.95926      55759.961     -20331.189      3364.6939     -16966.495      1.02309      
   1249000   302.76919     -433.81019      55882.065     -20382.286      3387.0729     -16995.213      1.0208545    
   1250000   298.38754      693.37497      54971.195     -20195.599      3338.0554     -16857.543      1.03777      
   1251000   295.87511     -968.56955      55750.659     -20197.653      3309.949      -16887.704      1.0232607    
   1252000   302.7964       461.28603      55149.137     -20233.78       3387.3773     -16846.403      1.0344216    
   1253000   304.05312     -261.03148      55353.594     -20372.041      3401.4363     -16970.605      1.0306008    
   1254000   302.60966     -267.59253      55690.883     -20276.925      3385.2882     -16891.636      1.024359     
   1255000   300.90726      169.11528      55727.454     -20219.34       3366.2435     -16853.096      1.0236868    
   1256000   297.53648      672.27047      55632.094     -20205.209      3328.5347     -16876.674      1.0254415    
   1257000   290.30147      60.802043      55945.07      -20327.902      3247.5968     -17080.306      1.0197048    
   1258000   298.65768      481.95008      55940.009     -20337.224      3341.0776     -16996.146      1.0197971    
   1259000   300.57853     -870.67088      55503.166     -20226.465      3362.566      -16863.898      1.0278235    
   1260000   294.83848      110.38663      55737.223     -20239.503      3298.3522     -16941.151      1.0235074    
   1261000   304.80588      52.217797      56084.204     -20232.673      3409.8573     -16822.815      1.0171751    
   1262000   304.11898     -360.41772      56172.734     -20315.19       3402.173      -16913.017      1.015572     
   1263000   304.80368      214.11351      55865.008     -20177.646      3409.8327     -16767.813      1.0211662    
   1264000   298.34456     -606.98542      55848.961     -20273.494      3337.5746     -16935.92       1.0214596    
   1265000   300.0116       346.05929      55925.366     -20203.546      3356.2238     -16847.323      1.0200641    
   1266000   301.02573      10.385184      55480.84      -20085.985      3367.5688     -16718.417      1.0282371    
   1267000   305.29819     -371.29903      55364.757     -20225.808      3415.3648     -16810.443      1.030393     
   1268000   302.69397      714.1536       55411.831     -20256.323      3386.2314     -16870.092      1.0295176    
   1269000   299.71822     -8.131289       55175.508     -20328.362      3352.9417     -16975.42       1.0339272    
   1270000   298.21759     -152.26438      55640.89      -20105.968      3336.1542     -16769.814      1.0252794    
   1271000   301.30403      880.21768      54954.09      -20067.446      3370.6822     -16696.763      1.038093     
   1272000   295.02784     -473.36688      56077.957     -20145.034      3300.4706     -16844.564      1.0172885    
   1273000   298.73296      218.42527      55757.372     -20321.532      3341.9197     -16979.612      1.0231375    
   1274000   299.37207     -661.52254      55523.228     -20231.269      3349.0694     -16882.199      1.0274521    
   1275000   296.26626      137.61912      56351.774     -20183.854      3314.3248     -16869.529      1.0123454    
   1276000   307.14291     -359.33361      55823.248     -20285.959      3436.0017     -16849.958      1.0219301    
   1277000   296.35203      922.33785      55808.706     -20144.908      3315.2842     -16829.624      1.0221964    
   1278000   301.94856      391.55491      55372.919     -20245.161      3377.8925     -16867.269      1.0302411    
   1279000   292.81703      21.614987      56043.349     -20325.918      3275.7383     -17050.18       1.0179166    
   1280000   291.30028      506.71239      55818.131     -20293.466      3258.7704     -17034.696      1.0220238    
   1281000   299.99139     -614.50257      56271.463     -20315.431      3355.9977     -16959.434      1.0137902    
   1282000   296.29082     -733.93215      56143.903     -20223.304      3314.5996     -16908.705      1.0160935    
   1283000   296.75331      355.44669      55496.884     -20262.015      3319.7733     -16942.242      1.0279398    
   1284000   299.48166     -71.649409      55635.483     -20171.486      3350.2954     -16821.191      1.025379     
   1285000   296.27792      782.74338      56122.757     -20208.615      3314.4552     -16894.16       1.0164764    
   1286000   296.3891      -431.95169      55593.631     -20272.966      3315.699      -16957.267      1.026151     
   1287000   297.444       -793.32651      56172.398     -20267.015      3327.5001     -16939.515      1.0155781    
   1288000   306.03362      287.03865      55905.513     -20187.18       3423.592      -16763.588      1.0204263    
   1289000   306.56089      109.88623      55618.92      -20171.535      3429.4906     -16742.044      1.0256844    
   1290000   296.64119      369.00963      55725.483     -20245.187      3318.5191     -16926.668      1.023723     
   1291000   298.62484     -19.04534       55850.572     -20177.823      3340.7101     -16837.113      1.0214301    
   1292000   302.33727     -158.71397      55536.061     -20286.667      3382.2411     -16904.426      1.0272147    
   1293000   301.97721     -339.23521      55592.887     -20147.171      3378.213      -16768.958      1.0261647    
   1294000   298.23906     -797.43709      55269.943     -20220.04       3336.3944     -16883.646      1.0321606    
   1295000   297.2652       74.186788      55541.913     -20276.423      3325.4999     -16950.923      1.0271065    
   1296000   296.38195     -296.89022      55609.522     -20175.722      3315.619      -16860.103      1.0258577    
   1297000   299.40139      95.629988      55549.155     -20243.676      3349.3974     -16894.278      1.0269725    
   1298000   300.40887     -203.65754      56126.506     -20129.361      3360.668      -16768.693      1.0164085    
   1299000   297.38676     -776.40864      56142.509     -20296.98       3326.8598     -16970.12       1.0161188    
   1300000   297.66698      561.1085       55697.607     -20230.865      3329.9946     -16900.871      1.0242353    
   1301000   298.19935      28.569919      55280.207     -20220.948      3335.9502     -16884.997      1.031969     
   1302000   299.39351     -20.593524      55609.577     -20251.813      3349.3092     -16902.504      1.0258567    
   1303000   295.41649     -454.66595      55500.384     -20261.134      3304.8184     -16956.316      1.027875     
   1304000   296.87075      138.49225      55783.915     -20354.523      3321.0872     -17033.436      1.0226507    
   1305000   297.26115      584.08778      56275.985     -20217.149      3325.4546     -16891.694      1.0137087    
   1306000   297.92956      428.43423      56401.491     -20234.438      3332.932      -16901.506      1.011453     
   1307000   305.5299      -227.71036      56240.274     -20119.722      3417.957      -16701.765      1.0143524    
   1308000   300.61022      343.28382      55923.774     -20181.536      3362.9205     -16818.616      1.0200931    
   1309000   296.13698     -583.18833      55881.894     -20280.415      3312.8786     -16967.537      1.0208576    
   1310000   292.49275     -279.96947      56137.314     -20203.343      3272.1106     -16931.232      1.0162128    
   1311000   298.13102     -59.6288        55926.293     -20163.771      3335.1857     -16828.586      1.0200472    
   1312000   301.61496     -103.96569      55560.639     -20388.498      3374.1606     -17014.338      1.0267603    
   1313000   299.12036     -368.57865      55834.38      -20214.441      3346.2535     -16868.187      1.0217264    
   1314000   298.36407     -78.742541      55761.837     -20185.786      3337.7929     -16847.993      1.0230556    
   1315000   305.41662      527.6982       55365.998     -20312.967      3416.6897     -16896.278      1.0303699    
   1316000   298.82227      221.09066      56091.165     -20244.551      3342.9188     -16901.632      1.0170489    
   1317000   304.79503      261.80166      55472.003     -20321.887      3409.7359     -16912.151      1.0284009    
   1318000   299.80849     -119.91876      55570.567     -20326.473      3353.9516     -16972.521      1.0265768    
   1319000   301.38479      93.869065      55696.722     -20127.615      3371.5857     -16756.029      1.0242516    
   1320000   300.85198     -236.21233      56293.193     -20172.502      3365.6251     -16806.877      1.0133989    
   1321000   304.48332      368.70105      55725.132     -20219.436      3406.2489     -16813.187      1.0237294    
   1322000   301.25386      562.93057      55894.818     -20188.304      3370.121      -16818.183      1.0206216    
   1323000   303.55048     -209.55887      55013.155     -20320.989      3395.8132     -16925.175      1.0369785    
   1324000   293.08233      390.08789      55627.447     -20234.942      3278.7062     -16956.236      1.0255272    
   1325000   298.85142      542.05589      56039.731     -20353.414      3343.2449     -17010.169      1.0179824    
   1326000   296.13405      167.97185      55407.196     -20289.155      3312.8457     -16976.309      1.0296038    
   1327000   304.20357     -711.64496      56344.379     -20216.372      3403.1193     -16813.253      1.0124782    
   1328000   301.89632     -241.1637       55478.214     -20277.065      3377.3082     -16899.757      1.0282858    
   1329000   302.89074      659.46739      55704.407     -20312.072      3388.4327     -16923.639      1.0241103    
   1330000   297.36983      268.26601      55908.09      -20253.677      3326.6704     -16927.006      1.0203793    
   1331000   303.77855      69.284193      56095.964     -20387.532      3398.3646     -16989.168      1.0169619    
   1332000   299.30795     -201.23236      55746.388     -20318.333      3348.3521     -16969.981      1.0233391    
   1333000   298.7036       623.1432       55099.748     -20291.833      3341.5912     -16950.242      1.0353488    
   1334000   291.58794     -117.82359      55380.017     -20216.605      3261.9885     -16954.616      1.0301091    
   1335000   303.58409      1129.5513      55639.522     -20240.851      3396.1892     -16844.661      1.0253046    
   1336000   308.37353     -85.778142      55818.824     -20266.103      3449.7685     -16816.335      1.0220111    
   1337000   294.59719     -600.47832      56379.34      -20225.653      3295.6529     -16930          1.0118504    
   1338000   299.1126      -959.52091      55898.935     -20210.921      3346.1667     -16864.755      1.0205464    
   1339000   298.7045       640.66966      55664.697     -20271.552      3341.6014     -16929.951      1.0248409    
   1340000   302.88273     -36.69039       55755.148     -20308.754      3388.3431     -16920.411      1.0231783    
   1341000   301.27934     -1180.9682      56777.73      -20253.167      3370.406      -16882.761      1.0047506    
   1342000   305.27194     -389.10593      55986.975     -20239.662      3415.0711     -16824.591      1.0189416    
   1343000   294.05767      65.240667      56055.18      -20285.979      3289.6173     -16996.362      1.0177018    
   1344000   301.08641     -620.24935      56413.453     -20112.025      3368.2477     -16743.777      1.0112385    
   1345000   296.21216     -477.0331       56138.184     -20291.326      3313.7195     -16977.606      1.0161971    
   1346000   301.73949     -267.36295      56013.182     -20194.038      3375.5537     -16818.484      1.0184649    
   1347000   299.41124      661.27487      55522.268     -20163.763      3349.5075     -16814.255      1.0274699    
   1348000   292.85329      514.44823      55333.67      -20268.406      3276.1439     -16992.262      1.0309719    
   1349000   310.05372     -821.77921      55445.646     -20062.688      3468.5648     -16594.124      1.0288898    
   1350000   296.43935     -255.55605      55766.849     -20217.065      3316.2612     -16900.804      1.0229636    
   1351000   295.07027     -386.32505      55347.502     -20220.025      3300.9452     -16919.079      1.0307142    
   1352000   292.31734      755.86739      55673.961     -20341.74       3270.1483     -17071.592      1.0246704    
   1353000   302.90886     -289.72075      55627.084     -20356.238      3388.6354     -16967.603      1.0255339    
   1354000   299.39131      830.395        54852.865     -20276.684      3349.2846     -16927.399      1.0400087    
   1355000   302.79957      249.38519      55196.798     -20298.515      3387.4128     -16911.103      1.0335284    
   1356000   305.3679       564.10519      55440.16      -20244.299      3416.1447     -16828.155      1.0289916    
   1357000   297.52238      620.81584      55820.71      -20343.26       3328.3769     -17014.883      1.0219766    
   1358000   300.65517     -398.60341      55326.091     -20281.318      3363.4234     -16917.895      1.0311131    
   1359000   301.82189     -288.80391      55598.028     -20336.98       3376.4754     -16960.505      1.0260698    
   1360000   306.72731      2.5109768      55275.59      -20254.447      3431.3523     -16823.094      1.0320552    
   1361000   299.18702     -772.14403      56481.13      -20122.631      3346.9993     -16775.632      1.0100268    
   1362000   294.25876      8.7538407      55957.574     -20234.744      3291.8669     -16942.877      1.019477     
   1363000   300.44766      580.63546      55386.828     -20285.15       3361.102      -16924.048      1.0299824    
   1364000   296.78858      185.48527      56345.851     -20197.626      3320.168      -16877.458      1.0124518    
   1365000   297.11198     -111.91364      55400.733     -20241.678      3323.7858     -16917.893      1.0297239    
   1366000   299.24685      327.47737      55925.747     -20156.755      3347.6686     -16809.086      1.0200571    
   1367000   302.14232      354.58074      55694.68      -20149.617      3380.0602     -16769.557      1.0242892    
   1368000   301.4329       131.45804      55393.066     -20228.476      3372.1239     -16856.352      1.0298664    
   1369000   308.72292      141.8913       55582.286     -20239.463      3453.6772     -16785.786      1.0263604    
   1370000   298.69545      370.25458      55289.293     -20151.485      3341.5001     -16809.985      1.0317994    
   1371000   304.06189      891.33523      55313.831     -20292.53       3401.5344     -16890.995      1.0313416    
   1372000   301.54764      810.13503      55903.816     -20160.33       3373.4075     -16786.922      1.0204573    
   1373000   301.62417     -439.89411      55566.118     -20328.55       3374.2636     -16954.286      1.026659     
   1374000   299.34684      303.10307      55645.593     -20137.359      3348.7871     -16788.572      1.0251927    
   1375000   301.30756      975.38367      55469.696     -20118.692      3370.7217     -16747.97       1.0284437    
   1376000   303.88826      154.69106      56278.974     -20173.295      3399.5919     -16773.703      1.0136549    
   1377000   296.72178      84.305631      55717.508     -20289.844      3319.4206     -16970.423      1.0238695    
   1378000   299.49479     -863.3869       56467.693     -20261.741      3350.4423     -16911.298      1.0102672    
   1379000   301.33754      594.49814      55964.068     -20235.547      3371.057      -16864.49       1.0193587    
   1380000   298.75173     -53.745586      56023.079     -20398.946      3342.1296     -17056.816      1.0182849    
   1381000   296.37243     -143.65863      55915.076     -20213.527      3315.5125     -16898.015      1.0202518    
   1382000   298.51442      128.56894      55797.339     -20178.271      3339.4748     -16838.796      1.0224046    
   1383000   298.58893      249.7445       55505.566     -20188.474      3340.3085     -16848.165      1.027779     
   1384000   307.13995     -459.22649      56259.75      -20218.139      3435.9685     -16782.17       1.0140013    
   1385000   301.22819     -121.5793       56171.693     -20292.502      3369.8338     -16922.668      1.0155908    
   1386000   307.59854     -856.92275      56555.437     -20257.906      3441.0988     -16816.807      1.0086998    
   1387000   307.32141      715.38786      55026.503     -20270.977      3437.9985     -16832.979      1.0367269    
   1388000   300.78961     -223.09319      55833.087     -20260.149      3364.9274     -16895.222      1.02175      
   1389000   298.48439     -93.321525      55357.532     -20288.869      3339.139      -16949.73       1.0305275    
   1390000   296.0253      -316.85456      55826.943     -20221.226      3311.6292     -16909.597      1.0218625    
   1391000   297.21342      459.23849      55682.076     -20252.648      3324.9206     -16927.728      1.024521     
   1392000   298.58354     -212.00987      55859.166     -20317.254      3340.2482     -16977.006      1.021273     
   1393000   301.11369     -322.91956      56442.227     -20145.531      3368.5529     -16776.978      1.010723     
   1394000   302.67849      294.47595      55833.846     -20196.884      3386.0583     -16810.826      1.0217361    
   1395000   299.72962     -80.339848      56111.648     -20144.855      3353.0693     -16791.786      1.0166776    
   1396000   304.25972     -407.48023      56032.091     -20348.157      3403.7475     -16944.409      1.0181212    
   1397000   302.18776      73.05925       56028.752     -20203.912      3380.5685     -16823.343      1.0181818    
   1398000   301.20348     -624.67938      55986.662     -20278.74       3369.5573     -16909.183      1.0189473    
   1399000   299.7676       42.98946       55464.58      -20270.357      3353.4942     -16916.863      1.0285385    
   1400000   300.15873     -1574.7344      55701.885     -20187.534      3357.8698     -16829.664      1.0241567    
   1401000   299.85066     -185.05858      55480.933     -20273.391      3354.4234     -16918.968      1.0282354    
   1402000   296.70667     -507.27722      55939.907     -20221.347      3319.2516     -16902.095      1.0197989    
   1403000   296.08471     -305.38083      55520.372     -20289.472      3312.2937     -16977.178      1.027505     
   1404000   299.06098      392.21899      55601.82      -20187.893      3345.5893     -16842.303      1.0259998    
   1405000   295.21313     -348.62252      55739.445     -20324.094      3302.5434     -17021.55       1.0234665    
   1406000   305.91609      738.45996      55486.331     -20333.186      3422.2773     -16910.908      1.0281353    
   1407000   295.94009      594.45919      55690.884     -20273.618      3310.6759     -16962.942      1.024359     
   1408000   304.09407      117.66368      55351.672     -20222.504      3401.8944     -16820.61       1.0306366    
   1409000   299.61389      509.52079      55515.2       -20290.823      3351.7746     -16939.049      1.0276007    
   1410000   298.52156     -198.68275      55522.916     -20284.742      3339.5548     -16945.187      1.0274579    
   1411000   305.52144      249.67946      56020.077     -20271.714      3417.8622     -16853.852      1.0183395    
   1412000   295.01307     -287.77673      55901.125     -20363.009      3300.3054     -17062.704      1.0205064    
   1413000   305.62679     -280.53097      55602.046     -20285.777      3419.0408     -16866.736      1.0259957    
   1414000   307.56673      451.12364      55547.476     -20232.199      3440.7429     -16791.457      1.0270036    
   1415000   302.46909      368.35062      55826.083     -20331.08       3383.7157     -16947.364      1.0218782    
   1416000   299.92781      30.076222      55297.394     -20224.013      3355.2865     -16868.727      1.0316482    
   1417000   302.00543     -685.80093      56155.813     -20200.331      3378.5287     -16821.802      1.015878     
   1418000   298.13117     -718.98944      56768.359     -20267.136      3335.1874     -16931.948      1.0049165    
   1419000   299.36566     -575.54735      56639.163     -20302.594      3348.9977     -16953.596      1.0072087    
   1420000   297.44635      102.88305      55397.819     -20229.092      3327.5264     -16901.565      1.029778     
   1421000   299.48192      168.79425      55429.212     -20233.248      3350.2983     -16882.949      1.0291948    
   1422000   298.21916      402.10442      55546.665     -20259.853      3336.1718     -16923.681      1.0270186    
   1423000   301.62613     -425.07207      55827.928     -20250.054      3374.2855     -16875.769      1.0218444    
   1424000   296.99967     -157.26955      55623.261     -20393.577      3322.5294     -17071.047      1.0256043    
   1425000   302.05935     -6.3113971      55765.192     -20264.037      3379.1319     -16884.905      1.022994     
   1426000   299.3385      -354.21704      55512.587     -20208.789      3348.6938     -16860.095      1.0276491    
   1427000   295.39577      586.35759      55018.572     -20143.46       3304.5866     -16838.873      1.0368764    
   1428000   306.03924      112.91217      55858.4       -20293.761      3423.6549     -16870.106      1.021287     
   1429000   304.86213      206.21999      55450.146     -20265.474      3410.4866     -16854.987      1.0288063    
   1430000   298.73514      253.58795      55854.316     -20215.437      3341.9441     -16873.492      1.0213617    
   1431000   302.94478      768.33138      55415.737     -20206.896      3389.0372     -16817.859      1.0294451    
   1432000   295.90785     -422.16578      55999.49      -20264.236      3310.3153     -16953.92       1.0187139    
   1433000   302.70278     -398.62457      56159.723     -20175.719      3386.33       -16789.389      1.0158073    
   1434000   297.53016     -251.05361      55900.042     -20183.909      3328.464      -16855.445      1.0205262    
   1435000   292.95329     -318.9294       55680.892     -20367.977      3277.2626     -17090.714      1.0245428    
   1436000   295.14319     -430.32281      56102.481     -20240.003      3301.761      -16938.242      1.0168438    
   1437000   297.65502     -752.59402      56100.413     -20297.636      3329.8608     -16967.776      1.0168812    
   1438000   298.05175     -617.67238      55921.428     -20260.409      3334.299      -16926.11       1.0201359    
   1439000   299.47964     -148.24194      56249.873     -20177.646      3350.2728     -16827.373      1.0141793    
   1440000   304.46933     -129.1405       55420.026     -20402.061      3406.0923     -16995.969      1.0293654    
   1441000   297.00054      988.62756      55079.048     -20352.404      3322.5392     -17029.865      1.0357379    
   1442000   297.41009     -298.53269      56012.891     -20309.951      3327.1207     -16982.83       1.0184701    
   1443000   304.75584      981.18144      56174.293     -20295.223      3409.2975     -16885.926      1.0155438    
   1444000   298.90801      886.51766      55609.44      -20380.004      3343.878      -17036.126      1.0258592    
   1445000   301.22001     -804.63788      55904.111     -20290.048      3369.7422     -16920.306      1.0204519    
   1446000   300.62286      1074.044       55427.241     -20105.521      3363.062      -16742.459      1.0292314    
   1447000   299.40238     -432.67398      55430.381     -20246.9        3349.4085     -16897.492      1.0291731    
   1448000   297.84171     -300.61819      55537.024     -20265.513      3331.9493     -16933.564      1.0271969    
   1449000   296.533       -744.79743      56291.848     -20372.307      3317.3088     -17054.998      1.0134231    
   1450000   296.55589     -190.75936      56017.326     -20288.191      3317.5649     -16970.626      1.0183895    
   1451000   296.41826      150.03466      55791.553     -20349.13       3316.0252     -17033.105      1.0225107    
   1452000   294.08518      402.9686       55495.224     -20313.971      3289.9251     -17024.046      1.0279706    
   1453000   300.00744      912.52909      55815.108     -20181.593      3356.1773     -16825.416      1.0220791    
   1454000   306.73184      324.11106      55605.309     -20275.665      3431.403      -16844.262      1.0259354    
   1455000   304.38599     -244.55612      55769.164     -20233.134      3405.16       -16827.974      1.0229211    
   1456000   301.27653     -472.34243      55470.673     -20263.509      3370.3746     -16893.134      1.0284256    
   1457000   299.4747      -27.138406      55591.21      -20228.019      3350.2175     -16877.802      1.0261956    
   1458000   301.99724      295.31383      55845.302     -20184.571      3378.4372     -16806.134      1.0215265    
   1459000   294.9588      -283.72876      55313.865     -20288.762      3299.6982     -16989.064      1.031341     
   1460000   299.41511     -403.24964      55521.698     -20213.923      3349.5509     -16864.372      1.0274804    
   1461000   296.92627     -405.89106      55703.29      -20238.921      3321.7082     -16917.213      1.0241308    
   1462000   300.29073     -141.08604      55548.06      -20302.431      3359.3465     -16943.084      1.0269928    
   1463000   294.11467      226.52386      55861.475     -20111.714      3290.255      -16821.459      1.0212308    
   1464000   295.53999      301.64707      55250.707     -20268.05       3306.2        -16961.851      1.0325199    
   1465000   297.54141     -292.42476      55026.885     -20229.312      3328.5898     -16900.722      1.0367197    
   1466000   297.90864     -91.463345      55887.556     -20128.743      3332.698      -16796.045      1.0207542    
   1467000   298.00714      285.80172      55475.316     -20315.163      3333.8        -16981.364      1.0283395    
   1468000   300.21121      883.83303      55835.268     -20284.329      3358.4569     -16925.872      1.0217101    
   1469000   306.09664      108.78409      55792.394     -20243.333      3424.297      -16819.036      1.0224953    
   1470000   298.18865     -588.85102      55928.139     -20305.355      3335.8305     -16969.524      1.0200135    
   1471000   295.43446      429.49947      55110.015     -20231.613      3305.0194     -16926.593      1.0351559    
   1472000   294.2729       89.072569      55414.988     -20270.439      3292.025      -16978.414      1.029459     
   1473000   298.26442      124.98078      55550.654     -20252.586      3336.6782     -16915.908      1.0269448    
   1474000   305.67652     -172.91241      55980.559     -20223.076      3419.5972     -16803.479      1.0190584    
   1475000   299.47839     -165.17952      55918.006     -20328.698      3350.2588     -16978.439      1.0201984    
   1476000   303.4991       48.62072       55776.364     -20346.493      3395.2384     -16951.255      1.0227891    
   1477000   300.48981      909.25472      56606.71      -20329.8        3361.5735     -16968.226      1.0077861    
   1478000   296.2078      -168.00712      56110.774     -20312.656      3313.6708     -16998.985      1.0166935    
   1479000   297.37184      538.66394      55876.916     -20213.899      3326.6928     -16887.206      1.0209486    
   1480000   304.82003      188.7078       55700.436     -20202.935      3410.0157     -16792.92       1.0241833    
   1481000   295.70252     -9.5212099      55645.924     -20161.57       3308.0182     -16853.552      1.0251866    
   1482000   296.50901      3.4216084      56108.072     -20141.483      3317.0404     -16824.443      1.0167424    
   1483000   306.9827       449.4798       55489.35      -20183.762      3434.2093     -16749.553      1.0280794    
   1484000   292.94319      1012.8324      55864.827     -20175.849      3277.1497     -16898.699      1.0211695    
   1485000   289.3866      -731.82623      56144.473     -20215.279      3237.3622     -16977.917      1.0160832    
   1486000   297.57145     -17.708502      56024.645     -20269.442      3328.9259     -16940.516      1.0182565    
   1487000   296.90319     -482.37511      55911.734     -20280.747      3321.4501     -16959.297      1.0203128    
   1488000   299.1104      -12.264598      55931.221     -20189.546      3346.142      -16843.404      1.0199573    
   1489000   297.70374      178.06258      56267.422     -20230.915      3330.4059     -16900.509      1.013863     
   1490000   298.17988      429.74972      56054.502     -20254.729      3335.7324     -16918.997      1.0177141    
   1491000   302.77886     -136.22693      56360.356     -20127.4        3387.1811     -16740.219      1.0121912    
   1492000   299.56926      93.3691        55651.071     -20248.011      3351.2753     -16896.736      1.0250918    
   1493000   298.94997     -74.063345      55967.725     -20193.964      3344.3473     -16849.617      1.0192921    
   1494000   297.53114     -911.20109      56196.348     -20224.015      3328.475      -16895.54       1.0151453    
   1495000   297.03391     -312.50456      56049.476     -20228.645      3322.9124     -16905.733      1.0178054    
   1496000   295.27497      695.87616      55382.325     -20314.13       3303.2352     -17010.894      1.0300661    
   1497000   302.37969      388.85345      55923.855     -20207.172      3382.7156     -16824.456      1.0200916    
   1498000   303.20307      107.1916       56647.707     -20183.993      3391.9267     -16792.066      1.0070568    
   1499000   300.91123      1062.1383      56028.313     -20134.759      3366.288      -16768.471      1.0181898    
   1500000   296.45218     -383.32564      55976.986     -20275.855      3316.4047     -16959.45       1.0191234    
   1501000   303.14368      107.35804      56003.647     -20164.145      3391.2623     -16772.882      1.0186383    
   1502000   308.57797      102.86336      55659.286     -20223.016      3452.0556     -16770.961      1.0249405    
   1503000   300.7635       374.50991      55580.949     -20281.558      3364.6353     -16916.923      1.0263851    
   1504000   299.4205      -567.07484      56220.939     -20329.462      3349.6112     -16979.851      1.0147013    
   1505000   297.27957      1144.5512      55736.463     -20375.284      3325.6606     -17049.624      1.0235213    
   1506000   304.32305     -50.635549      55667.553     -20349.204      3404.4559     -16944.748      1.0247883    
   1507000   298.36117     -591.507        55762.756     -20117.708      3337.7604     -16779.948      1.0230387    
   1508000   302.12629      416.22265      55657.113     -20270.098      3379.8807     -16890.217      1.0249805    
   1509000   294.89046      588.34562      55358.903     -20248.8        3298.9337     -16949.866      1.030502     
   1510000   305.01492      137.32647      55879.015     -20184.183      3412.1958     -16771.987      1.0209102    
   1511000   301.65773      495.64811      55516.166     -20189.351      3374.639      -16814.712      1.0275828    
   1512000   307.02649      302.33261      56303.978     -20165.134      3434.6993     -16730.435      1.0132047    
   1513000   298.68135     -232.28783      55804.664     -20396.618      3341.3423     -17055.276      1.0222704    
   1514000   300.10511      347.19856      55701.763     -20213.529      3357.2699     -16856.259      1.0241589    
   1515000   297.92398      18.012942      56162.968     -20211.453      3332.8697     -16878.583      1.0157486    
   1516000   298.54432     -894.54638      56324.246     -20266.887      3339.8094     -16927.078      1.0128402    
   1517000   299.61819      234.71186      56020.061     -20247.66       3351.8227     -16895.837      1.0183398    
   1518000   300.18929     -590.36135      55901.229     -20134.417      3358.2116     -16776.206      1.0205045    
   1519000   293.596       -355.66419      55829.484     -20284.516      3284.4527     -17000.064      1.0218159    
   1520000   301.38945      299.11912      55393.669     -20205.519      3371.6378     -16833.882      1.0298552    
   1521000   301.41826     -123.03843      56064.032     -20224.92       3371.9601     -16852.96       1.0175411    
   1522000   299.37298      263.44971      56056.347     -20186.982      3349.0795     -16837.903      1.0176806    
   1523000   307.9905       1063.2117      56420.205     -19994.122      3445.4836     -16548.638      1.0111175    
   1524000   302.15781     -402.54188      55270.008     -20174.466      3380.2335     -16794.233      1.0321594    
   1525000   301.87853      230.78589      55161.991     -20270.35       3377.1091     -16893.241      1.0341805    
   1526000   297.68146      124.91301      55707.44      -20176.373      3330.1566     -16846.216      1.0240546    
   1527000   305.23916     -474.52327      56690.347     -20301.382      3414.7045     -16886.677      1.0062993    
   1528000   310.93619      295.58683      56221.017     -20209.282      3478.4369     -16730.845      1.0146998    
   1529000   297.56588      85.626122      55942.682     -20243.192      3328.8636     -16914.328      1.0197484    
   1530000   302.26823      97.161007      55386.669     -20175.13       3381.4687     -16793.661      1.0299853    
   1531000   302.06699      495.68642      55446.457     -20422.929      3379.2174     -17043.712      1.0288747    
   1532000   287.69381     -135.43098      55998.657     -20258.499      3218.4249     -17040.074      1.018729     
   1533000   297.27869     -252.25001      55774.308     -20238.386      3325.6508     -16912.735      1.0228268    
   1534000   305.01798     -614.66194      55667.215     -20251.882      3412.2301     -16839.652      1.0247945    
   1535000   299.9815      -638.61326      55983.913     -20272.65       3355.887      -16916.763      1.0189973    
   1536000   300.18186      203.91385      55193.651     -20294.54       3358.1285     -16936.412      1.0335873    
   1537000   300.01479      117.07071      55308.203     -20237.78       3356.2595     -16881.521      1.0314466    
   1538000   300.56953     -1033.1637      55872.63      -20405.026      3362.4654     -17042.56       1.0210269    
   1539000   299.15473     -371.89289      55723.446     -20177.675      3346.638      -16831.037      1.0237604    
   1540000   296.5141      -296.5242       55440.445     -20275.374      3317.0973     -16958.277      1.0289863    
   1541000   299.68892      193.98927      55953.551     -20127.481      3352.614      -16774.867      1.0195503    
   1542000   301.56268      987.92431      55931.185     -20205.438      3373.5757     -16831.862      1.019958     
   1543000   297.70152      862.32519      55323.549     -20232.456      3330.3809     -16902.075      1.0311605    
   1544000   293.5441       188.94582      55848.799     -20357.575      3283.872      -17073.703      1.0214626    
   1545000   299.5328       66.130616      55142.906     -20359.11       3350.8674     -17008.243      1.0345385    
   1546000   302.40958     -1140.4152      56092.912     -20229.795      3383.0499     -16846.745      1.0170172    
   1547000   300.50782     -340.98952      55853.494     -20088.67       3361.775      -16726.895      1.0213767    
   1548000   293.30232     -569.46328      55776.606     -20173.469      3281.1672     -16892.302      1.0227847    
   1549000   302.53517     -579.65897      56090.484     -20195.731      3384.4549     -16811.276      1.0170612    
   1550000   301.8341       97.671768      55405.416     -20300.147      3376.6121     -16923.535      1.0296369    
   1551000   302.63247     -392.76297      55753.293     -20318.498      3385.5434     -16932.955      1.0232123    
   1552000   296.87732      116.77316      56154.349     -20253.191      3321.1607     -16932.03       1.0159045    
   1553000   305.35529     -646.88553      55565.689     -20296.507      3416.0036     -16880.503      1.026667     
   1554000   296.37319      547.91138      55695.143     -20374.332      3315.5209     -17058.811      1.0242807    
   1555000   305.38583      150.45463      55707.243     -20241.017      3416.3452     -16824.672      1.0240582    
   1556000   301.786        438.15124      55771.908     -20185.865      3376.074      -16809.791      1.0228708    
   1557000   299.60792      474.6984       55322.681     -20297.432      3351.7079     -16945.724      1.0311767    
   1558000   307.75302      225.77939      56125.781     -20107.166      3442.8269     -16664.339      1.0164216    
   1559000   297.99299     -396.18193      55825.223     -20212.236      3333.6417     -16878.594      1.021894     
   1560000   306.29787      451.12112      55565.129     -20279.045      3426.5481     -16852.497      1.0266773    
   1561000   297.24281      446.76459      55416.535     -20288.649      3325.2494     -16963.4        1.0294303    
   1562000   309.66017      799.74906      55696.513     -20431.796      3464.1622     -16967.633      1.0242555    
   1563000   299.11906      77.676317      56111.472     -20403.152      3346.239      -17056.913      1.0166808    
   1564000   293.98008     -125.83096      55762.511     -20246.017      3288.7494     -16957.268      1.0230432    
   1565000   298.14419     -65.607551      56359.296     -20207.036      3335.3332     -16871.703      1.0122103    
   1566000   303.91229     -132.41417      56032.746     -20260.987      3399.8607     -16861.126      1.0181093    
   1567000   303.11613      277.28154      55590.458     -20279.068      3390.9541     -16888.114      1.0262095    
   1568000   307.68273     -223.87708      55934.707     -20296.937      3442.0406     -16854.897      1.0198937    
   1569000   305.86842     -884.61446      56419.12      -20218.129      3421.744      -16796.386      1.011137     
   1570000   299.60621     -620.25422      55579.743     -20348.433      3351.6887     -16996.744      1.0264074    
   1571000   299.45436      191.16367      55663.184     -20293.732      3349.99       -16943.742      1.0248688    
   1572000   299.43449      422.16307      56037.429     -20307.266      3349.7677     -16957.498      1.0180242    
   1573000   309.17865      264.62196      55864.925     -20232.351      3458.7755     -16773.575      1.0211677    
   1574000   296.69907      230.21032      56089.301     -20156.823      3319.1666     -16837.656      1.0170827    
   1575000   303.32768     -748.94929      55511.182     -20205.763      3393.3208     -16812.442      1.0276751    
   1576000   297.50941      207.0522       55368.448     -20230.629      3328.2319     -16902.398      1.0303243    
   1577000   291.81507      801.30117      55105.053     -20379.327      3264.5294     -17114.798      1.0352491    
   1578000   300.45398     -515.10485      56295.93      -20352.607      3361.1727     -16991.434      1.0133496    
   1579000   301.31566     -992.35215      56253.304     -20211.448      3370.8123     -16840.635      1.0141175    
   1580000   304.91135     -24.877075      56179.161     -20323.064      3411.0372     -16912.026      1.0154558    
   1581000   296.19541     -579.63306      55699.817     -20187.837      3313.5321     -16874.305      1.0241947    
   1582000   305.88959      6.8255903      56203.833     -20347.97       3421.9808     -16925.989      1.0150101    
   1583000   299.5533       79.809105      55892.328     -20255.252      3351.0968     -16904.155      1.0206671    
   1584000   306.08436     -496.96119      55482.814     -20237.584      3424.1596     -16813.425      1.0282005    
   1585000   302.91452     -5.8883866      56090.345     -20245.944      3388.6987     -16857.245      1.0170638    
   1586000   308.13819      507.71042      55439.68      -20319.695      3447.1358     -16872.559      1.0290005    
   1587000   300.95068     -785.79433      55566.531     -20288.867      3366.7293     -16922.138      1.0266514    
   1588000   301.82862      190.15458      55926.647     -20182.696      3376.5507     -16806.145      1.0200407    
   1589000   295.33359      114.97522      55340.853     -20242.153      3303.891      -16938.262      1.0308381    
   1590000   303.87083      377.49545      55968.304     -20205.316      3399.3969     -16805.919      1.0192815    
   1591000   295.53614     -32.148208      55123.665     -20275.546      3306.157      -16969.389      1.0348996    
   1592000   303.85999     -327.24757      56040.804     -20190.107      3399.2757     -16790.831      1.0179629    
   1593000   296.75102      29.777498      55863.349     -20199.895      3319.7477     -16880.147      1.0211965    
   1594000   303.56442     -208.57857      56176.506     -20238.617      3395.9691     -16842.648      1.0155038    
   1595000   301.21478     -367.38351      56122.829     -20288.339      3369.6838     -16918.655      1.0164751    
   1596000   298.05771     -576.8506       56089.92      -20400.038      3334.3657     -17065.672      1.0170715    
   1597000   299.33447     -384.88066      55482.252     -20272.415      3348.6487     -16923.766      1.0282109    
   1598000   298.60445     -761.18435      56486.625     -20307.021      3340.4821     -16966.539      1.0099286    
   1599000   297.01808     -185.34854      55660.679     -20134.218      3322.7353     -16811.483      1.0249149    
   1600000   304.16434     -537.05615      55603.691     -20285.532      3402.6805     -16882.851      1.0259653    
   1601000   299.0655       224.55706      55897.252     -20222.383      3345.6398     -16876.743      1.0205771    
   1602000   298.38787      243.25174      56096.478     -20343.462      3338.0591     -17005.403      1.0169526    
   1603000   300.24744     -295.28761      55905.004     -20331.652      3358.8622     -16972.79       1.0204356    
   1604000   295.03288      502.79889      55578.916     -20286.127      3300.527      -16985.6        1.0264226    
   1605000   303.27314      306.89761      55759.309     -20232.915      3392.7106     -16840.204      1.0231019    
   1606000   300.0321      -907.97769      55600.565     -20242.77       3356.4531     -16886.316      1.026023     
   1607000   299.04696      220.47538      55116.321     -20227.478      3345.4324     -16882.046      1.0350375    
   1608000   298.40793      349.29995      55919.045     -20221.901      3338.2836     -16883.617      1.0201794    
   1609000   301.41575     -6.4057353      55757.505     -20213.572      3371.932      -16841.64       1.023135     
   1610000   295.83233      270.12461      56045.133     -20197.855      3309.4703     -16888.385      1.0178842    
   1611000   300.91053      233.80464      56007.716     -20163.875      3366.2801     -16797.595      1.0185643    
   1612000   306.56081      114.92515      54974.757     -20409.683      3429.4896     -16980.194      1.0377028    
   1613000   295.50949     -183.86824      55874.807     -20207.137      3305.8587     -16901.278      1.0209871    
   1614000   294.6296       401.07305      55443.988     -20198.649      3296.0154     -16902.634      1.0289205    
   1615000   296.07291      28.869497      55963.324     -20137.148      3312.1618     -16824.986      1.0193722    
   1616000   301.49645      646.65079      55744.804     -20267.114      3372.8347     -16894.279      1.0233682    
   1617000   301.56459      52.105937      55426.607     -20167.506      3373.5971     -16793.909      1.0292432    
   1618000   299.07869      89.968652      55440.063     -20152.165      3345.7873     -16806.378      1.0289934    
   1619000   299.34997      226.53937      55586.124     -20277.534      3348.8222     -16928.712      1.0262895    
   1620000   292.00428     -474.62346      56420.57      -20164.615      3266.6461     -16897.969      1.011111     
   1621000   304.54765     -519.58788      55561.379     -20140.792      3406.9685     -16733.824      1.0267466    
   1622000   297.27846      684.9105       55063.885     -20287.468      3325.6482     -16961.82       1.0360231    
   1623000   303.36852     -672.92091      55746.477     -20236.323      3393.7776     -16842.545      1.0233375    
   1624000   304.4493      -285.10926      55831.649     -20215.125      3405.8683     -16809.257      1.0217763    
   1625000   299.58878     -96.621117      55896.714     -20335.126      3351.4937     -16983.632      1.020587     
   1626000   298.57833     -500.06893      55435.634     -20258.953      3340.1898     -16918.763      1.0290756    
   1627000   299.80509     -254.73954      55443.743     -20222.261      3353.9136     -16868.348      1.0289251    
   1628000   302.52403      884.63257      55575.346     -20275.84       3384.3303     -16891.51       1.0264886    
   1629000   300.864       -632.29403      55920.852     -20260.852      3365.7596     -16895.093      1.0201464    
   1630000   299.79036      215.77522      55629.745     -20163.014      3353.7488     -16809.265      1.0254848    
   1631000   300.90257      377.36046      55895.485     -20158.788      3366.1911     -16792.597      1.0206094    
   1632000   297.98342     -578.20411      56078.391     -20258.94       3333.5346     -16925.406      1.0172806    
   1633000   292.91617     -753.77755      55989.339     -20279.402      3276.8473     -17002.555      1.0188986    
   1634000   303.86468      8.2778324      56187.161     -20316.104      3399.3282     -16916.776      1.0153113    
   1635000   300.39662     -229.99932      56677.283     -20237.563      3360.531      -16877.032      1.0065313    
   1636000   303.96134      294.55368      55945.034     -20210.657      3400.4095     -16810.248      1.0197055    
   1637000   299.17138     -515.55123      55989.814     -20201.438      3346.8243     -16854.614      1.0188899    
   1638000   298.88506      75.115498      55462.416     -20265.296      3343.6212     -16921.675      1.0285787    
   1639000   299.98648      157.37293      55207.113     -20282.538      3355.9428     -16926.596      1.0333353    
   1640000   297.05494      614.42237      56165.482     -20215.365      3323.1477     -16892.218      1.0157032    
   1641000   300.25472     -262.07209      55698.379     -20269.12       3358.9436     -16910.176      1.0242212    
   1642000   304.09311     -500.03477      56201.25      -20086.943      3401.8836     -16685.06       1.0150567    
   1643000   296.31556      617.63962      56074.292     -20156.766      3314.8762     -16841.89       1.0173549    
   1644000   299.93753     -162.55821      55693.648     -20226.187      3355.3952     -16870.792      1.0243081    
   1645000   294.05844     -680.60814      55588.025     -20194.157      3289.6259     -16904.531      1.0262544    
   1646000   302.46859     -864.73667      55640.714     -20294.707      3383.7101     -16910.997      1.0252826    
   1647000   302.96957      295.70552      55464.62      -20201.235      3389.3145     -16811.92       1.0285378    
   1648000   295.31603     -627.23504      55561.775     -20230.349      3303.6945     -16926.655      1.0267393    
   1649000   300.68007      104.25878      55845.485     -20217.31       3363.7019     -16853.609      1.0215232    
   1650000   302.70261      825.47689      55204.863     -20176.578      3386.3281     -16790.25       1.0333774    
   1651000   299.32681     -108.65393      55956         -20210.311      3348.5631     -16861.748      1.0195056    
   1652000   302.65816      693.07431      55818.254     -20179.906      3385.8308     -16794.075      1.0220215    
   1653000   306.33822      160.11523      55691.463     -20306.499      3426.9995     -16879.5        1.0243483    
   1654000   307.09075     -100.9526       55915.396     -20305.041      3435.4182     -16869.622      1.020246     
   1655000   297.28963      311.7299       55251.442     -20274.882      3325.7732     -16949.109      1.0325062    
   1656000   298.88769      545.47348      55539.781     -20338.862      3343.6507     -16995.212      1.0271459    
   1657000   294.39089      149.06558      55737.502     -20327.657      3293.345      -17034.312      1.0235022    
   1658000   294.38328      616.07656      55905.25      -20229.336      3293.2599     -16936.076      1.0204311    
   1659000   306.15307      29.135761      55871.292     -20283.844      3424.9284     -16858.915      1.0210513    
   1660000   298.84279     -516.02104      56103.853     -20139.415      3343.1484     -16796.266      1.0168189    
   1661000   298.24666      710.93764      55095.02      -20314.569      3336.4795     -16978.09       1.0354376    
   1662000   294.03133     -583.93738      56193.359     -20287.437      3289.3227     -16998.114      1.0151993    
   1663000   302.25713     -290.83676      56043.31      -20300.17       3381.3445     -16918.826      1.0179173    
   1664000   294.42163      168.5459       55609.688     -20385.814      3293.6889     -17092.125      1.0258547    
   1665000   302.32245      59.636057      55593.371     -20318.713      3382.0752     -16936.638      1.0261558    
   1666000   298.06712      598.98307      55861.182     -20315.642      3334.4709     -16981.171      1.0212361    
   1667000   296.63382      381.58042      55067.606     -20180.342      3318.4366     -16861.905      1.0359531    
   1668000   305.16353     -255.0362       55679.08      -20308.331      3413.8583     -16894.473      1.0245762    
   1669000   299.92453      30.936768      56253.638     -20292.92       3355.2497     -16937.67       1.0141114    
   1670000   299.42295      63.420096      55648.525     -20214.838      3349.6386     -16865.199      1.0251387    
   1671000   302.37742      269.6447       55931.818     -20141.34       3382.6902     -16758.649      1.0199464    
   1672000   299.43323      525.31171      55432.185     -20375.051      3349.7536     -17025.297      1.0291396    
   1673000   300.55447     -68.356556      55780.294     -20163.969      3362.2969     -16801.672      1.0227171    
   1674000   298.51202      700.10302      54965.563     -20260.371      3339.448      -16920.923      1.0378764    
   1675000   295.42456      725.07062      55841.307     -20135.603      3304.9087     -16830.694      1.0215996    
   1676000   302.68279     -283.92083      55611.633     -20246.936      3386.1063     -16860.829      1.0258188    
   1677000   304.00616     -158.71375      55660.715     -20376.103      3400.9109     -16975.193      1.0249142    
   1678000   304.68584     -85.286892      56062.723     -20165.694      3408.5144     -16757.18       1.0175649    
   1679000   300.05759     -368.49874      56252.25      -20128.702      3356.7383     -16771.964      1.0141365    
   1680000   297.09759      170.68846      55943.333     -20316.387      3323.6248     -16992.763      1.0197365    
   1681000   292.45692      565.4714       55758.596     -20138.461      3271.7098     -16866.751      1.023115     
   1682000   305.90694     -356.02263      55939.134     -20194.319      3422.1748     -16772.144      1.019813     
   1683000   301.58569      1214.5762      54971.316     -20290.843      3373.8331     -16917.01       1.0377677    
   1684000   300.55186      93.241414      56016.654     -20173.628      3362.2677     -16811.36       1.0184017    
   1685000   292.90908      175.61659      55737.628     -20255.754      3276.7681     -16978.986      1.0234999    
   1686000   300.87698     -1025.9401      56372.313     -20114.342      3365.9048     -16748.438      1.0119765    
   1687000   293.63364     -181.4408       56439.625     -20213.029      3284.8736     -16928.156      1.0107696    
   1688000   306.94412      305.98746      55542.17      -20420.23       3433.7778     -16986.452      1.0271017    
   1689000   300.25578     -643.62716      56149.742     -20371.231      3358.9555     -17012.276      1.0159879    
   1690000   302.05346      696.03172      55560.286     -20270.5        3379.0661     -16891.434      1.0267668    
   1691000   299.12766      8.9932539      55916.557     -20209.358      3346.3352     -16863.023      1.0202248    
   1692000   298.2238      -765.54785      56268.099     -20194.355      3336.2237     -16858.131      1.0138508    
   1693000   308.25957      518.13316      55744.114     -20298.539      3448.4937     -16850.046      1.0233808    
   1694000   295.11255      413.82775      55665.057     -20272.449      3301.4182     -16971.03       1.0248343    
   1695000   304.86265      37.802889      56178.916     -20307.961      3410.4924     -16897.468      1.0154603    
   1696000   301.6227      -633.06524      55542.538     -20324.447      3374.2471     -16950.199      1.0270949    
   1697000   294.02264     -267.63073      55860.177     -20137.249      3289.2255     -16848.023      1.0212545    
   1698000   301.571       -1.6942258      56094.145     -20280.299      3373.6688     -16906.63       1.0169949    
   1699000   297.42783      381.24168      55975.029     -20198.585      3327.3192     -16871.265      1.0191591    
   1700000   304.07616     -345.8469       55702.117     -20234.488      3401.694      -16832.794      1.0241524    
   1701000   299.89216      724.84193      55722.021     -20307.212      3354.8876     -16952.324      1.0237866    
   1702000   296.96273      383.05549      54818.357     -20214.73       3322.1162     -16892.614      1.0406634    
   1703000   301.93711     -931.08645      55310.945     -20202.565      3377.7645     -16824.8        1.0313955    
   1704000   303.93497      57.020337      56161.76      -20263.187      3400.1144     -16863.073      1.0157705    
   1705000   299.40604      358.5566       55456.938     -20387.48       3349.4494     -17038.031      1.0286803    
   1706000   303.35881      665.33242      56129.102     -20134.937      3393.669      -16741.268      1.0163615    
   1707000   291.92154      68.535324      55593.935     -20189.849      3265.7204     -16924.129      1.0261453    
   1708000   296.54505     -488.26457      55810.5       -20079.934      3317.4436     -16762.49       1.0221635    
   1709000   295.62912     -761.9387       55597.991     -20250.933      3307.1971     -16943.736      1.0260705    
   1710000   304.41332     -31.944054      55675.781     -20221.175      3405.4658     -16815.709      1.0246369    
   1711000   303.42438      523.35765      55330.186     -20408.904      3394.4025     -17014.502      1.0310368    
   1712000   291.41887      571.19078      55615.782     -20135.723      3260.097      -16875.626      1.0257422    
   1713000   302.15649      629.20236      55562.457     -20204.873      3380.2186     -16824.655      1.0267267    
   1714000   302.61039     -266.0964       55845.351     -20270.279      3385.2964     -16884.983      1.0215256    
   1715000   304.42697      304.04491      54973.609     -20196.251      3405.6185     -16790.632      1.0377244    
   1716000   301.63304      117.3582       55610.117     -20191.112      3374.3628     -16816.749      1.0258467    
   1717000   300.59343      416.55513      55917.992     -20209.872      3362.7327     -16847.14       1.0201986    
   1718000   302.67644      332.37377      56109.545     -20176.922      3386.0353     -16790.887      1.0167157    
   1719000   302.78401     -245.76134      56024.878     -20302.44       3387.2387     -16915.202      1.0182522    
   1720000   303.20301      371.51244      55614.215     -20356.075      3391.9261     -16964.149      1.0257712    
   1721000   301.48788      509.62658      55162.039     -20348.68       3372.7389     -16975.941      1.0341796    
   1722000   297.91302     -52.459938      55564.682     -20238.22       3332.7471     -16905.473      1.0266856    
   1723000   300.95339      120.77488      55954.255     -20137.579      3366.7596     -16770.82       1.0195374    
   1724000   298.29055      120.55002      55709.953     -20274.448      3336.9704     -16937.477      1.0240084    
   1725000   295.18772      719.14514      55237.519     -20429.364      3302.2592     -17127.105      1.0327665    
   1726000   300.96645     -133.87944      55229.13      -20345.295      3366.9057     -16978.389      1.0329233    
   1727000   299.5217       708.42626      55607.732     -20213.631      3350.7433     -16862.887      1.0258907    
   1728000   297.23732     -83.963487      55671.642     -20298.42       3325.188      -16973.232      1.024713     
   1729000   304.09456      256.54642      55373.139     -20275.565      3401.8998     -16873.665      1.030237     
   1730000   310.30481     -979.44829      56226.341     -20275.711      3471.3737     -16804.338      1.0146038    
   1731000   299.25899      435.43922      56112.718     -20315.125      3347.8044     -16967.321      1.0166582    
   1732000   301.981       -63.400442      55649.658     -20276.803      3378.2554     -16898.547      1.0251178    
   1733000   300.24135     -671.44486      55764.538     -20266.966      3358.794      -16908.172      1.023006     
   1734000   302.99465      155.44372      55820.702     -20229.017      3389.5951     -16839.422      1.0219767    
   1735000   301.51568      61.328673      56403.56      -20268.321      3373.0499     -16895.271      1.0114159    
   1736000   299.70247     -401.67632      56215.294     -20195.27       3352.7656     -16842.504      1.0148032    
   1737000   301.68976     -302.04503      55708.175     -20184.627      3374.9973     -16809.63       1.024041     
   1738000   297.945        374.60312      55284.036     -20252.899      3333.1048     -16919.795      1.0318975    
   1739000   301.60647      155.0107       55540.844     -20218.115      3374.0656     -16844.049      1.0271262    
   1740000   302.98335      561.24638      55480.894     -20310.203      3389.4687     -16920.734      1.0282361    
   1741000   298.85776     -931.90713      55697.576     -20281.177      3343.3159     -16937.861      1.0242359    
   1742000   303.95542     -355.0322       55959.195     -20202.232      3400.3432     -16801.888      1.0194474    
   1743000   298.12923      148.10894      55708.724     -20363.624      3335.1658     -17028.458      1.024031     
   1744000   298.72991     -105.70321      55170.702     -20309.987      3341.8855     -16968.101      1.0340173    
   1745000   300.70553     -237.06898      55565.904     -20178.029      3363.9868     -16814.042      1.026663     
   1746000   302.76133      30.104807      55339.323     -20275.906      3386.9849     -16888.921      1.0308666    
   1747000   293.97555      99.017745      55156.706     -20170.946      3288.6987     -16882.247      1.0342796    
   1748000   299.03572      194.27803      55144.732     -20191.092      3345.3066     -16845.785      1.0345042    
   1749000   296.88628      513.74928      55295.007     -20260.608      3321.2609     -16939.347      1.0316927    
   1750000   298.3863       335.84983      55809.561     -20215.485      3338.0416     -16877.443      1.0221807    
   1751000   295.77123     -422.38335      55725.082     -20202.793      3308.7869     -16894.006      1.0237303    
   1752000   301.0073       203.59489      55716.306     -20168.89       3367.3627     -16801.527      1.0238916    
   1753000   302.03792     -877.17993      55833.127     -20082.031      3378.8922     -16703.139      1.0217493    
   1754000   293.98981      40.300074      55849.82      -20275.545      3288.8582     -16986.686      1.0214439    
   1755000   303.4049      -98.621129      55543.06      -20261.46       3394.1846     -16867.276      1.0270853    
   1756000   303.78607      450.78342      55854.498     -20201.199      3398.4488     -16802.751      1.0213583    
   1757000   300.52406     -39.857273      55997.949     -20167.485      3361.9567     -16805.528      1.0187419    
   1758000   303.78805      1108.1644      55369.484     -20321.861      3398.4709     -16923.39       1.030305     
   1759000   304.22547      70.003485      55700.986     -20281.856      3403.3643     -16878.492      1.0241732    
   1760000   305.84367      7.5628472      55331.307     -20368.129      3421.4671     -16946.662      1.0310159    
   1761000   299.12948     -129.84489      55634.349     -20361.63       3346.3556     -17015.275      1.0253999    
   1762000   295.73227     -620.54423      55685.585     -20243.187      3308.351      -16934.836      1.0244565    
   1763000   296.59915      31.60669       55930.234     -20194.144      3318.0488     -16876.095      1.0199753    
   1764000   294.58689      396.39242      54997.517     -20270.895      3295.5377     -16975.357      1.0372733    
   1765000   306.17545      353.97888      55721.754     -20200.072      3425.1787     -16774.894      1.0237915    
   1766000   302.23916      168.0555       55841.489     -20356.388      3381.1435     -16975.244      1.0215963    
   1767000   301.70502     -47.996483      56105.968     -20276.705      3375.1681     -16901.537      1.0167806    
   1768000   301.70674     -24.499971      55696.573     -20260.147      3375.1873     -16884.96       1.0242544    
   1769000   296.21325     -338.94161      55430.722     -20303.127      3313.7317     -16989.395      1.0291668    
   1770000   298.75426     -404.45094      55311.244     -20216.091      3342.158      -16873.933      1.0313899    
   1771000   298.80313      59.614804      55433.732     -20279.575      3342.7046     -16936.871      1.0291109    
   1772000   300.00929      411.78883      55538.755     -20233.634      3356.1979     -16877.436      1.0271649    
   1773000   304.05966     -449.28924      56708.108     -20119.247      3401.5094     -16717.738      1.0059842    
   1774000   298.40035      272.45931      55254.023     -20240.025      3338.1988     -16901.826      1.032458     
   1775000   300.83032     -319.86098      55861.554     -20245.699      3365.3828     -16880.317      1.0212293    
   1776000   299.12407      884.26704      55342.815     -20168.395      3346.295      -16822.1        1.0308015    
   1777000   303.38658     -168.94275      55723.563     -20132.513      3393.9796     -16738.533      1.0237583    
   1778000   298.72202     -22.655793      55648.881     -20179.128      3341.7973     -16837.331      1.0251322    
   1779000   306.36455     -135.26724      55891.713     -20272.847      3427.2941     -16845.552      1.0206783    
   1780000   300.38474      212.36923      56233.02      -20140.101      3360.3981     -16779.703      1.0144833    
   1781000   305.45343     -109.7077       55589.657     -20224.901      3417.1015     -16807.8        1.0262243    
   1782000   303.73231      136.30031      56043.428     -20191.177      3397.8473     -16793.329      1.0179152    
   1783000   295.57485     -156.48427      55293.871     -20359.415      3306.59       -17052.825      1.0317139    
   1784000   294.72319      241.30739      56247.87      -20210.719      3297.0625     -16913.656      1.0142154    
   1785000   300.89838     -799.14537      55572.577     -20283.89       3366.1442     -16917.745      1.0265397    
   1786000   300.2263       420.84982      55423.827     -20226.971      3358.6256     -16868.345      1.0292948    
   1787000   295.19962      357.1345       55995.911     -20145.85       3302.3923     -16843.458      1.018779     
   1788000   305.95405      530.45655      56179.157     -20244.964      3422.7019     -16822.262      1.0154559    
   1789000   300.45423     -260.64914      55927.754     -20226.459      3361.1755     -16865.283      1.0200205    
   1790000   306.45831      746.32359      55491.099     -20159.053      3428.343      -16730.71       1.028047     
   1791000   299.42684      133.78398      55311.089     -20263.072      3349.6821     -16913.39       1.0313928    
   1792000   301.72634      546.25786      55886.113     -20083.807      3375.4066     -16708.401      1.0207806    
   1793000   295.6874      -326.43763      55963.264     -20199.093      3307.849      -16891.244      1.0193733    
   1794000   298.11784     -240.3021       55926.71      -20171.633      3335.0383     -16836.595      1.0200396    
   1795000   295.00969      482.23222      56481.105     -20108.628      3300.2676     -16808.361      1.0100273    
   1796000   304.46625      416.39713      55805.982     -20083.003      3406.0579     -16676.945      1.0222463    
   1797000   293.65884      19.501531      55675.127     -20248.184      3285.1556     -16963.028      1.0246489    
   1798000   298.9913       269.19038      56127.064     -20201.294      3344.8097     -16856.485      1.0163984    
   1799000   297.37365      115.51101      56358.379     -20171.638      3326.7131     -16844.925      1.0122267    
   1800000   300.4882       394.0573       55936.407     -20310.996      3361.5555     -16949.441      1.0198627    
   1801000   299.58538      348.11664      55843.308     -20270.986      3351.4556     -16919.53       1.021563     
   1802000   305.91239      1123.607       55189.015     -20356.96       3422.2358     -16934.724      1.0336741    
   1803000   290.96061     -84.68158       55852.079     -20207.903      3254.9705     -16952.933      1.0214026    
   1804000   302.04505     -191.07438      56318.336     -20129.406      3378.972      -16750.434      1.0129464    
   1805000   294.12802      98.696004      55086.656     -20275.597      3290.4044     -16985.193      1.0355949    
   1806000   309.42849     -653.78774      55593.352     -20272.696      3461.5704     -16811.126      1.0261561    
   1807000   299.72155     -100.44229      55679.023     -20278.913      3352.979      -16925.934      1.0245772    
   1808000   299.07743     -369.27432      56231.155     -20264.124      3345.7732     -16918.351      1.0145169    
   1809000   299.01921     -375.35074      56479.52      -20234          3345.122      -16888.878      1.0100556    
   1810000   302.14891      413.2484       55275.019     -20324.244      3380.1338     -16944.11       1.0320658    
   1811000   303.66145     -382.03441      55556.406     -20367.4        3397.0546     -16970.346      1.0268385    
   1812000   301.16278      181.11226      55663.172     -20345.959      3369.102      -16976.857      1.024869     
   1813000   294.46625     -309.79874      55498.964     -20230.558      3294.1881     -16936.37       1.0279013    
   1814000   300.98993      833.55469      55435.458     -20281.708      3367.1684     -16914.54       1.0290789    
   1815000   299.1718       125.38556      56036.366     -20308.346      3346.829      -16961.518      1.0180435    
   1816000   304.85414      342.05991      55588.464     -20135.312      3410.3972     -16724.915      1.0262463    
   1817000   300.4879      -205.38567      55990.534     -20314.181      3361.5521     -16952.629      1.0188768    
   1818000   302.67174     -134.31144      55535.32      -20311.111      3385.9827     -16925.128      1.0272284    
   1819000   305.60311     -527.54747      56314.071     -20214.407      3418.776      -16795.631      1.0130232    
   1820000   297.70953     -813.68795      55467.234     -20080.664      3330.4705     -16750.194      1.0284893    
   1821000   298.46793      108.16399      55630.418     -20248.77       3338.9548     -16909.815      1.0254724    
   1822000   291.24079      1474.6043      55135.697     -20196.584      3258.1049     -16938.48       1.0346737    
   1823000   300.20749     -526.73051      55843.336     -20268.523      3358.4152     -16910.107      1.0215625    
   1824000   299.46739      457.70399      56219.915     -20302.81       3350.1358     -16952.674      1.0147197    
   1825000   297.69095     -233.33596      55418.853     -20256.755      3330.2628     -16926.492      1.0293872    
   1826000   302.30441      240.28347      55788.991     -20237.625      3381.8734     -16855.751      1.0225576    
   1827000   297.3553      -221.95298      55915.642     -20211.073      3326.5078     -16884.565      1.0202415    
   1828000   296.81411      142.74387      55418.887     -20218.47       3320.4535     -16898.017      1.0293866    
   1829000   295.95655     -104.69964      55257.67      -20290.282      3310.8601     -16979.422      1.0323898    
   1830000   296.9587      -38.690891      55400.889     -20341.084      3322.071      -17019.013      1.029721     
   1831000   300.06254     -339.39692      55835.062     -20192.59       3356.7937     -16835.796      1.0217139    
   1832000   305.6048       679.11749      55299.788     -20120.337      3418.7949     -16701.542      1.0316036    
   1833000   298.72963     -688.10222      56182.934     -20301.648      3341.8824     -16959.765      1.0153877    
   1834000   299.40371     -313.06998      55773.047     -20246.048      3349.4233     -16896.625      1.0228499    
   1835000   297.21512      162.59645      56054.53      -20192.171      3324.9396     -16867.231      1.0177136    
   1836000   297.90051      751.09309      55786.946     -20254.762      3332.6071     -16922.155      1.0225951    
   1837000   300.50669      958.4618       55939.731     -20301.467      3361.7624     -16939.705      1.0198021    
   1838000   299.04871      4.6137986      55766.784     -20282.204      3345.452      -16936.752      1.0229648    
   1839000   297.99254      587.13253      56173.886     -20213.565      3333.6367     -16879.928      1.0155512    
   1840000   296.04271     -182.6243       55654.489     -20248.888      3311.8239     -16937.065      1.0250289    
   1841000   299.84523     -280.61366      55467.409     -20209.766      3354.3627     -16855.403      1.0284861    
   1842000   309.49025     -9.4328737      56262.763     -20105.224      3462.2613     -16642.962      1.013947     
   1843000   296.77143     -361.16889      55215.844     -20344.99       3319.9761     -17025.014      1.0331719    
   1844000   299.13727     -771.29515      56115.037     -20269.569      3346.4427     -16923.126      1.0166162    
   1845000   302.51192     -585.22198      55817.017     -20349.916      3384.1948     -16965.721      1.0220442    
   1846000   299.77163     -447.54213      55711.09      -20268.814      3353.5393     -16915.274      1.0239875    
   1847000   298.75933     -658.05913      56179.675     -20213.911      3342.2147     -16871.696      1.0154466    
   1848000   295.48798      272.46019      55318.606     -20266.132      3305.6181     -16960.514      1.0312526    
   1849000   298.83452      272.4594       55673.69      -20368.797      3343.0558     -17025.741      1.0246753    
   1850000   294.90808      15.072659      56240.11      -20232.064      3299.1309     -16932.933      1.0143554    
   1851000   300.26593      322.43389      55264.527     -20098.851      3359.069      -16739.782      1.0322618    
   1852000   298.89162      248.61115      55582.056     -20163.996      3343.6946     -16820.301      1.0263647    
   1853000   299.3165       210.84022      56099.077     -20266.612      3348.4478     -16918.164      1.0169055    
   1854000   297.40446     -131.99609      55872.491     -20338.989      3327.0578     -17011.931      1.0210294    
   1855000   305.54399     -587.26561      56318.636     -20279.903      3418.1146     -16861.789      1.012941     
   1856000   295.50496      546.58051      55871.956     -20253.749      3305.8081     -16947.941      1.0210392    
   1857000   293.13917     -562.26972      56300.981     -20263.409      3279.342      -16984.067      1.0132587    
   1858000   303.27876      844.53634      55745.788     -20239.899      3392.7735     -16847.125      1.0233501    
   1859000   296.97854      626.58022      55007.681     -20340.679      3322.2931     -17018.386      1.0370817    
   1860000   307.66778      1017.5567      55981.513     -20283.863      3441.8734     -16841.989      1.019041     
   1861000   296.01295      303.93087      56168.875     -20379.342      3311.4909     -17067.851      1.0156418    
   1862000   303.32156      283.71947      55951.856     -20170.338      3393.2523     -16777.086      1.0195812    
   1863000   302.8442       232.34906      55774.311     -20310.087      3387.912      -16922.175      1.0228268    
   1864000   301.18838      272.71971      55621.823     -20188.369      3369.3884     -16818.98       1.0256309    
   1865000   304.70934      1004.928       55652.217     -20222.903      3408.7774     -16814.125      1.0250707    
   1866000   294.24558     -326.88662      55916.711     -20116.42       3291.7194     -16824.701      1.020222     
   1867000   301.82775      292.94481      56448.214     -20187.523      3376.5411     -16810.982      1.0106158    
   1868000   302.33975      30.553073      55580.092     -20162.082      3382.2688     -16779.813      1.0264009    
   1869000   298.77302      43.307126      55585.957     -20406.525      3342.3678     -17064.157      1.0262926    
   1870000   300.81419     -744.57152      55737.001     -20309.428      3365.2024     -16944.226      1.0235114    
   1871000   299.16933      398.55401      55729.731     -20080.358      3346.8013     -16733.557      1.0236449    
   1872000   298.18772      308.74636      55721.327     -20261.818      3335.8201     -16925.998      1.0237993    
   1873000   304.09136      45.88746       55911.18      -20230.17       3401.864      -16828.306      1.0203229    
   1874000   306.52499     -387.83882      55730.483     -20246.806      3429.089      -16817.717      1.0236311    
   1875000   299.20895      230.09239      55588.773     -20139.205      3347.2445     -16791.96       1.0262406    
   1876000   293.4753       693.10295      55634.92      -20300.078      3283.1024     -17016.976      1.0253894    
   1877000   300.7337       14.539964      56064.361     -20251.976      3364.3019     -16887.674      1.0175351    
   1878000   300.28977     -34.241037      56115.332     -20373.237      3359.3357     -17013.901      1.0166109    
   1879000   300.74548      564.15516      55652.924     -20323.245      3364.4338     -16958.811      1.0250577    
   1880000   305.23616     -185.87577      55385.085     -20317.975      3414.6708     -16903.304      1.0300148    
   1881000   294.64438      165.05706      56178.069     -20123.911      3296.1808     -16827.73       1.0154756    
   1882000   304.63171     -57.344378      55978.938     -20268.792      3407.9088     -16860.883      1.0190879    
   1883000   299.08056      230.8971       55966.956     -20199.192      3345.8083     -16853.384      1.0193061    
   1884000   299.78283      50.639386      55960.209     -20311.184      3353.6646     -16957.52       1.019429     
   1885000   309.57143     -41.969349      56010.657     -20251.889      3463.1694     -16788.72       1.0185108    
   1886000   297.18062     -104.35398      55491.974     -20263.817      3324.5537     -16939.264      1.0280308    
   1887000   299.64018      940.08109      55430.166     -20318.492      3352.0688     -16966.423      1.0291771    
   1888000   293.19587      355.08817      55601.679     -20250.313      3279.9763     -16970.337      1.0260024    
   1889000   312.33224      355.79296      55640.836     -20322.733      3494.0546     -16828.679      1.0252804    
   1890000   303.5063       135.84194      55781.769     -20065.629      3395.3189     -16670.31       1.02269      
   1891000   293.97311      234.54903      55662.841     -20058.959      3288.6713     -16770.288      1.0248751    
   1892000   301.53216     -414.40629      55671.39      -20257.836      3373.2343     -16884.602      1.0247177    
   1893000   298.10241      118.94349      55616.496     -20223.449      3334.8657     -16888.583      1.0257291    
   1894000   305.44094     -743.10126      56145.578     -20250.149      3416.9617     -16833.188      1.0160632    
   1895000   294.77471     -878.74432      55622.108     -20306.917      3297.6388     -17009.278      1.0256256    
   1896000   305.08059     -155.19206      55181.712     -20267.822      3412.9305     -16854.892      1.0338109    
   1897000   297.16212     -116.28564      55737.892     -20288.322      3324.3467     -16963.975      1.0234951    
   1898000   296.11427     -473.5484       56123.747     -20189.657      3312.6244     -16877.033      1.0164585    
   1899000   300.91816     -477.63371      56038.455     -20209.602      3366.3655     -16843.237      1.0180055    
   1900000   290.2798       403.31777      55933.036     -20093.518      3247.3544     -16846.164      1.0199242    
   1901000   298.8971       256.76157      55855.617     -20214.112      3343.7559     -16870.356      1.0213379    
   1902000   300.52157      20.024128      55766.028     -20229.821      3361.9289     -16867.892      1.0229787    
   1903000   298.51093     -88.178594      56261.862     -20273.266      3339.4358     -16933.83       1.0139632    
   1904000   299.72775      313.02831      55855.99      -20258.38       3353.0484     -16905.332      1.0213311    
   1905000   300.4585       206.71999      55829.805     -20226.487      3361.2232     -16865.264      1.0218101    
   1906000   298.1654      -218.1115       56329.315     -20183.06       3335.5704     -16847.489      1.012749     
   1907000   300.63708     -90.685822      56034.241     -20178.855      3363.2211     -16815.634      1.0180821    
   1908000   301.57684      288.01402      56000.22      -20201.37       3373.7341     -16827.636      1.0187006    
   1909000   294.71541     -155.79221      56282.006     -20113.821      3296.9755     -16816.845      1.0136003    
   1910000   306.43935      362.80029      55823.132     -20137.109      3428.1309     -16708.978      1.0219322    
   1911000   302.76358      358.01806      55542.622     -20327.032      3387.0101     -16940.022      1.0270934    
   1912000   298.62701      679.47143      55558.487     -20303.621      3340.7344     -16962.886      1.0268001    
   1913000   300.62553     -17.51021       56037.544     -20240.383      3363.0918     -16877.292      1.0180221    
   1914000   298.88785     -94.098709      55861.912     -20217.425      3343.6525     -16873.772      1.0212228    
   1915000   302.85186      332.033        55842.848     -20226.553      3387.9977     -16838.555      1.0215714    
   1916000   296.23552      151.65634      55877.814     -20214.439      3313.9809     -16900.458      1.0209322    
   1917000   296.7821      -954.95952      55892.028     -20316.79       3320.0954     -16996.695      1.0206725    
   1918000   300.86088     -83.475032      55520.51      -20195.311      3365.7247     -16829.586      1.0275024    
   1919000   302.67429     -366.63288      55735.27      -20221.93       3386.0113     -16835.918      1.0235432    
   1920000   302.46304     -353.43888      55736.45      -20335.193      3383.648      -16951.545      1.0235215    
   1921000   308.11943     -761.44823      55963.092     -20175.536      3446.926      -16728.61       1.0193764    
   1922000   301.01796      258.1767       56020.811     -20177.779      3367.4819     -16810.297      1.0183262    
   1923000   306.0209       713.68283      55999.283     -20264.026      3423.4497     -16840.576      1.0187177    
   1924000   295.93911     -310.2756       55963.063     -20158.569      3310.6649     -16847.904      1.019377     
   1925000   300.88411      85.916194      55905.24      -20256.3        3365.9846     -16890.316      1.0204313    
   1926000   298.33221      488.58867      55895.991     -20185.512      3337.4365     -16848.075      1.0206002    
   1927000   295.83231      265.89373      55608.247     -20273.632      3309.4702     -16964.162      1.0258813    
   1928000   303.2254      -645.13862      55926.149     -20124.612      3392.1765     -16732.435      1.0200498    
   1929000   305.86812     -85.999318      55486.706     -20330.981      3421.7405     -16909.241      1.0281284    
   1930000   292.05035     -123.23829      55690.104     -20306.284      3267.1614     -17039.122      1.0243733    
   1931000   303.34661      123.92473      55821.593     -20240.689      3393.5325     -16847.156      1.0219604    
   1932000   301.03127      427.16332      55689.925     -20263.455      3367.6308     -16895.824      1.0243766    
   1933000   294.80848      608.51875      56286.589     -20260.454      3298.0166     -16962.437      1.0135178    
   1934000   293.64416      198.3256       55695.442     -20275.092      3284.9914     -16990.101      1.0242752    
   1935000   302.83041      433.58387      55633.261     -20230.161      3387.7578     -16842.403      1.02542      
   1936000   298.1426      -141.90594      55381.429     -20370.126      3335.3153     -17034.81       1.0300828    
   1937000   299.54759      410.00893      55746.478     -20154.008      3351.0329     -16802.975      1.0233374    
   1938000   300.07787      818.33993      54786.472     -20239.253      3356.9652     -16882.288      1.041269     
   1939000   304.34562     -702.40445      55953.628     -20146.723      3404.7084     -16742.015      1.0195489    
   1940000   298.18539     -820.96275      56500.987     -20149.924      3335.7941     -16814.13       1.0096719    
   1941000   300.88066     -1459.3578      55516.703     -20171.052      3365.9459     -16805.106      1.0275729    
   1942000   303.24185     -8.0132104      55887.842     -20205.724      3392.3606     -16813.364      1.020749     
   1943000   301.38382     -442.08284      56041.546     -20233.17       3371.5748     -16861.595      1.0179494    
   1944000   305.67191      24.889157      55593.443     -20178.386      3419.5455     -16758.84       1.0261544    
   1945000   297.14014     -831.92881      55531.439     -20179.768      3324.1008     -16855.667      1.0273002    
   1946000   301.66118      373.33576      56070.204     -20126.383      3374.6777     -16751.705      1.0174291    
   1947000   304.24087     -795.29143      55929.397     -20228.998      3403.5366     -16825.462      1.0199906    
   1948000   297.91517      303.91069      55486.282     -20201.194      3332.7711     -16868.423      1.0281362    
   1949000   301.34744      494.01792      55724.692     -20181.302      3371.1678     -16810.134      1.0237375    
   1950000   294.37904      354.59246      55825.093     -20083.893      3293.2125     -16790.68       1.0218963    
   1951000   303.36268     -35.716046      55819         -20361.64       3393.7122     -16967.928      1.0220079    
   1952000   303.23586      342.50449      55958.073     -20154.14       3392.2935     -16761.846      1.0194679    
   1953000   296.70159      146.39981      55610.862     -20229.93       3319.1947     -16910.735      1.025833     
   1954000   302.99105     -370.93721      55485.578     -20260.846      3389.5549     -16871.292      1.0281493    
   1955000   296.39035     -113.37567      55423.557     -20222.384      3315.7129     -16906.671      1.0292998    
   1956000   300.97053     -58.06146       55702.547     -20207.295      3366.9513     -16840.344      1.0241445    
   1957000   295.90796     -96.77909       55266.223     -20336.655      3310.3165     -17026.339      1.0322301    
   1958000   299.26095      216.75123      55296.789     -20220.905      3347.8263     -16873.079      1.0316595    
   1959000   304.09085     -564.13124      55826.295     -20286.981      3401.8583     -16885.122      1.0218743    
   1960000   302.0666      -147.04805      55758.007     -20407.759      3379.213      -17028.546      1.0231258    
   1961000   297.19843      392.38658      55727.058     -20393.94       3324.753      -17069.187      1.0236941    
   1962000   300.68565      122.20712      55830.971     -20277.258      3363.7644     -16913.493      1.0217887    
   1963000   297.30171      378.95286      55708.039     -20305.114      3325.9083     -16979.206      1.0240435    
   1964000   300.1414       196.00321      55787.419     -20201.162      3357.6759     -16843.486      1.0225864    
   1965000   298.52826     -86.882269      55820.976     -20226.976      3339.6297     -16887.346      1.0219717    
   1966000   302.36289     -240.49673      55899.008     -20168.456      3382.5277     -16785.928      1.0205451    
   1967000   296.65583     -267.12185      56019.895     -20120.955      3318.6829     -16802.272      1.0183428    
   1968000   304.09948     -1117.2305      55998.625     -20206.989      3401.9549     -16805.034      1.0187296    
   1969000   299.99746      48.546761      55843.323     -20289.313      3356.0656     -16933.247      1.0215627    
   1970000   300.09528     -21.25604       55569.873     -20331.761      3357.16       -16974.602      1.0265897    
   1971000   300.81551      329.59195      55423.049     -20137.72       3365.2172     -16772.503      1.0293093    
   1972000   297.38646      358.95979      55821.712     -20333.083      3326.8564     -17006.226      1.0219582    
   1973000   294.37575      149.06641      55761.721     -20262.451      3293.1756     -16969.275      1.0230577    
   1974000   300.91025      398.20452      55588.839     -20340.466      3366.2769     -16974.189      1.0262394    
   1975000   301.20351     -804.75699      56004.839     -20375.858      3369.5577     -17006.3        1.0186166    
   1976000   289.43414      241.30044      55640.266     -20205.435      3237.894      -16967.541      1.0252909    
   1977000   296.8481      -506.62009      55922.654     -20356.106      3320.8338     -17035.272      1.0201136    
   1978000   299.90411      237.20712      55610.959     -20177.445      3355.0213     -16822.423      1.0258312    
   1979000   299.24454      525.23073      56114.624     -20239.415      3347.6427     -16891.772      1.0166237    
   1980000   303.33205     -582.18538      55790.995     -20349.645      3393.3696     -16956.276      1.0225209    
   1981000   303.12268      362.63563      56137.974     -20268.198      3391.0274     -16877.171      1.0162009    
   1982000   302.14991      23.95467       56039.729     -20260.09       3380.145      -16879.945      1.0179824    
   1983000   298.33809     -412.20761      56151.993     -20342.329      3337.5023     -17004.826      1.0159472    
   1984000   305.80375      43.448025      55935.904     -20223.185      3421.0204     -16802.164      1.0198719    
   1985000   302.5276       509.91003      55439.964     -20250.493      3384.3703     -16866.123      1.0289952    
   1986000   306.49665     -280.74424      55217.396     -20154.234      3428.772      -16725.462      1.0331428    
   1987000   301.06075     -272.12596      56094.75      -20329.462      3367.9606     -16961.501      1.0169839    
   1988000   301.90277      54.643965      55539.321     -20164.731      3377.3803     -16787.351      1.0271544    
   1989000   302.29129     -316.79161      56031.052     -20214.436      3381.7267     -16832.71       1.01814      
   1990000   305.88986      327.7109       56128.978     -20321.887      3421.9837     -16899.903      1.0163637    
   1991000   302.54877      380.2709       55865.028     -20157.678      3384.607      -16773.071      1.0211658    
   1992000   305.29139     -453.8712       56040.955     -20244.508      3415.2887     -16829.22       1.0179601    
   1993000   296.71809      347.34686      55637.141     -20150.907      3319.3794     -16831.528      1.0253485    
   1994000   305.95348      151.34806      55640.946     -20153.153      3422.6955     -16730.457      1.0252784    
   1995000   300.16653      441.5061       56101.095     -20202.29       3357.957      -16844.333      1.0168689    
   1996000   293.1158       135.54826      55814.579     -20194.384      3279.0806     -16915.304      1.0220888    
   1997000   297.95665     -502.10954      55654.592     -20173.858      3333.2351     -16840.623      1.025027     
   1998000   293.32867     -652.72961      55953.113     -20333.053      3281.462      -17051.591      1.0195582    
   1999000   300.85918      121.4822       55967.66      -20192.06       3365.7057     -16826.354      1.0192932    
   2000000   298.09975      266.40413      55638.568     -20250.872      3334.8359     -16916.036      1.0253222    
   2001000   299.48424     -500.88333      56218.454     -20119.852      3350.3243     -16769.528      1.0147461    
   2002000   308.60415     -302.01548      55605.594     -20174.6        3452.3485     -16722.251      1.0259302    
   2003000   296.64553     -366.94025      56374.052     -20282.128      3318.5676     -16963.56       1.0119453    
   2004000   298.01388     -165.04832      55545.196     -20330.418      3333.8754     -16996.543      1.0270458    
   2005000   305.13193     -725.497        55926.338     -20142.844      3413.5049     -16729.34       1.0200464    
   2006000   298.91426     -451.35847      55564.81      -20276.92       3343.9479     -16932.972      1.0266832    
   2007000   304.34642     -875.07066      55647.837     -20233.385      3404.7173     -16828.668      1.0251514    
   2008000   301.43043      252.97999      55328.651     -20193.563      3372.0962     -16821.467      1.0310654    
   2009000   294.50329     -287.60913      55589.312     -20213.373      3294.6025     -16918.771      1.0262307    
   2010000   299.95629      71.484073      55708.352     -20093.862      3355.605      -16738.257      1.0240378    
   2011000   302.48162      616.84428      55927.348     -20244.706      3383.8559     -16860.85       1.0200279    
   2012000   303.20166     -229.40789      56438.649     -20158.375      3391.911      -16766.464      1.0107871    
   2013000   296.58271     -165.80622      55519.976     -20298.035      3317.8649     -16980.17       1.0275123    
   2014000   296.7035      -555.9065       55955.336     -20080.77       3319.2161     -16761.554      1.0195177    
   2015000   300.16244     -906.05141      55856         -20346.102      3357.9113     -16988.191      1.0213309    
   2016000   297.46185      389.27643      55719.046     -20235.411      3327.6998     -16907.711      1.0238413    
   2017000   298.93463     -75.275699      55943.283     -20268.673      3344.1758     -16924.497      1.0197374    
   2018000   299.66692      68.517606      55923.557     -20209.243      3352.3679     -16856.875      1.0200971    
   2019000   299.77567     -49.38887       56131.682     -20171.86       3353.5845     -16818.276      1.0163148    
   2020000   301.61555      25.41475       55869.47      -20252.457      3374.1671     -16878.29       1.0210846    
   2021000   303.36581      24.477923      56045.268     -20232.055      3393.7473     -16838.308      1.0178818    
   2022000   295.03738     -349.65497      56224.128     -20125.568      3300.5774     -16824.99       1.0146437    
   2023000   295.18878      46.901021      55350.509     -20188.742      3302.271      -16886.471      1.0306582    
   2024000   298.36313      519.76343      55926.973     -20228.541      3337.7824     -16890.758      1.0200348    
   2025000   298.17146      588.70371      55568.1       -20284.648      3335.6382     -16949.01       1.0266224    
   2026000   295.38802     -445.38687      56017.251     -20360.688      3304.4999     -17056.188      1.0183909    
   2027000   294.55242      538.3931       55435.697     -20236.705      3295.1521     -16941.553      1.0290744    
   2028000   300.83976      510.91547      55137.977     -20242.163      3365.4885     -16876.674      1.0346309    
   2029000   298.59327     -5.8079987      55669.091     -20162.704      3340.357      -16822.347      1.02476      
   2030000   299.24164      599.56551      55386.886     -20284.078      3347.6102     -16936.467      1.0299813    
   2031000   302.3807       463.97369      55844.846     -20274.706      3382.7269     -16891.98       1.0215349    
   2032000   299.94467      317.61865      55383.496     -20256.798      3355.475      -16901.323      1.0300444    
   2033000   295.65398     -65.515795      56152.516     -20284.48       3307.4752     -16977.005      1.0159377    
   2034000   300.8323       181.88463      55907.205     -20020.624      3365.4049     -16655.219      1.0203955    
   2035000   295.34845      48.02782       56145.033     -20205.809      3304.0573     -16901.752      1.0160731    
   2036000   299.2652      -514.1444       56228.335     -20219.244      3347.8738     -16871.37       1.0145678    
   2037000   300.44281      307.96439      56144.014     -20211.757      3361.0477     -16850.709      1.0160915    
   2038000   302.32064      179.45748      56326.334     -20287.177      3382.055      -16905.122      1.0128026    
   2039000   303.01723      356.95143      56354.304     -20211          3389.8477     -16821.152      1.0122999    
   2040000   303.79574      35.494143      55719.057     -20189.17       3398.5569     -16790.613      1.023841     
   2041000   310.23329      57.276034      55724.604     -20228.077      3470.5737     -16757.503      1.0237391    
   2042000   295.41692     -315.93499      55103.025     -20224.682      3304.8232     -16919.858      1.0352872    
   2043000   297.80109     -351.85521      55749.523     -20242.851      3331.4949     -16911.356      1.0232815    
   2044000   301.62634      518.14321      55432.695     -20051.665      3374.2879     -16677.378      1.0291301    
   2045000   302.21305     -107.93257      55734.513     -20224.049      3380.8513     -16843.198      1.0235571    
   2046000   300.34351      122.01528      55056.412     -20188.316      3359.9368     -16828.379      1.0361637    
   2047000   297.45743     -670.72008      55613.939     -20240.497      3327.6503     -16912.847      1.0257763    
   2048000   305.35655      198.22549      55483.217     -20165.94       3416.0176     -16749.923      1.028193     
   2049000   293.91615     -45.282655      55504.681     -20236.917      3288.0341     -16948.883      1.0277954    
   2050000   296.71694     -399.50275      55246.035     -20247.186      3319.3665     -16927.82       1.0326073    
   2051000   298.20791      154.88257      55615.023     -20099.857      3336.046      -16763.811      1.0257563    
   2052000   295.84339     -718.83536      55650.502     -20317.954      3309.5941     -17008.36       1.0251023    
   2053000   292.46893      22.994282      56132.463     -20233.137      3271.8441     -16961.293      1.0163006    
   2054000   294.67285     -764.97674      56001.171     -20246.081      3296.4993     -16949.582      1.0186833    
   2055000   305.22122     -147.36054      56180.471     -20241.74       3414.5037     -16827.237      1.0154322    
   2056000   297.17293     -955.58313      56116.197     -20244.086      3324.4676     -16919.619      1.0165952    
   2057000   303.99135     -51.478747      55169.563     -20283.927      3400.7452     -16883.181      1.0340386    
   2058000   304.99541     -256.37335      55826.946     -20365.595      3411.9776     -16953.617      1.0218624    
   2059000   297.62556     -548.76513      55601.452     -20175.191      3329.5312     -16845.66       1.0260066    
   2060000   298.21982     -176.34303      55716.129     -20189.21       3336.1791     -16853.031      1.0238949    
   2061000   302.59289      38.359315      55397.507     -20276.306      3385.1006     -16891.206      1.0297839    
   2062000   295.38696      113.94361      55956.091     -20171.563      3304.4881     -16867.075      1.019504     
   2063000   301.52294     -91.169944      56191.8       -20195.415      3373.1312     -16822.284      1.0152275    
   2064000   304.21026      70.84976       55608.663     -20031.907      3403.1941     -16628.713      1.0258736    
   2065000   292.79325     -191.63476      56088.093     -20213.269      3275.4723     -16937.797      1.0171046    
   2066000   303.85159     -542.29019      55850.258     -20252.117      3399.1817     -16852.935      1.0214359    
   2067000   297.82036      230.11048      55721.939     -20244.178      3331.7105     -16912.468      1.0237881    
   2068000   294.50557     -375.9517       56164.057     -20270.649      3294.6279     -16976.021      1.0157289    
   2069000   305.72443      95.994682      56080.953     -20300.117      3420.1331     -16879.984      1.0172341    
   2070000   298.76947      2.1841245      55895.282     -20265.011      3342.3281     -16922.683      1.0206131    
   2071000   300.11294     -534.75898      56437.198     -20207.967      3357.3575     -16850.609      1.0108131    
   2072000   297.97968     -206.78415      55801.253     -20223.477      3333.4928     -16889.985      1.0223329    
   2073000   296.92244     -480.14025      55979.311     -20220.7        3321.6654     -16899.034      1.0190811    
   2074000   296.66382      473.75704      55025.376     -20268.782      3318.7722     -16950.009      1.0367482    
   2075000   296.0166       821.14821      55713.549     -20240.761      3311.5318     -16929.229      1.0239423    
   2076000   293.97811     -607.07834      55812.076     -20128.725      3288.7272     -16839.998      1.0221347    
   2077000   303.66798     -116.40721      55589.245     -20138.733      3397.1277     -16741.605      1.0262319    
   2078000   304.36856      360.79586      55372.313     -20219.342      3404.965      -16814.377      1.0302524    
   2079000   300.79979      307.93909      55503.561     -20290.273      3365.0413     -16925.232      1.0278162    
   2080000   299.61554      254.61178      55543.285     -20240.456      3351.7931     -16888.663      1.0270811    
   2081000   298.23111      134.6268       55575.706     -20200.662      3336.3055     -16864.356      1.0264819    
   2082000   300.58919     -177.82457      55488.932     -20190.541      3362.6853     -16827.856      1.0280872    
   2083000   296.75302      28.339358      55477.163     -20154.695      3319.7701     -16834.925      1.0283052    
   2084000   303.27838     -160.75019      55389.714     -20172.146      3392.7692     -16779.377      1.0299287    
   2085000   298.03847      444.27409      55225.511     -20263.569      3334.1505     -16929.418      1.032991     
   2086000   298.08379      535.96648      55409.269     -20152.823      3334.6574     -16818.166      1.0295653    
   2087000   290.6694       398.95736      55671.109     -20189.284      3251.7128     -16937.571      1.0247229    
   2088000   298.4057       95.249195      55965.526     -20339.669      3338.2586     -17001.411      1.0193321    
   2089000   303.89886      68.042345      55631.072     -20200.663      3399.7105     -16800.952      1.0254603    
   2090000   297.61893     -3.2416168      56055.453     -20177.811      3329.457      -16848.354      1.0176968    
   2091000   299.9533       1030.8707      55713.493     -20244.553      3355.5716     -16888.981      1.0239433    
   2092000   298.15564     -467.216        55950.274     -20289.418      3335.4612     -16953.956      1.01961      
   2093000   293.06945      283.69736      55431.184     -20258.415      3278.5621     -16979.853      1.0291582    
   2094000   308.69984     -391.47351      56300.472     -20228.895      3453.419      -16775.476      1.0132678    
   2095000   297.27017     -381.36073      56037.975     -20247.277      3325.5555     -16921.722      1.0180143    
   2096000   299.88338     -571.64789      55930.997     -20211.509      3354.7894     -16856.72       1.0199614    
   2097000   307.49187      314.32576      55974.672     -20338.199      3439.9054     -16898.293      1.0191656    
   2098000   297.04403      561.7064       55885.228     -20151.78       3323.0257     -16828.755      1.0207967    
   2099000   297.68676      25.458408      55947.746     -20268.699      3330.2158     -16938.483      1.019656     
   2100000   298.47296     -325.02428      56696.39      -20239.475      3339.0111     -16900.464      1.0061921    
   2101000   299.58834     -523.50628      56148.106     -20198.955      3351.4889     -16847.466      1.0160175    
   2102000   298.00486     -766.00955      55959.471     -20241.632      3333.7744     -16907.857      1.0194424    
   2103000   294.92089      97.93096       55170.039     -20211.256      3299.2741     -16911.982      1.0340297    
   2104000   293.11811      262.9549       55876.32      -20216.936      3279.1064     -16937.83       1.0209595    
   2105000   304.85021     -798.08675      55527.928     -20172.062      3410.3533     -16761.708      1.0273651    
   2106000   301.05638     -606.02525      56017.743     -20134.255      3367.9117     -16766.343      1.0183819    
   2107000   299.58517     -110.33456      55850.629     -20161.864      3351.4534     -16810.41       1.0214291    
   2108000   305.11464     -221.73009      56134.34      -20138.777      3413.3114     -16725.466      1.0162667    
   2109000   297.17171     -113.74752      55375.9       -20192.578      3324.454      -16868.124      1.0301856    
   2110000   304.51107      225.86179      55593.799     -20134.463      3406.5593     -16727.903      1.0261479    
   2111000   305.03057     -487.37635      55564.69      -20266.203      3412.3709     -16853.832      1.0266854    
   2112000   294.10439      712.75274      55483.454     -20180.438      3290.14       -16890.298      1.0281887    
   2113000   299.16805      370.01312      55514.883     -20216.719      3346.787      -16869.932      1.0276066    
   2114000   300.87421     -821.92333      56114.307     -20335.784      3365.8739     -16969.91       1.0166295    
   2115000   304.80001     -181.22428      55643.596     -20278.667      3409.7917     -16868.875      1.0252295    
   2116000   300.984        366.49325      56334.281     -20131.624      3367.102      -16764.522      1.0126597    
   2117000   307.93507      149.95588      55527.942     -20052.802      3444.8635     -16607.938      1.0273649    
   2118000   301.59427     -436.22264      55689.289     -20203.571      3373.9291     -16829.641      1.0243883    
   2119000   303.17298      569.79842      55704.526     -20317.851      3391.5901     -16926.261      1.0241081    
   2120000   300.91703      158.07719      56138.811     -20084.291      3366.3528     -16717.938      1.0161857    
   2121000   299.9713      -179.23431      55932.841     -20325.004      3355.773      -16969.231      1.0199278    
   2122000   302.46389      272.52663      55641.355     -20245.97       3383.6575     -16862.312      1.0252708    
   2123000   300.43672      266.39339      55785.796     -20350.607      3360.9796     -16989.627      1.0226162    
   2124000   302.77647     -55.058631      56009.62      -20279.1        3387.1543     -16891.946      1.0185296    
   2125000   303.06457      201.65807      55868.535     -20243.393      3390.3773     -16853.016      1.0211017    
   2126000   304.16419     -686.4809       55667.423     -20241.61       3402.6787     -16838.931      1.0247907    
   2127000   297.63064     -550.92271      55890.518     -20317.434      3329.5881     -16987.846      1.0207001    
   2128000   304.58501      495.01055      56093.873     -20075.191      3407.3864     -16667.805      1.0169998    
   2129000   299.9071       392.57677      55812.89      -20237.675      3355.0547     -16882.621      1.0221198    
   2130000   302.0643       684.7827       55306.252     -20290.003      3379.1873     -16910.815      1.031483     
   2131000   301.45492      400.40542      55670.775     -20230.781      3372.3702     -16858.411      1.024729     
   2132000   294.27989     -307.31481      56601.84      -20258.37       3292.1033     -16966.267      1.0078728    
   2133000   299.97836      128.13915      56074.707     -20214.306      3355.852      -16858.454      1.0173474    
   2134000   301.97932      321.72904      55397.424     -20211.143      3378.2366     -16832.906      1.0297854    
   2135000   300.6813      -21.73985       55238.336     -20200.523      3363.7157     -16836.807      1.0327512    
   2136000   299.45345      21.316015      55642.39      -20346.874      3349.9798     -16996.894      1.0252518    
   2137000   302.87744      621.95217      55882.708     -20276.805      3388.2839     -16888.521      1.0208428    
   2138000   295.67473      639.034        55771.424     -20220.414      3307.7073     -16912.707      1.0228797    
   2139000   292.21269     -688.28367      56217.513     -20151.017      3268.9776     -16882.039      1.0147631    
   2140000   298.80649     -841.44911      56628.423     -20208.463      3342.7423     -16865.721      1.0073997    
   2141000   296.60408      334.5067       56238.714     -20296.192      3318.104      -16978.088      1.0143806    
   2142000   298.71318     -554.74618      55683.562     -20337.064      3341.6984     -16995.366      1.0244937    
   2143000   302.3443       16.728428      55545.012     -20273.784      3382.3196     -16891.465      1.0270492    
   2144000   299.53152      495.4575       55504.099     -20151.781      3350.8532     -16800.928      1.0278062    
   2145000   294.61015      126.3404       55593.96      -20292.744      3295.7979     -16996.946      1.0261449    
   2146000   298.31191      343.01711      55423.45      -20342.662      3337.2094     -17005.452      1.0293018    
   2147000   296.01974      485.01453      55118.098     -20183.231      3311.5669     -16871.664      1.0350041    
   2148000   294.58417      160.56437      55688.754     -20181.956      3295.5073     -16886.448      1.0243982    
   2149000   298.33857      251.44472      56117.785     -20197.411      3337.5076     -16859.904      1.0165665    
   2150000   294.44724     -73.210215      55707.05      -20315.171      3293.9754     -17021.196      1.0240617    
   2151000   302.02267      256.01211      55946.574     -20340.34       3378.7216     -16961.618      1.0196774    
   2152000   294.22597      751.24016      54918.636     -20306.916      3291.5001     -17015.416      1.0387632    
   2153000   294.65008      66.127041      55594.448     -20241.245      3296.2445     -16945.001      1.0261359    
   2154000   296.94382     -206.152        55981.38      -20348.37       3321.9046     -17026.465      1.0190434    
   2155000   300.60926     -503.82124      56017.892     -20304.455      3362.9098     -16941.545      1.0183792    
   2156000   306.31474     -555.2985       55448.451     -20229.235      3426.7369     -16802.498      1.0288377    
   2157000   298.79619     -803.9257       56004.291     -20249.308      3342.627      -16906.681      1.0186265    
   2158000   304.1708       40.613164      55699.191     -20205.698      3402.7527     -16802.945      1.0242062    
   2159000   301.42905      100.39234      55250.328     -20252.443      3372.0808     -16880.362      1.032527     
   2160000   307.80203      207.94581      56204.924     -20163.477      3443.3751     -16720.102      1.0149904    
   2161000   305.1107      -702.16147      55768.606     -20162.41       3413.2673     -16749.143      1.0229314    
   2162000   303.56438     -478.67769      56209.629     -20203.348      3395.9687     -16807.379      1.0149054    
   2163000   296.47725     -691.59866      56059.44      -20092.102      3316.6851     -16775.416      1.0176245    
   2164000   301.59517      360.19193      55279.623     -20176.69       3373.9392     -16802.751      1.0319799    
   2165000   304.65308     -36.371365      55878.001     -20156.501      3408.148      -16748.353      1.0209287    
   2166000   293.43411      258.62687      55352.516     -20388.948      3282.6415     -17106.306      1.0306209    
   2167000   297.19806      420.82846      55965.357     -20086.969      3324.7488     -16762.22       1.0193352    
   2168000   302.32261     -454.02809      55626.328     -20276.087      3382.077      -16894.01       1.0255478    
   2169000   302.94813     -142.40919      55703.104     -20206.506      3389.0747     -16817.432      1.0241343    
   2170000   294.09248      196.95399      55581.874     -20205.884      3290.0067     -16915.877      1.026368     
   2171000   302.47706      416.70857      55634.04      -20157.399      3383.8048     -16773.594      1.0254056    
   2172000   296.7392       128.36653      55496.81      -20311.029      3319.6155     -16991.413      1.0279412    
   2173000   297.85364      581.14146      55430.201     -20344.05       3332.0828     -17011.967      1.0291765    
   2174000   298.53623     -894.90487      55986.505     -20242.044      3339.7189     -16902.325      1.0189501    
   2175000   298.14562     -285.32784      55999.357     -20142.224      3335.3492     -16806.874      1.0187163    
   2176000   312.37047     -290.88665      56057.14      -20263.177      3494.4823     -16768.695      1.0176662    
   2177000   290.23262     -391.32264      56070.314     -20304.604      3246.8265     -17057.778      1.0174271    
   2178000   297.66284      126.59711      55642.334     -20282.165      3329.9483     -16952.217      1.0252528    
   2179000   301.84491     -265.89938      56072.339     -20197.067      3376.733      -16820.334      1.0173904    
   2180000   302.91682     -549.11124      55869.244     -20364.594      3388.7244     -16975.87       1.0210888    
   2181000   303.85717      199.72209      55973.194     -20223.498      3399.2441     -16824.254      1.0191925    
   2182000   297.09423      432.02385      55812.009     -20186.243      3323.5872     -16862.655      1.0221359    
   2183000   300.98422     -214.45709      55705.542     -20309.265      3367.1045     -16942.161      1.0240895    
   2184000   294.46219     -270.13745      55933.658     -20278.253      3294.1427     -16984.11       1.0199129    
   2185000   297.77687     -119.64559      55921.064     -20305.756      3331.2239     -16974.532      1.0201426    
   2186000   296.31074      311.85102      55707.108     -20166.142      3314.8224     -16851.32       1.0240607    
   2187000   298.90497     -92.120192      56081.291     -20276.782      3343.8439     -16932.938      1.017228     
   2188000   297.53303      32.290792      56278.532     -20204.318      3328.4961     -16875.822      1.0136629    
   2189000   299.18498      443.75066      55578.537     -20414.248      3346.9764     -17067.272      1.0264296    
   2190000   301.78601      66.228665      56231.163     -20306.014      3376.0741     -16929.94       1.0145168    
   2191000   301.99247     -12.630224      55933.737     -20301.601      3378.3837     -16923.218      1.0199114    
   2192000   295.66068      26.133944      55965.281     -20384.249      3307.5502     -17076.699      1.0193366    
   2193000   295.45169     -49.727609      56085.479     -20211.61       3305.2122     -16906.398      1.017152     
   2194000   302.4508      -158.06353      55720.274     -20134.794      3383.5111     -16751.283      1.0238187    
   2195000   304.44671      186.70636      55604.353     -20219.916      3405.8393     -16814.077      1.0259531    
   2196000   307.54166      245.93519      55175.68      -20240.72       3440.4624     -16800.258      1.033924     
   2197000   300.32825     -480.87517      55549.742     -20115.762      3359.7662     -16755.996      1.0269617    
   2198000   303.74602     -1234.6603      56026.529     -20256.371      3398.0007     -16858.371      1.0182222    
   2199000   297.24742     -590.32523      56379.316     -20299.315      3325.301      -16974.014      1.0118508    
   2200000   297.36908      752.01935      55665.499     -20328.813      3326.662      -17002.151      1.0248261    
   2201000   299.13476      114.11209      55630.303     -20257.996      3346.4146     -16911.581      1.0254745    
   2202000   299.61206      39.220923      56080.215     -20150.924      3351.7541     -16799.17       1.0172475    
   2203000   302.32762     -563.92878      56111.185     -20216.712      3382.1331     -16834.579      1.016686     
   2204000   297.62257     -452.28891      56260.697     -20220.024      3329.4978     -16890.526      1.0139842    
   2205000   305.72846      314.57845      55649.976     -20375.948      3420.1782     -16955.77       1.025112     
   2206000   298.55511      69.419217      55697.417     -20334.843      3339.93       -16994.912      1.0242388    
   2207000   302.99404     -231.85725      55973.327     -20230.54       3389.5883     -16840.952      1.01919      
   2208000   297.8074      -655.59841      55926.802     -20373.087      3331.5655     -17041.521      1.0200379    
   2209000   299.32192     -795.1653       55842.913     -20351.046      3348.5084     -17002.538      1.0215702    
   2210000   299.49687      358.74225      55342.545     -20170.43       3350.4655     -16819.965      1.0308065    
   2211000   299.96882     -311.64608      55274.932     -20285.34       3355.7453     -16929.594      1.0320674    
   2212000   305.1425       765.22663      56117.48      -20302.747      3413.6231     -16889.124      1.016572     
   2213000   299.1185       241.77987      56283.639     -20243.769      3346.2327     -16897.537      1.0135709    
   2214000   299.43072     -187.5483       56177.213     -20249.762      3349.7255     -16900.037      1.0154911    
   2215000   304.98156      306.95975      55705.914     -20227.496      3411.8227     -16815.673      1.0240826    
   2216000   294.15775      101.81498      55254.588     -20230.199      3290.7369     -16939.462      1.0324474    
   2217000   298.0515       385.95628      55549.668     -20336.539      3334.2962     -17002.243      1.0269631    
   2218000   300.12692      97.513984      55984.009     -20253.024      3357.5139     -16895.51       1.0189956    
   2219000   297.48782     -320.90373      55739.694     -20295.883      3327.9903     -16967.892      1.023462     
   2220000   295.6254       603.2651       56220.662     -20228.009      3307.1554     -16920.854      1.0147063    
   2221000   301.75182     -860.57326      55487.115     -20263.07       3375.6916     -16887.378      1.0281208    
   2222000   303.2708      -188.58665      55690.554     -20200.361      3392.6844     -16807.677      1.0243651    
   2223000   308.89365      202.42184      54911.6       -20342.609      3455.5871     -16887.022      1.0388963    
   2224000   295.29608      684.76931      55014.634     -20285.831      3303.4714     -16982.36       1.0369506    
   2225000   303.22771     -42.057099      55583.332     -20201.06       3392.2024     -16808.857      1.0263411    
   2226000   298.31566      42.46274       55802.96      -20013.018      3337.2514     -16675.766      1.0223016    
   2227000   302.89852      152.00594      56048.047     -20317.348      3388.5197     -16928.829      1.0178313    
   2228000   304.7224      -660.731        55399.202     -20277.234      3408.9235     -16868.311      1.0297523    
   2229000   297.08677      515.39005      55404.32      -20244.721      3323.5038     -16921.218      1.0296572    
   2230000   292.85791      82.686468      55905.486     -20250.542      3276.1956     -16974.347      1.0204268    
   2231000   293.45872     -345.13702      56706.258     -20195.582      3282.9169     -16912.665      1.006017     
   2232000   297.87838      249.77011      55791.802     -20263.012      3332.3595     -16930.652      1.0225061    
   2233000   298.55049     -47.835198      55630.798     -20300.82       3339.8784     -16960.942      1.0254654    
   2234000   301.73488     -70.960411      56055.474     -20248.916      3375.5021     -16873.414      1.0176965    
   2235000   306.7476       385.93209      55351.536     -20307.8        3431.5793     -16876.221      1.0306391    
   2236000   305.36835      191.69905      55058.874     -20219.553      3416.1496     -16803.403      1.0361174    
   2237000   299.16548     -211.52898      56028.217     -20248.147      3346.7583     -16901.389      1.0181916    
   2238000   303.49802     -251.04704      55623.464     -20134.882      3395.2263     -16739.655      1.0256006    
   2239000   299.75495      156.68297      55861.457     -20245.402      3353.3527     -16892.05       1.0212311    
   2240000   304.02535      578.55719      55682.903     -20236.863      3401.1255     -16835.738      1.0245058    
   2241000   301.59521      434.40804      55583.75      -20152.098      3373.9397     -16778.158      1.0263334    
   2242000   300.80716      233.41621      55675.645     -20379.431      3365.1237     -17014.307      1.0246394    
   2243000   307.56509      545.36051      55602.763     -20216.68       3440.7246     -16775.956      1.0259824    
   2244000   299.01302      317.79595      55584.491     -20393.378      3345.0527     -17048.325      1.0263197    
   2245000   300.38932      166.47832      55807.949     -20286.16       3360.4493     -16925.711      1.0222103    
   2246000   301.75751      259.13527      55766.293     -20284.675      3375.7552     -16908.92       1.0229738    
   2247000   298.53851      201.34866      56023.425     -20165.976      3339.7443     -16826.232      1.0182786    
   2248000   297.88835      767.80515      55195.649     -20246.703      3332.4711     -16914.232      1.0335499    
   2249000   298.41665     -432.53388      55922.328     -20254.294      3338.3811     -16915.912      1.0201195    
   2250000   303.2199       845.68783      56082.01      -20244.698      3392.115      -16852.583      1.0172149    
   2251000   303.68946     -387.07961      55956.872     -20281.557      3397.368      -16884.189      1.0194897    
   2252000   297.85416      121.48611      55439.023     -20212.731      3332.0886     -16880.643      1.0290127    
   2253000   296.48526     -726.57305      55685.432     -20197.115      3316.7748     -16880.34       1.0244593    
   2254000   301.47482     -285.38269      55628.595     -20284.179      3372.5928     -16911.586      1.025506     
   2255000   299.34303      258.27027      55856.492     -20337.732      3348.7445     -16988.988      1.0213219    
   2256000   298.41222      126.52477      56321.388     -20259.308      3338.3316     -16920.977      1.0128915    
   2257000   304.13453     -115.31834      56586.525     -20301.737      3402.3469     -16899.39       1.0081456    
   2258000   292.13573      290.39191      55538.289     -20216.629      3268.1165     -16948.513      1.0271735    
   2259000   303.89482      622.45587      55689.996     -20275.871      3399.6653     -16876.205      1.0243753    
   2260000   304.36561      188.54637      55944.166     -20245.159      3404.932      -16840.227      1.0197213    
   2261000   297.7081      -61.138855      55412.044     -20090.956      3330.4546     -16760.501      1.0295137    
   2262000   297.65074     -26.414361      55447.796     -20145.429      3329.813      -16815.616      1.0288499    
   2263000   296.21758      90.264249      55707.171     -20213.988      3313.7802     -16900.207      1.0240595    
   2264000   296.24404     -238.34408      55858.038     -20209.969      3314.0762     -16895.893      1.0212936    
   2265000   303.25967     -119.75558      56153.115     -20244.448      3392.5599     -16851.888      1.0159269    
   2266000   295.41016     -237.76942      55578.68      -20130.318      3304.7475     -16825.57       1.026427     
   2267000   293.15211      186.48489      55562.308     -20315.121      3279.4869     -17035.634      1.0267294    
   2268000   302.926       -252.17684      55640.291     -20246.877      3388.8271     -16858.049      1.0252904    
   2269000   294.71681     -490.80531      55967.447     -20170.164      3296.9911     -16873.173      1.0192971    
   2270000   306.46007      13.567115      55832.89      -20136.888      3428.3627     -16708.525      1.0217536    
   2271000   298.04691     -272.2581       56108.177     -20127.205      3334.2448     -16792.96       1.0167405    
   2272000   298.28249      279.38389      55796.647     -20277.861      3336.8803     -16940.981      1.0224173    
   2273000   302.03538     -292.27752      56181.692     -20203.32       3378.8638     -16824.456      1.0154101    
   2274000   302.15095     -520.55833      55972.982     -20281.966      3380.1566     -16901.81       1.0191963    
   2275000   301.3733       138.5534       55222.743     -20335.249      3371.4571     -16963.792      1.0330428    
   2276000   301.99032      319.13357      55494.874     -20237.581      3378.3597     -16859.221      1.0279771    
   2277000   296.02385      192.56837      55575.382     -20307.089      3311.6129     -16995.476      1.0264879    
   2278000   301.75492      141.22002      55983.436     -20214.579      3375.7263     -16838.853      1.019006     
   2279000   292.61265     -477.98195      55724.188     -20269.119      3273.452      -16995.667      1.0237468    
   2280000   301.17446      738.90481      54940.307     -20181.84       3369.2327     -16812.607      1.0383535    
   2281000   292.84801      822.57499      55648.653     -20116.589      3276.0849     -16840.504      1.0251364    
   2282000   300.61893     -20.565312      55798.463     -20318.832      3363.018      -16955.814      1.022384     
   2283000   300.90295     -184.51118      55464.85      -20248.903      3366.1953     -16882.707      1.0285335    
   2284000   300.88965     -102.78484      55512.753     -20296.213      3366.0466     -16930.167      1.027646     
   2285000   300.44418      74.27616       55815.595     -20194.552      3361.063      -16833.489      1.0220702    
   2286000   302.95197      516.39481      56247.275     -20205.806      3389.1177     -16816.688      1.0142262    
   2287000   303.71099     -263.6347       55550.18      -20202.66       3397.6088     -16805.052      1.0269536    
   2288000   295.46209     -679.16014      56290.024     -20189.773      3305.3285     -16884.444      1.0134559    
   2289000   296.71093      722.55077      55445.769     -20254.344      3319.2993     -16935.045      1.0288875    
   2290000   300.03629      529.22033      55309.895     -20316.85       3356.5        -16960.35       1.031415     
   2291000   304.34611      6.3803252      55812.802     -20366.853      3404.7139     -16962.14       1.0221214    
   2292000   304.85618      287.74365      55459.159     -20223.013      3410.4201     -16812.593      1.0286391    
   2293000   296.51699     -575.03995      56066.825     -20254.876      3317.1297     -16937.746      1.0174904    
   2294000   302.97085      410.93706      55551.79      -20305.657      3389.3289     -16916.328      1.0269238    
   2295000   300.25775     -875.52716      55930.694     -20316.402      3358.9775     -16957.424      1.0199669    
   2296000   304.16244     -834.89494      55993.886     -20327.309      3402.6592     -16924.65       1.0188158    
   2297000   293.18486     -303.20554      55792.038     -20222.935      3279.8532     -16943.081      1.0225018    
   2298000   300.19322      298.50826      56051.538     -20338.656      3358.2556     -16980.4        1.0177679    
   2299000   304.0957      -154.91746      56287.879     -20295.441      3401.9126     -16893.528      1.0134945    
   2300000   302.3815      -263.62633      55957.537     -20206.999      3382.7358     -16824.263      1.0194776    
   2301000   298.75875     -42.380109      56234.854     -20167.731      3342.2082     -16825.523      1.0144502    
   2302000   300.22968      276.68313      55448.055     -20309.021      3358.6635     -16950.358      1.0288451    
   2303000   300.10983      313.072        55127.733     -20292.844      3357.3227     -16935.522      1.0348232    
   2304000   304.24511     -336.22312      55640.974     -20410.258      3403.584      -17006.674      1.0252778    
   2305000   302.45579      164.37839      55295.852     -20316.149      3383.5669     -16932.582      1.031677     
   2306000   300.23954     -54.926051      55732.456     -20265.59       3358.7737     -16906.816      1.0235949    
   2307000   295.85807      579.00305      55673.055     -20403.012      3309.7583     -17093.253      1.024687     
   2308000   302.97732     -619.96556      55916.378     -20143.667      3389.4012     -16754.266      1.0202281    
   2309000   296.25368     -802.88175      55984.935     -20289.402      3314.184      -16975.218      1.0189787    
   2310000   299.78525      321.19751      56079.649     -20267.543      3353.6916     -16913.852      1.0172578    
   2311000   296.94681      387.6079       55989.867     -20298.418      3321.9381     -16976.48       1.018889     
   2312000   295.71913      377.00776      55093.146     -20305.697      3308.204      -16997.493      1.0354729    
   2313000   302.40464     -312.88818      55282.186     -20310.135      3382.9948     -16927.14       1.031932     
   2314000   298.69833      112.29871      55914.349     -20178.88       3341.5322     -16837.348      1.0202651    
   2315000   295.49292      527.74946      55984.35      -20151.493      3305.6734     -16845.82       1.0189894    
   2316000   295.79419     -142.96971      55690.406     -20140.067      3309.0438     -16831.023      1.0243678    
   2317000   295.11268     -235.87546      55479.693     -20252.382      3301.4197     -16950.963      1.0282583    
   2318000   302.53579      259.14573      55998.074     -20187.204      3384.4619     -16802.742      1.0187396    
   2319000   297.99453      34.95115       55455.498     -20292.963      3333.6589     -16959.304      1.028707     
   2320000   303.00448      564.3945       55760.12      -20245.497      3389.7051     -16855.792      1.0230871    
   2321000   301.27822      320.2071       55487.03      -20187.782      3370.3934     -16817.389      1.0281224    
   2322000   299.52551     -226.95781      56293.538     -20257.027      3350.7859     -16906.241      1.0133926    
   2323000   304.52154     -979.44708      56028.794     -20250.798      3406.6764     -16844.121      1.0181811    
   2324000   300.50159      909.29424      55630.288     -20215.711      3361.7053     -16854.006      1.0254748    
   2325000   298.73992      764.38399      55368.52      -20278.783      3341.9975     -16936.785      1.030323     
   2326000   306.15315      600.96335      56034.569     -20239.412      3424.9293     -16814.483      1.0180761    
   2327000   301.87111     -438.81904      55744.212     -20143.994      3377.0261     -16766.967      1.023379     
   2328000   304.38453      632.29952      55763.332     -20313.415      3405.1437     -16908.271      1.0230281    
   2329000   294.96887     -537.48054      55274.566     -20269.25       3299.8108     -16969.439      1.0320743    
   2330000   295.79236     -113.47931      55761.072     -20178.805      3309.0233     -16869.781      1.0230696    
   2331000   301.2026       162.37667      55445.609     -20247.359      3369.5475     -16877.811      1.0288905    
   2332000   295.43551      79.137453      55706.581     -20204.47       3305.0311     -16899.439      1.0240703    
   2333000   302.53274     -510.48864      55795.98      -20121.79       3384.4277     -16737.362      1.0224295    
   2334000   308.63669     -535.59797      55814.703     -20162.102      3452.7126     -16709.389      1.0220866    
   2335000   297.06983     -428.76747      55965.306     -20165.442      3323.3142     -16842.128      1.0193361    
   2336000   302.45427      60.795339      55843.886     -20182.263      3383.5499     -16798.713      1.0215524    
   2337000   298.0063      -64.153318      55609.249     -20359.787      3333.7905     -17025.996      1.0258628    
   2338000   305.86999     -811.80167      55608.342     -20309.913      3421.7616     -16888.151      1.0258795    
   2339000   296.16455     -157.39352      56173.905     -20108.446      3313.187      -16795.259      1.0155509    
   2340000   304.15951     -128.16211      55847.595     -20272.773      3402.6264     -16870.146      1.0214846    
   2341000   302.81492     -220.30957      55855.15      -20097.493      3387.5844     -16709.908      1.0213464    
   2342000   305.34567     -100.98647      55497.406     -20260.563      3415.896      -16844.667      1.0279302    
   2343000   299.30586      55.793052      56083.327     -20136.037      3348.3287     -16787.709      1.017191     
   2344000   297.56245      82.951528      55780.943     -20187.635      3328.8252     -16858.81       1.0227051    
   2345000   298.60386     -6.0235761      56006.042     -20354.928      3340.4755     -17014.453      1.0185947    
   2346000   294.99494      35.104508      56360.105     -20216.566      3300.1026     -16916.463      1.0121957    
   2347000   301.92144      44.189698      55933.211     -20375.857      3377.5891     -16998.268      1.019921     
   2348000   301.44779     -569.25486      55658.424     -20165.942      3372.2904     -16793.652      1.0249564    
   2349000   302.34926      317.7408       55422.523     -20166.234      3382.3751     -16783.859      1.029319     
   2350000   304.62516     -290.34681      55886.093     -20162.768      3407.8356     -16754.932      1.0207809    
   2351000   301.90805      835.48899      55445.239     -20239.429      3377.4394     -16861.99       1.0288973    
   2352000   292.20244      359.15892      55079.274     -20215.745      3268.8629     -16946.882      1.0357337    
   2353000   301.17056      944.1182       55590.499     -20276.51       3369.189      -16907.321      1.0262088    
   2354000   303.08882     -1054.9413      56618.235     -20271.759      3390.6486     -16881.11       1.007581     
   2355000   303.69005      1.5758226      56018.536     -20251.138      3397.3745     -16853.763      1.0183675    
   2356000   302.67929      1193.8673      55501.884     -20334.659      3386.0672     -16948.591      1.0278472    
   2357000   295.10944     -613.46599      56507.385     -20268.119      3301.3834     -16966.735      1.0095576    
   2358000   300.11799     -990.40884      55792.487     -20331.354      3357.414      -16973.94       1.0224935    
   2359000   300.2825      -395.98762      55476.646     -20272.709      3359.2544     -16913.455      1.0283148    
   2360000   297.99873     -704.237        55248.194     -20223.376      3333.7058     -16889.67       1.0325669    
   2361000   299.74362      552.3034       55370.372     -20208.662      3353.226      -16855.436      1.0302885    
   2362000   299.80284     -726.97534      56307.638     -20146.944      3353.8885     -16793.055      1.0131389    
   2363000   305.40927      428.64118      55989.574     -20219.454      3416.6075     -16802.846      1.0188943    
   2364000   304.35146      165.06489      56032.262     -20264.67       3404.7737     -16859.897      1.0181181    
   2365000   300.13416     -392.39163      56175.455     -20278.459      3357.5948     -16920.864      1.0155228    
   2366000   303.76284      707.63501      55634.666     -20328.168      3398.1889     -16929.979      1.0253941    
   2367000   296.92378     -90.559004      56100.374     -20294.885      3321.6804     -16973.205      1.0168819    
   2368000   299.3448      -275.81184      56200.609     -20263.474      3348.7643     -16914.71       1.0150683    
   2369000   302.5285      -0.64607934     55352.374     -20296.209      3384.3803     -16911.829      1.0306235    
   2370000   294.24109      461.06926      55209.378     -20232.307      3291.6693     -16940.638      1.0332929    
   2371000   295.01868     -107.61271      55696.647     -20231.098      3300.3681     -16930.73       1.024253     
   2372000   301.37404     -126.51422      55800.973     -20233.41       3371.4654     -16861.945      1.022338     
   2373000   298.19532      597.62071      55804.268     -20071.782      3335.9052     -16735.876      1.0222777    
   2374000   302.77155      610.79071      55890.839     -20306.562      3387.0993     -16919.463      1.0206942    
   2375000   297.81438      767.23526      55672.198     -20259.907      3331.6435     -16928.264      1.0247028    
   2376000   299.94486      180.50474      56080.207     -20190.795      3355.4772     -16835.318      1.0172476    
   2377000   299.83925      338.26157      56066.232     -20287.972      3354.2957     -16933.676      1.0175012    
   2378000   301.87893     -63.917001      55611.099     -20179.698      3377.1136     -16802.584      1.0258286    
   2379000   295.48257      386.2126       55748.626     -20242.769      3305.5576     -16937.211      1.023298     
   2380000   295.85795     -63.107145      56377.149     -20163.636      3309.757      -16853.879      1.0118897    
   2381000   293.09724      386.41586      55807.128     -20237.221      3278.873      -16958.348      1.0222253    
   2382000   300.75864     -663.96798      55389.569     -20382.942      3364.5809     -17018.361      1.0299314    
   2383000   299.19766     -581.20102      56458.614     -20168.411      3347.1182     -16821.293      1.0104296    
   2384000   295.35465     -829.3591       56160.002     -20257.396      3304.1266     -16953.27       1.0158023    
   2385000   301.72846     -295.87342      55961.629     -20340.317      3375.4303     -16964.887      1.0194031    
   2386000   294.8637       311.62539      55678.541     -20095.862      3298.6343     -16797.228      1.0245861    
   2387000   300.84142      549.50048      55557.516     -20331.748      3365.507      -16966.241      1.026818     
   2388000   298.74785     -903.6545       55918.068     -20272.062      3342.0863     -16929.976      1.0201972    
   2389000   298.35169     -349.68799      55768.956     -20272.021      3337.6544     -16934.367      1.022925     
   2390000   300.06165      912.58952      55415.793     -20277.345      3356.7837     -16920.561      1.029444     
   2391000   304.48198     -247.32553      56319.464     -20247.712      3406.2339     -16841.478      1.0129261    
   2392000   295.75288      369.50546      56017.856     -20184.581      3308.5815     -16876          1.0183799    
   2393000   298.29049     -261.59915      56367.652     -20193.046      3336.9698     -16856.077      1.0120602    
   2394000   301.82824      219.04932      55646.05      -20219.435      3376.5465     -16842.888      1.0251843    
   2395000   299.07013      346.46646      55983.96      -20196.496      3345.6916     -16850.805      1.0189965    
   2396000   303.28729      662.53202      55462.996     -20252.751      3392.8688     -16859.883      1.0285679    
   2397000   301.75688     -11.543739      55844         -20181.67       3375.7482     -16805.922      1.0215503    
   2398000   310.81676      665.56506      55122.582     -20137.872      3477.1009     -16660.771      1.0349199    
   2399000   301.90476      433.34253      55700.299     -20229.274      3377.4026     -16851.872      1.0241859    
   2400000   302.10797      364.39914      55068.821     -20283.634      3379.6759     -16903.958      1.0359303    
   2401000   298.15246      601.74363      55967.484     -20277.835      3335.4257     -16942.409      1.0192965    
   2402000   296.33464      746.22429      55188.119     -20207.9        3315.0898     -16892.81       1.0336909    
   2403000   298.98704      1141.2434      55118.721     -20309.191      3344.7621     -16964.429      1.0349924    
   2404000   305.99599     -138.69664      55286.43      -20315.111      3423.171      -16891.94       1.0318528    
   2405000   302.58084      508.49181      56046.458     -20250.448      3384.9659     -16865.482      1.0178602    
   2406000   302.05174     -55.659672      55211.358     -20212.992      3379.0468     -16833.945      1.0332558    
   2407000   304.95417     -1131.466       56113.095     -20174.457      3411.5162     -16762.941      1.0166514    
   2408000   295.55604     -442.90517      56130.771     -20232.79       3306.3796     -16926.411      1.0163313    
   2409000   300.52101      17.370976      55902.759     -20364.187      3361.9226     -17002.265      1.0204766    
   2410000   301.30888      765.99811      55845.219     -20287.782      3370.7364     -16917.046      1.021528     
   2411000   296.80346     -285.03846      56126.047     -20206.625      3320.3344     -16886.29       1.0164168    
   2412000   310.36795     -421.51755      55820.486     -20431.089      3472.0801     -16959.008      1.0219807    
   2413000   297.95013      374.34764      55963.729     -20181.076      3333.1622     -16847.914      1.0193648    
   2414000   295.66968     -129.32713      55591.877     -20181.732      3307.6509     -16874.081      1.0261833    
   2415000   294.25897     -63.812683      55521.808     -20171.48       3291.8692     -16879.611      1.0274784    
   2416000   298.31398      483.36904      55346.524     -20200.421      3337.2325     -16863.189      1.0307324    
   2417000   296.85939      1132.2152      56054.414     -20213.223      3320.9601     -16892.263      1.0177157    
   2418000   298.99286     -90.391842      55714.386     -20228.754      3344.8272     -16883.926      1.0239269    
   2419000   297.72862     -37.237548      56028.72      -20179.929      3330.6841     -16849.245      1.0181824    
   2420000   298.21587     -897.62884      55583.005     -20325.648      3336.135      -16989.513      1.0263471    
   2421000   305.67002      381.98815      55960.053     -20036.396      3419.5244     -16616.871      1.0194318    
   2422000   300.5743      -1.1269295      55304.94      -20243.198      3362.5188     -16880.679      1.0315074    
   2423000   304.41788     -313.55795      55325.667     -20183.228      3405.5167     -16777.711      1.031121     
   2424000   298.60089      321.23156      55765.606     -20170.298      3340.4422     -16829.856      1.0229864    
   2425000   304.14976     -267.52272      55972.732     -20172.341      3402.5173     -16769.824      1.0192009    
   2426000   303.2265       326.00073      55541.572     -20384.706      3392.1889     -16992.517      1.0271128    
   2427000   299.01607      1061.0103      55492.504     -20456.034      3345.0868     -17110.947      1.028021     
   2428000   296.63049      34.869063      55379.907     -20221.452      3318.3994     -16903.052      1.0301111    
   2429000   291.98178      588.88887      55556.561     -20257.893      3266.3943     -16991.499      1.0268357    
   2430000   297.23562      393.26699      55464.331     -20317.783      3325.169      -16992.614      1.0285432    
   2431000   295.44957     -526.73796      56276.839     -20292.06       3305.1884     -16986.872      1.0136933    
   2432000   293.24845      114.57911      55656.334     -20264.555      3280.5646     -16983.991      1.0249949    
   2433000   300.87826      421.61933      55737.898     -20304.99       3365.9191     -16939.071      1.023495     
   2434000   301.96215      279.5621       55957.102     -20286.627      3378.0445     -16908.583      1.0194856    
   2435000   293.75196      42.324146      55993.269     -20281.789      3286.1973     -16995.592      1.0188271    
   2436000   299.1413      -803.66333      56716.264     -20221.267      3346.4878     -16874.779      1.0058395    
   2437000   302.6446       399.61411      55871.572     -20226.443      3385.6791     -16840.763      1.0210462    
   2438000   301.83809      656.92374      56385.265     -20121.187      3376.6567     -16744.53       1.0117441    
   2439000   300.74208     -674.76838      56132.432     -20190.084      3364.3956     -16825.689      1.0163012    
   2440000   295.73943     -143.8012       56153.225     -20093.334      3308.4311     -16784.903      1.0159249    
   2441000   296.33972     -414.27063      55376.882     -20298.722      3315.1465     -16983.576      1.0301674    
   2442000   296.44587      16.117874      55992.461     -20062.929      3316.3341     -16746.595      1.0188418    
   2443000   307.39728     -122.51785      55994.104     -20202.04       3438.8473     -16763.193      1.0188119    
   2444000   292.70568      208.74303      55324.362     -20253.59       3274.4926     -16979.097      1.0311453    
   2445000   302.28374     -114.71461      55715.956     -20259.004      3381.6422     -16877.361      1.023898     
   2446000   299.63931      49.68573       55400.003     -20196.774      3352.059      -16844.715      1.0297375    
   2447000   294.27401     -319.77101      56089.001     -20260.583      3292.0374     -16968.546      1.0170881    
   2448000   296.49847     -311.97238      55761.7       -20211.499      3316.9225     -16894.577      1.0230581    
   2449000   298.2657       207.22134      55372.947     -20157.775      3336.6924     -16821.083      1.0302406    
   2450000   298.13034      224.47973      55896.271     -20172.06       3335.1782     -16836.881      1.0205951    
   2451000   294.39811     -206.05476      55905.847     -20152.448      3293.4258     -16859.022      1.0204202    
   2452000   301.45855      147.02234      55424.827     -20094.049      3372.4109     -16721.638      1.0292762    
   2453000   303.35054     -644.90697      55583.672     -20124.139      3393.5765     -16730.562      1.0263348    
   2454000   299.03471      51.581526      55487.325     -20263.438      3345.2954     -16918.143      1.0281169    
   2455000   299.196        373.03551      55639.557     -20249.31       3347.0997     -16902.21       1.025304     
   2456000   303.51216      406.60662      55936.76      -20404.34       3395.3845     -17008.955      1.0198563    
   2457000   296.34231     -146.58059      55566.97      -20251.691      3315.1755     -16936.516      1.0266433    
   2458000   294.72426     -264.46428      54986.769     -20113.104      3297.0744     -16816.029      1.0374761    
   2459000   303.66332      399.87304      55393.562     -20164.683      3397.0755     -16767.608      1.0298572    
   2460000   297.90196     -178.17237      56126.833     -20263.504      3332.6234     -16930.88       1.0164026    
   2461000   289.01152      530.15539      56000.668     -20311.638      3233.1661     -17078.472      1.0186925    
   2462000   298.01025     -249.91835      56070.601     -20245.914      3333.8348     -16912.079      1.0174219    
   2463000   298.83207      247.41297      55664.962     -20202.297      3343.0284     -16859.269      1.024836     
   2464000   302.99085     -321.97767      55979.127     -20163.882      3389.5527     -16774.329      1.0190845    
   2465000   300.64752     -54.169352      55875.216     -20177.08       3363.3378     -16813.743      1.0209796    
   2466000   296.79715     -396.60267      55553.603     -20264.785      3320.2639     -16944.521      1.0268903    
   2467000   307.76721     -368.76103      56110.315     -20268.891      3442.9857     -16825.906      1.0167018    
   2468000   304.69077     -142.551        55794.628     -20308.598      3408.5696     -16900.028      1.0224543    
   2469000   302.61338      37.587952      55667.854     -20331.661      3385.3298     -16946.332      1.0247828    
   2470000   291.52236     -778.01576      56347.828     -20177.548      3261.2548     -16916.294      1.0124163    
   2471000   302.16474      243.65721      55917.888     -20370.359      3380.3109     -16990.048      1.0202005    
   2472000   296.38916     -382.32234      55678.459     -20205.47       3315.6997     -16889.771      1.0245876    
   2473000   299.73846      232.93891      55857.859     -20204.915      3353.1682     -16851.746      1.0212969    
   2474000   301.63129      0.40221958     55799.297     -20242.592      3374.3432     -16868.249      1.0223687    
   2475000   295.16916      660.31254      56023.406     -20221.401      3302.0515     -16919.35       1.018279     
   2476000   296.76696      463.42568      55787.529     -20245.252      3319.9261     -16925.326      1.0225844    
   2477000   300.08181     -124.40566      56079.141     -20090.43       3357.0092     -16733.421      1.017267     
   2478000   305.2511       724.78375      55975.168     -20204.344      3414.838      -16789.506      1.0191565    
   2479000   299.93487     -568.89142      55717.398     -20127.675      3355.3654     -16772.31       1.0238715    
   2480000   291.37        -239.26973      56226.649     -20118.408      3259.5504     -16858.858      1.0145982    
   2481000   306.20814      49.887547      55589.916     -20332.938      3425.5444     -16907.394      1.0262195    
   2482000   298.74067     -428.20602      55483.272     -20251.645      3342.0059     -16909.639      1.028192     
   2483000   302.0498       53.110922      55553.687     -20283.391      3379.0251     -16904.366      1.0268888    
   2484000   306.71486      196.45044      56437.177     -20318.716      3431.213      -16887.503      1.0108135    
   2485000   300.82199      169.49427      56055.632     -20248.762      3365.2896     -16883.472      1.0176936    
   2486000   292.29649      301.59737      55612.042     -20285.001      3269.915      -17015.086      1.0258112    
   2487000   291.84446      256.98972      55999.224     -20245.105      3264.8582     -16980.246      1.0187187    
   2488000   305.59259      375.9718       55260.708     -20304.839      3418.6583     -16886.181      1.0323331    
   2489000   295.94058      194.23613      55704.068     -20156.011      3310.6814     -16845.33       1.0241166    
   2490000   300.94101      457.16923      56047.08      -20111.715      3366.6211     -16745.093      1.0178489    
   2491000   298.8231       81.253514      55885.862     -20149.969      3342.9281     -16807.041      1.0207851    
   2492000   301.38873     -801.88782      55980.495     -20253.725      3371.6297     -16882.096      1.0190595    
   2493000   299.64722     -386.77655      55903.703     -20310.398      3352.1475     -16958.251      1.0204594    
   2494000   295.44311      187.61109      55630.306     -20259.308      3305.1162     -16954.192      1.0254745    
   2495000   301.27799      15.062113      55864.433     -20199.783      3370.3909     -16829.392      1.0211767    
   2496000   301.75075     -760.8207       55800.862     -20192.7        3375.6796     -16817.021      1.0223401    
   2497000   300.85175      836.30759      55774.41      -20363.767      3365.6225     -16998.144      1.0228249    
   2498000   298.03209      28.913818      55893.08      -20353.507      3334.079      -17019.428      1.0206533    
   2499000   297.61687     -776.96421      56013.077     -20361.326      3329.434      -17031.892      1.0184668    
   2500000   301.37858      627.87505      55882.221     -20267.248      3371.5162     -16895.732      1.0208517    
   2501000   294.38169      391.57962      56067.681     -20234.212      3293.2422     -16940.97       1.0174749    
   2502000   297.17998      556.6042       55953.044     -20256.517      3324.5465     -16931.971      1.0195595    
   2503000   305.93128      1037.4483      55394.644     -20208.78       3422.4472     -16786.332      1.0298371    
   2504000   300.52867      149.64974      56335.92      -20193.477      3362.0082     -16831.469      1.0126303    
   2505000   311.30941     -275.18643      55979.816     -20155.211      3482.6122     -16672.599      1.0190719    
   2506000   303.12276     -201.45812      56193.749     -20083.963      3391.0282     -16692.935      1.0151922    
   2507000   299.28452     -392.05044      56682.549     -20140.419      3348.09       -16792.329      1.0064378    
   2508000   303.62338      154.33947      55675.816     -20318.123      3396.6287     -16921.494      1.0246362    
   2509000   298.0152      -60.030117      55680.687     -20229.04       3333.8901     -16895.15       1.0245466    
   2510000   304.35223     -78.658521      56144.167     -20090.146      3404.7823     -16685.363      1.0160888    
   2511000   297.65868     -614.64099      55606.33      -20198.727      3329.9017     -16868.826      1.0259166    
   2512000   296.62595     -34.308302      55373.062     -20229.973      3318.3486     -16911.624      1.0302385    
   2513000   295.76033     -1098.9818      55760.844     -20149.48       3308.6649     -16840.815      1.0230738    
   2514000   301.99939     -1152.4843      55819.984     -20171.032      3378.4612     -16792.571      1.0219899    
   2515000   297.8438       16.35517       55321.203     -20305.843      3331.9727     -16973.87       1.0312042    
   2516000   306.07613     -95.94135       55687.606     -20170.823      3424.0676     -16746.755      1.0244193    
   2517000   299.83313     -492.17872      55817.151     -20271.027      3354.2272     -16916.8        1.0220417    
   2518000   299.34105     -44.018985      55895.873     -20173.709      3348.7224     -16824.986      1.0206023    
   2519000   293.93587     -303.96062      55825.72      -20186.121      3288.2547     -16897.867      1.0218848    
   2520000   299.81127     -334.51701      55335.878     -20208.127      3353.9827     -16854.144      1.0309307    
   2521000   302.38216     -566.84578      56306.994     -20266.097      3382.7432     -16883.354      1.0131505    
   2522000   303.21631      807.10708      55814.791     -20254.125      3392.0748     -16862.05       1.0220849    
   2523000   298.71383     -376.62285      56319.295     -20128.62       3341.7057     -16786.914      1.0129292    
   2524000   300.74021     -127.91558      55895.411     -20220.616      3364.3748     -16856.241      1.0206108    
   2525000   303.48435     -120.08448      56122.003     -20113.21       3395.0733     -16718.136      1.01649      
   2526000   292.87452      181.62404      55389.819     -20266.037      3276.3814     -16989.655      1.0299268    
   2527000   299.67013     -435.08463      55222.206     -20155.636      3352.4038     -16803.232      1.0330529    
   2528000   299.00763      417.31083      55626.489     -20307.64       3344.9924     -16962.648      1.0255448    
   2529000   299.80947      67.660151      56052.727     -20178.153      3353.9626     -16824.19       1.0177463    
   2530000   293.82638     -263.04574      55699.751     -20241.747      3287.0299     -16954.717      1.0241959    
   2531000   299.81216      163.35642      56003.123     -20206.352      3353.9927     -16852.359      1.0186478    
   2532000   299.47361      35.361921      56176.941     -20182.851      3350.2054     -16832.646      1.015496     
   2533000   296.32862     -945.28585      56237.936     -20044.456      3315.0224     -16729.434      1.0143946    
   2534000   305.9852       476.89764      55291.728     -20221.912      3423.0504     -16798.861      1.0317539    
   2535000   294.13749      428.00841      55813.143     -20142.774      3290.5102     -16852.263      1.0221151    
   2536000   309.56889      206.95064      56246.094     -20180.652      3463.141      -16717.511      1.0142475    
   2537000   294.95666      230.00671      55915.028     -20225.378      3299.6743     -16925.704      1.0202527    
   2538000   299.10093     -75.322951      56168.755     -20101.992      3346.0361     -16755.956      1.015644     
   2539000   301.02022     -482.57009      55715.488     -20288.098      3367.5072     -16920.591      1.0239066    
   2540000   295.07124      282.05717      55495.158     -20203.851      3300.9561     -16902.895      1.0279718    
   2541000   301.54142     -514.70906      56008.713     -20110.265      3373.3379     -16736.927      1.0185461    
   2542000   304.54664     -338.88534      55872.234     -20156.776      3406.9572     -16749.819      1.0210341    
   2543000   301.74116     -806.48638      55839.34      -20295.025      3375.5724     -16919.453      1.0216356    
   2544000   296.48994     -101.15282      55844.515     -20168.147      3316.827      -16851.32       1.0215409    
   2545000   298.1764      -476.28517      55452.864     -20163.878      3335.6935     -16828.185      1.0287558    
   2546000   295.90569     -512.17703      55631.429     -20346.604      3310.291      -17036.313      1.0254537    
   2547000   298.16696      539.63399      55476.602     -20299.837      3335.5878     -16964.25       1.0283156    
   2548000   297.05699      817.6746       55626.921     -20227.198      3323.1706     -16904.027      1.0255369    
   2549000   297.01902      424.06574      55491.722     -20145.5        3322.7458     -16822.754      1.0280355    
   2550000   303.52993     -11.773228      55507.015     -20277.35       3395.5833     -16881.766      1.0277522    
   2551000   297.81342      473.6823       55381.087     -20230.797      3331.6328     -16899.164      1.0300892    
   2552000   297.75676     -25.469835      55629.064     -20316.426      3330.9989     -16985.427      1.0254973    
   2553000   302.87286      20.168348      56260.696     -20190.156      3388.2326     -16801.923      1.0139842    
   2554000   305.75893      293.68958      55947.25      -20276.414      3420.5191     -16855.895      1.0196651    
   2555000   303.86698      216.37476      55583.101     -20151.519      3399.3539     -16752.166      1.0263454    
   2556000   302.51515     -84.208697      55235.235     -20166.365      3384.2309     -16782.134      1.0328092    
   2557000   304.42731      173.16534      55508.034     -20270.441      3405.6223     -16864.819      1.0277333    
   2558000   297.03719     -8.4336728      55816.392     -20158.695      3322.9491     -16835.745      1.0220556    
   2559000   296.0189       313.45095      55920.494     -20221.474      3311.5576     -16909.916      1.020153     
   2560000   299.47578      393.13974      55399.516     -20228.591      3350.2296     -16878.361      1.0297465    
   2561000   300.14233     -114.86536      55353.592     -20284.871      3357.6863     -16927.185      1.0306008    
   2562000   298.09182     -74.4268        55240.069     -20288.69       3334.7472     -16953.943      1.0327188    
   2563000   304.37459      404.72298      55710.575     -20177.858      3405.0325     -16772.826      1.0239969    
   2564000   303.1976       99.205365      55459.236     -20286.511      3391.8655     -16894.646      1.0286376    
   2565000   296.70758     -827.28338      56444.011     -20151.983      3319.2618     -16832.721      1.0106911    
   2566000   296.3811       651.40707      55813.687     -20303.522      3315.6095     -16987.912      1.0221052    
   2567000   309.97159      273.0308       55796.838     -20047.299      3467.646      -16579.653      1.0224138    
   2568000   291.73576     -479.21128      54830.198     -20235.514      3263.6422     -16971.872      1.0404387    
   2569000   306.18812      227.07955      55404.013     -20237.79       3425.3204     -16812.47       1.0296629    
   2570000   298.50355      503.6474       55874.057     -20234.961      3339.3533     -16895.608      1.0210008    
   2571000   307.23568     -45.368845      55440.872     -20328.363      3437.0394     -16891.323      1.0289784    
   2572000   300.60969      286.01123      55678.857     -20214.707      3362.9146     -16851.792      1.0245803    
   2573000   298.9145      -224.81957      56063.877     -20183.993      3343.9506     -16840.043      1.0175439    
   2574000   299.67128     -590.34846      55957.486     -20308.224      3352.4166     -16955.808      1.0194786    
   2575000   301.49997      159.89718      55671.308     -20233.451      3372.8741     -16860.577      1.0247192    
   2576000   302.86198      215.28044      55692.423     -20271.169      3388.1109     -16883.058      1.0243307    
   2577000   303.93394     -238.21353      55708.248     -20311.894      3400.1029     -16911.791      1.0240397    
   2578000   302.8158       620.74945      55750.531     -20249.464      3387.5944     -16861.87       1.023263     
   2579000   306.21018      89.73643       55861.461     -20272.108      3425.5672     -16846.541      1.021231     
   2580000   295.401       -297.34916      55549.362     -20227.039      3304.6451     -16922.394      1.0269687    
   2581000   298.2099       596.87624      55805.706     -20309.243      3336.0683     -16973.175      1.0222513    
   2582000   294.61983      388.88313      55670.153     -20185.126      3295.9061     -16889.22       1.0247405    
   2583000   295.78585      33.350968      56003.318     -20212.73       3308.9504     -16903.779      1.0186442    
   2584000   303.51013      291.50923      55633.338     -20319.744      3395.3618     -16924.382      1.0254186    
   2585000   308.01874      51.113055      56227.914     -20206.16       3445.7996     -16760.36       1.0145754    
   2586000   307.1926       221.70141      56282.697     -20311.444      3436.5575     -16874.886      1.0135878    
   2587000   305.96602     -172.73825      56168.83      -20287.825      3422.8357     -16864.99       1.0156426    
   2588000   298.70645     -286.55197      55939.638     -20288.558      3341.6231     -16946.935      1.0198038    
   2589000   305.03085     -221.01291      56427.174     -20253.88       3412.3741     -16841.506      1.0109926    
   2590000   311.31489     -342.07299      55831.013     -20294.877      3482.6735     -16812.203      1.021788     
   2591000   303.36892      655.9813       55959.925     -20165.745      3393.782      -16771.963      1.0194341    
   2592000   302.69948      563.97499      55965.925     -20106.028      3386.293      -16719.735      1.0193248    
   2593000   299.80851      949.96866      55289.859     -20171.572      3353.9518     -16817.62       1.0317888    
   2594000   302.2257      -446.95318      55850.757     -20249.697      3380.9929     -16868.704      1.0214267    
   2595000   293.82623     -132.7049       55728.193     -20259.674      3287.0282     -16972.646      1.0236732    
   2596000   302.32874     -289.62115      55775.123     -20289.226      3382.1456     -16907.081      1.0228119    
   2597000   299.22195      87.076818      56032.522     -20139.298      3347.39       -16791.908      1.0181133    
   2598000   298.05187     -241.87057      55732.318     -20255.139      3334.3004     -16920.839      1.0235974    
   2599000   303.8769       593.61432      55436.58      -20263.131      3399.4649     -16863.666      1.029058     
   2600000   299.04904     -681.81139      55758.055     -20141.057      3345.4556     -16795.601      1.023125     
   2600010   302.04131      440.20103      55788.902     -20191.878      3378.9301     -16812.948      1.0225592    
Loop time of 57758.4 on 4 procs for 2000000 steps with 5541 atoms

Performance: 5.984 ns/day, 4.011 hours/ns, 34.627 timesteps/s, 191.868 katom-step/s
306.0% CPU use with 1 MPI tasks x 4 OpenMP threads

MPI task timing breakdown:
Section |  min time  |  avg time  |  max time  |%varavg| %total
---------------------------------------------------------------
Pair    | 1271.1     | 1271.1     | 1271.1     |   0.0 |  2.20
Bond    | 19.9       | 19.9       | 19.9       |   0.0 |  0.03
Kspace  | 26163      | 26163      | 26163      |   0.0 | 45.30
Neigh   | 77.364     | 77.364     | 77.364     |   0.0 |  0.13
Comm    | 602.19     | 602.19     | 602.19     |   0.0 |  1.04
Output  | 26.609     | 26.609     | 26.609     |   0.0 |  0.05
Modify  | 29383      | 29383      | 29383      |   0.0 | 50.87
Other   |            | 215.6      |            |       |  0.37

Nlocal:           5541 ave        5541 max        5541 min
Histogram: 1 0 0 0 0 0 0 0 0 0
Nghost:          35109 ave       35109 max       35109 min
Histogram: 1 0 0 0 0 0 0 0 0 0
Neighs:    4.61631e+06 ave 4.61631e+06 max 4.61631e+06 min
Histogram: 1 0 0 0 0 0 0 0 0 0

Total # of neighbors = 4616306
Ave neighs/atom = 833.11785
Ave special neighs/atom = 2.4872767
Neighbor list builds = 186793
Dangerous builds = 1

unfix mynpt
undump prod_traj
undump prod_dcd
undump prod_img
unfix thermo_avg
unfix thermo_detailed
unfix rdf_CO_avg
unfix rdf_CC_avg
unfix rdf_OO_avg
unfix msd_avg
uncompute rdf_CO
uncompute rdf_CC
uncompute rdf_OO
uncompute msd_water

#==============================================================================
# FINAL OUTPUT AND VERIFICATION
#==============================================================================
print ""

print "===== Saving Final Configuration ====="
===== Saving Final Configuration =====

write_data equilibrated_system.data
System init for write_data ...
PPPM initialization ...
  extracting TIP4P info from pair style
  using 12-bit tables for long-range coulomb
  G vector (1/distance) = 0.28783858
  grid = 50 50 50
  stencil order = 5
  estimated absolute RMS force accuracy = 0.00033852977
  estimated relative force accuracy = 1.0194724e-06
  using double precision FFTW3
  3d grid and FFT values/proc = 205379 125000
Generated 0 of 3 mixed pair_coeff terms from geometric mixing rule
WARNING: Not all mixed pair coeffs generated from mixing. Use write_data with 'pair ij' option to store all pair coeffs. (src/write_data.cpp:364)
write_restart equilibrated_system.restart
System init for write_restart ...
PPPM initialization ...
  extracting TIP4P info from pair style
  using 12-bit tables for long-range coulomb
  G vector (1/distance) = 0.28783858
  grid = 50 50 50
  stencil order = 5
  estimated absolute RMS force accuracy = 0.00033852977
  estimated relative force accuracy = 1.0194724e-06
  using double precision FFTW3
  3d grid and FFT values/proc = 205379 125000
Generated 0 of 3 mixed pair_coeff terms from geometric mixing rule

print ""

print "â•â•â•â•â•â•â•â•â•â•â•â•â•â•â•â•â•â•â•â•â•â•â•â•â•â•â•â•â•â•â•â•â•â•â•â•â•â•â•â•â•â•â•â•â•â•â•â•â•â•â•â•â•â•â•â•â•â•â•â•â•â•â•â•â•â•â•â•â•â•â•â•â•â•â•â•"
••••••••••••••••••••••••••••••••••••••••••••••••••••••••••••••••••••••••••••
print "                     EQUILIBRATION COMPLETE - SUCCESS!"
                     EQUILIBRATION COMPLETE - SUCCESS!
print "â•â•â•â•â•â•â•â•â•â•â•â•â•â•â•â•â•â•â•â•â•â•â•â•â•â•â•â•â•â•â•â•â•â•â•â•â•â•â•â•â•â•â•â•â•â•â•â•â•â•â•â•â•â•â•â•â•â•â•â•â•â•â•â•â•â•â•â•â•â•â•â•â•â•â•â•"
••••••••••••••••••••••••••••••••••••••••••••••••••••••••••••••••••••••••••••
print ""

print "Simulation Summary:"
Simulation Summary:
print "  Total simulation time: 5.22 ns"
  Total simulation time: 5.22 ns
print "    - NVT thermalization:     50 ps"
    - NVT thermalization:     50 ps
print "    - Pre-equilibration:      50 ps  (NEW - prevents PPPM artifacts)"
    - Pre-equilibration:      50 ps  (NEW - prevents PPPM artifacts)
print "    - Pressure ramp:         100 ps  (EXTENDED and with drag damping)"
    - Pressure ramp:         100 ps  (EXTENDED and with drag damping)
print "    - NPT equilibration:    1000 ps"
    - NPT equilibration:    1000 ps
print "    - Production run:       4000 ps (4 ns)"
    - Production run:       4000 ps (4 ns)
print ""


# Final measurements
variable final_temp equal temp
variable final_press equal press
variable final_dens equal density
variable final_vol equal vol
variable final_boxsize equal vol^(1.0/3.0)
variable final_pe equal pe
variable final_ke equal ke
variable final_etotal equal etotal

print "Final Thermodynamic State:"
Final Thermodynamic State:
print "  Temperature:    ${final_temp} K      (target: 300K)"
  Temperature:    302.041309275682 K      (target: 300K)
print "  Pressure:       ${final_press} atm   (target: 1 atm)"
  Pressure:       440.201025890794 atm   (target: 1 atm)
print "  Density:        ${final_dens} g/cmÂ³  (target: 0.95-1.05)"
  Density:        1.02255923849834 g/cm³  (target: 0.95-1.05)
print "  Volume:         ${final_vol} Ã…Â³"
  Volume:         55788.9024600414 …³
print "  Box size:       ${final_boxsize} Ã…    (expected: 58-63)"
  Box size:       38.2104899008 …    (expected: 58-63)
print ""

print "Final Energies:"
Final Energies:
print "  Potential:      ${final_pe} kcal/mol"
  Potential:      -20191.8778566337 kcal/mol
print "  Kinetic:        ${final_ke} kcal/mol"
  Kinetic:        3378.93012157603 kcal/mol
print "  Total:          ${final_etotal} kcal/mol"
  Total:          -16812.9477350577 kcal/mol
print ""


# Comprehensive validation
if "${final_dens} >= 0.85 && ${final_dens} <= 1.15" then     "print 'âœ… SUCCESS: System equilibrated to LIQUID PHASE!'"     "print ''"     "print 'Quality Indicators:'"     "if '${final_dens} >= 0.95 && ${final_dens} <= 1.05' then 'print \"  âœ“ Density: EXCELLENT (within 5% of water)\"' else 'print \"  âš  Density: ACCEPTABLE (but check TIP4P/2005 reference)\"'"     "if '${final_press} >= -50.0 && ${final_press} <= 50.0' then 'print \"  âœ“ Pressure: EXCELLENT (normal fluctuations)\"' else 'print \"  âš  Pressure: CHECK (may need longer equilibration)\"'"     "if '${final_temp} >= 295.0 && ${final_temp} <= 305.0' then 'print \"  âœ“ Temperature: EXCELLENT\"' else 'print \"  âš  Temperature: CHECK (thermostat may need tuning)\"'" else     "print 'âš ï¸  WARNING: Density ${final_dens} g/cmÂ³ outside normal range'"     "print 'Expected: 0.95-1.05 g/cmÂ³ for TIP4P/2005 water at 300K, 1 atm'"     "print ''"     "print 'Possible explanations:'"     "print '  - System still equilibrating (try longer NPT)'"     "print '  - Force field parameters incorrect'"     "print '  - Nanoparticle affecting bulk water density'"
ERROR: Input line quote not followed by white-space (src/input.cpp:556)
Last input line: if "${final_dens} >= 0.85 && ${final_dens} <= 1.15" then "print 'âœ… SUCCESS: System equilibrated to LIQUID PHASE!'" "print ''" "print 'Quality Indicators:'" "if '${final_dens} >= 0.95 && ${final_dens} <= 1.05' then 'print \" âœ“ Density: EXCELLENT (within 5% of water)\"' else 'print \" âš  Density: ACCEPTABLE (but check TIP4P/2005 reference)\"'" "if '${final_press} >= -50.0 && ${final_press} <= 50.0' then 'print \" âœ“ Pressure: EXCELLENT (normal fluctuations)\"' else 'print \" âš  Pressure: CHECK (may need longer equilibration)\"'" "if '${final_temp} >= 295.0 && ${final_temp} <= 305.0' then 'print \" âœ“ Temperature: EXCELLENT\"' else 'print \" âš  Temperature: CHECK (thermostat may need tuning)\"'" else "print 'âš ï¸ WARNING: Density ${final_dens} g/cmÂ³ outside normal range'" "print 'Expected: 0.95-1.05 g/cmÂ³ for TIP4P/2005 water at 300K, 1 atm'" "print ''" "print 'Possible explanations:'" "print ' - System still equilibrating (try longer NPT)'" "print ' - Force field parameters incorrect'" "print ' - Nanoparticle affecting bulk water density'"
