LAMMPS (10 Sep 2025)
  using 4 OpenMP thread(s) per MPI task
package gpu 1 neigh yes newton off binsize 2.8 split 1.0
# LAMMPS Input Script: FULLY CORRECTED NPT Equilibration
# Purpose: Equilibrate solvated nanoparticle system at 300K, 1 bar
# Water Model: TIP4P/2005 (implicit M-site)
# GPU acceleration: Enabled for MD stages
#
# COMPLETE FIXES APPLIED (2024-11-13):
# 1. âœ… CRITICAL FIX: PPPM grid locked to prevent recalculation artifacts
# 2. âœ… CRITICAL FIX: Pre-equilibration stage to reduce initial pressure
# 3. âœ… FIXED: Gentler pressure ramp (100 atm â†’ 1 atm) with drag damping
# 4. âœ… FIXED: SHAKE verification and proper constraint application
# 5. âœ… EXTENDED: Longer equilibration (1000 ps) and production (4000 ps)
# 6. âœ… ENHANCED: Multiple density checkpoints to catch failures early
# 7. âœ… OPTIMIZED: 2 fs timestep (SHAKE allows this, 2Ã— speedup)
#
# Total time: 5.22 ns (50ps NVT + 50ps pre-equil + 100ps ramp + 1000ps NPT + 4000ps prod)
#
# ROOT CAUSE OF PREVIOUS FAILURE:
# - PPPM grid recalculation at step 51,000 caused 169,712 atm pressure spike
# - Barostat overreacted â†’ box expanded 63Ã— â†’ gas phase (Ï=0.025 g/cmÂ³)
# - All epsilon values failed identically (proves it's numerical, not physical)
#
# SOLUTION: Lock PPPM grid + reduce initial pressure + add checkpoints

# ===== INITIALIZATION =====
units real
atom_style full
boundary p p p
atom_modify map array

# ===== COMMUNICATION =====
# Increased cutoff to handle potential box fluctuations safely
comm_modify cutoff 18.0

# ===== FORCE FIELD (FULLY GPU-accelerated) =====
# CORRECTED: O=type2, H=type3 (C60 carbon is type1)
pair_style lj/cut/tip4p/long/gpu 2 3 2 1 0.1546 12.0

# ğŸ”§ CRITICAL: Use pppm/gpu for FULL GPU acceleration of Coulomb forces
# pppm/tip4p is CPU-based bottleneck (~90% CPU, ~10% GPU)
# pppm/gpu runs Coulomb solver on GPU â†’ 5-10Ã— speedup for long-range forces
kspace_style pppm/gpu 1.0e-4

# ğŸ”§ CRITICAL FIX #1: Lock PPPM grid to prevent recalculation
# This prevents the 169,712 atm pressure spike that caused gas-phase failure
kspace_modify mesh 50 50 50    # Fixed grid (handles boxes up to ~125 Ã…, increased from 40)
kspace_modify order 5           # Higher interpolation order for accuracy
kspace_modify force/disp/real 0.8  # Balance real/k-space work

bond_style harmonic
angle_style harmonic

read_data large_C60_solvated.data
Reading data file ...
  orthogonal box = (-20 -20 -20) to (20 20 20)
  1 by 1 by 1 MPI processor grid
  reading atoms ...
  5541 atoms
  reading velocities ...
  5541 velocities
  scanning bonds ...
  3 = max bonds/atom
  scanning angles ...
  1 = max angles/atom
  orthogonal box = (-20 -20 -20) to (20 20 20)
  1 by 1 by 1 MPI processor grid
  reading bonds ...
  3844 bonds
  reading angles ...
  1787 angles
Finding 1-2 1-3 1-4 neighbors ...
  special bond factors lj:    0        0        0       
  special bond factors coul:  0        0        0       
     3 = max # of 1-2 neighbors
     6 = max # of 1-3 neighbors
    18 = max # of 1-4 neighbors
    17 = max # of special neighbors
  special bonds CPU = 0.002 seconds
  read_data CPU = 0.053 seconds

# ===== PAIR COEFFICIENTS (CORRECTED ATOM TYPE MAPPING) =====
# Type 1: C60 carbon (180 atoms from 3 C60 particles)
# Type 2: Water oxygen (~2000 molecules)
# Type 3: Water hydrogen (~4000 atoms)
# TIP4P/2005 parameters (verified against literature)
pair_coeff 2 2 0.1852 3.1589    # O-O (type 2, Îµ=0.1852 kcal/mol, Ïƒ=3.1589 Ã…)
pair_coeff 3 3 0.0 0.0          # H-H (type 3, no interaction)

# C60 fullerene parameters
pair_coeff 1 1 0.07 3.4         # C-C (type 1, Îµ=0.07 kcal/mol, Ïƒ=3.4 Ã…)

# C60-water cross interactions
# Tunable parameter (passed from bash script via -var)
variable epsilon_co equal ${EPSILON_CO}
variable epsilon_co equal 0.0
pair_coeff 1 2 ${epsilon_co} 3.2   # C-O (hydrophobicity parameter)
pair_coeff 1 2 0 3.2   
pair_coeff 1 3 0.0 0.0             # C-H (no interaction)
pair_coeff 2 3 0.0 0.0             # O-H (no LJ, only Coulombic)

# Bond and angle coefficients
bond_coeff 1 938.0 1.42         # C-C bonds in C60 (bond type 1)
bond_coeff 2 0.0 0.9572         # O-H bonds in water (bond type 2, SHAKE controlled)
angle_coeff 1 0.0 104.52        # H-O-H angle in water (angle type 1, SHAKE controlled)

# ===== SETTINGS =====
neighbor 2.0 bin                 # Increased skin for safety
neigh_modify delay 5 every 1 check yes

# Define groups (CORRECTED)
group carbon type 1        # C60 atoms (type 1)
180 atoms in group carbon
group water type 2 3       # All water atoms (O=type2, H=type3)
5361 atoms in group water
group oxygen type 2        # Water oxygen atoms (type 2)
1787 atoms in group oxygen
group hydrogen type 3      # Water hydrogen atoms (type 3)
3574 atoms in group hydrogen

# Define thermodynamic variables
variable temp equal c_thermo_temp
variable press equal c_thermo_press
variable pe equal pe
variable ke equal ke
variable etotal equal etotal
variable vol equal vol
variable dens equal density

thermo_style custom step temp press vol pe ke etotal density
thermo 1000

# ğŸ”§ CRITICAL FIX #2: Use 2 fs timestep (SHAKE allows this, 2Ã— speedup)
timestep 2.0

# Print system info
print "â•â•â•â•â•â•â•â•â•â•â•â•â•â•â•â•â•â•â•â•â•â•â•â•â•â•â•â•â•â•â•â•â•â•â•â•â•â•â•â•â•â•â•â•â•â•â•â•â•â•â•â•â•â•â•â•â•â•â•â•â•â•â•â•â•â•â•â•â•â•â•â•â•â•â•â•"
WARNING: Detected non-ASCII characters in input. Will try to continue by replacing with ASCII equivalents where known. (src/input.cpp:479)
••••••••••••••••••••••••••••••••••••••••••••••••••••••••••••••••••••••••••••
print "SYSTEM INFORMATION:"
SYSTEM INFORMATION:
print "  Epsilon (O-C): ${epsilon_co} kcal/mol"
  Epsilon (O-C): 0 kcal/mol
print "  Random seed:   ${RANDOM_SEED}"
  Random seed:   42
print "  Timestep:      2.0 fs (with SHAKE constraints)"
  Timestep:      2.0 fs (with SHAKE constraints)
print "  PPPM grid:     40Ã—40Ã—40 (LOCKED to prevent artifacts)"
  PPPM grid:     40—40—40 (LOCKED to prevent artifacts)
print "â•â•â•â•â•â•â•â•â•â•â•â•â•â•â•â•â•â•â•â•â•â•â•â•â•â•â•â•â•â•â•â•â•â•â•â•â•â•â•â•â•â•â•â•â•â•â•â•â•â•â•â•â•â•â•â•â•â•â•â•â•â•â•â•â•â•â•â•â•â•â•â•â•â•â•â•"
••••••••••••••••••••••••••••••••••••••••••••••••••••••••••••••••••••••••••••
print ""


#==============================================================================
# STAGE 0: Gentle Minimization (CPU pair style for stability)
#==============================================================================
print "===== STAGE 0: Gentle Minimization (removing any overlaps) ====="
===== STAGE 0: Gentle Minimization (removing any overlaps) =====
print "Using CPU pair style for numerical stability during minimization"
Using CPU pair style for numerical stability during minimization
print ""


# Switch to CPU pair style for minimization (GPU can be unstable)
pair_style lj/cut/tip4p/long 2 3 2 1 0.1546 12.0
kspace_style pppm/tip4p 1.0e-4
kspace_modify mesh 50 50 50
kspace_modify order 5

# Re-apply pair coefficients with current epsilon_co
pair_coeff 1 1 0.07 3.4            # C-C
pair_coeff 2 2 0.1852 3.1589       # O-O
pair_coeff 3 3 0.0 0.0             # H-H
pair_coeff 1 2 ${epsilon_co} 3.2   # C-O (variable)
pair_coeff 1 2 0 3.2   
pair_coeff 1 3 0.0 0.0             # C-H
pair_coeff 2 3 0.0 0.0             # O-H

# Very gentle minimization (just remove bad contacts, if any)
# Using very relaxed tolerances and limited steps for speed
thermo 100
minimize 0.0 10.0 10 100  # Ultra-gentle: etol=0, ftol=10, max 10 eval, max 100 iter

CITE-CITE-CITE-CITE-CITE-CITE-CITE-CITE-CITE-CITE-CITE-CITE-CITE

Your simulation uses code contributions which should be cited:

- GPU package (short-range, long-range and three-body potentials): doi:10.1016/j.cpc.2010.12.021, doi:10.1016/j.cpc.2011.10.012, doi:10.1016/j.cpc.2013.08.002, doi:10.1016/j.commatsci.2014.10.068, doi:10.1016/j.cpc.2016.10.020, doi:10.3233/APC200086

@Article{Brown11,
 author = {W. M. Brown and P. Wang and S. J. Plimpton and A. N. Tharrington},
 title = {Implementing Molecular Dynamics on Hybrid High Performance Computers---Short Range Forces},
 journal = {Comput.\ Phys.\ Commun.},
 year =    2011,
 volume =  182,
 pages =   {898--911},
 doi =     {10.1016/j.cpc.2010.12.021}
}

@Article{Brown12,
 author = {W. M. Brown and A. Kohlmeyer and S. J. Plimpton and A. N. Tharrington},
 title = {Implementing Molecular Dynamics on Hybrid High Performance Computers - Particle-Particle Particle-Mesh},
 journal = {Comput.\ Phys.\ Commun.},
 year =    2012,
 volume =  183,
 doi =     {10.1016/j.cpc.2011.10.012},
 pages =   {449--459}
}

@Article{Brown13,
 author = {W. M. Brown and Y. Masako},
 title = {Implementing Molecular Dynamics on Hybrid High Performance Computers---Three-Body Potentials},
 journal = {Comput.\ Phys.\ Commun.},
 year =    2013,
 volume =  184,
 pages =   {2785--2793},
 doi =     {10.1016/j.cpc.2013.08.002},
}

@Article{Trung15,
 author = {T. D. Nguyen and S. J. Plimpton},
 title = {Accelerating Dissipative Particle Dynamics Simulations for Soft Matter Systems},
 journal = {Comput.\ Mater.\ Sci.},
 year =    2015,
 doi =     {10.1016/j.commatsci.2014.10.068},
 volume =  100,
 pages =   {173--180}
}

@Article{Trung17,
 author = {T. D. Nguyen},
 title = {{GPU}-Accelerated {T}ersoff Potentials for Massively Parallel
    Molecular Dynamics Simulations},
 journal = {Comput.\ Phys.\ Commun.},
 year =    2017,
 doi =     {10.1016/j.cpc.2016.10.020},
 volume =  212,
 pages =   {113--122}
}

@inproceedings{Nikolskiy19,
 author = {V. Nikolskiy and V. Stegailov},
 title = {{GPU} Acceleration of Four-Site Water Models in {LAMMPS}},
 booktitle = {Proceedings of the International Conference on Parallel
    Computing (ParCo 2019), Prague, Czech Republic},
 doi =     {10.3233/APC200086},
 year =    2019
}

CITE-CITE-CITE-CITE-CITE-CITE-CITE-CITE-CITE-CITE-CITE-CITE-CITE

Switching to 'neigh_modify every 1 delay 0 check yes' setting during minimization
PPPM initialization ...
  extracting TIP4P info from pair style
  using 12-bit tables for long-range coulomb
  G vector (1/distance) = 0.28512662
  grid = 50 50 50
  stencil order = 5
  estimated absolute RMS force accuracy = 0.00038934319
  estimated relative force accuracy = 1.1724955e-06
  using double precision FFTW3
  3d grid and FFT values/proc = 185193 125000
Generated 0 of 3 mixed pair_coeff terms from geometric mixing rule
Per MPI rank memory allocation (min/avg/max) = 50.33 | 50.33 | 50.33 Mbytes
   Step          Temp          Press          Volume         PotEng         KinEng         TotEng        Density    
         0   36.495381      27260.006      64000         -23215.885      602.67332     -22613.212      0.89136653   
        10   36.495381     -19463.987      64000         -142297.92      602.67332     -141695.25      0.89136653   
Loop time of 0.147061 on 4 procs for 10 steps with 5541 atoms

394.7% CPU use with 1 MPI tasks x 4 OpenMP threads

Minimization stats:
  Stopping criterion = max iterations
  Energy initial, next-to-last, final = 
     -23215.8853361602  -124446.053924585  -142297.921302253
  Force two-norm initial, final = 2152.6392 6848.9237
  Force max component initial, final = 49.69953 360.93212
  Final line search alpha, max atom move = 0.00039028784 0.14086742
  Iterations, force evaluations = 10 10

MPI task timing breakdown:
Section |  min time  |  avg time  |  max time  |%varavg| %total
---------------------------------------------------------------
Pair    | 0.005169   | 0.005169   | 0.005169   |   0.0 |  3.51
Bond    | 0.0016876  | 0.0016876  | 0.0016876  |   0.0 |  1.15
Kspace  | 0.13525    | 0.13525    | 0.13525    |   0.0 | 91.97
Neigh   | 0          | 0          | 0          |   0.0 |  0.00
Comm    | 0.0022052  | 0.0022052  | 0.0022052  |   0.0 |  1.50
Output  | 6.7494e-05 | 6.7494e-05 | 6.7494e-05 |   0.0 |  0.05
Modify  | 9.69e-07   | 9.69e-07   | 9.69e-07   |   0.0 |  0.00
Other   |            | 0.002679   |            |       |  1.82

Nlocal:           5541 ave        5541 max        5541 min
Histogram: 1 0 0 0 0 0 0 0 0 0
Nghost:          33839 ave       33839 max       33839 min
Histogram: 1 0 0 0 0 0 0 0 0 0
Neighs:              0 ave           0 max           0 min
Histogram: 1 0 0 0 0 0 0 0 0 0

Total # of neighbors = 0
Ave neighs/atom = 0
Ave special neighs/atom = 2.4872767
Neighbor list builds = 0
Dangerous builds = 0

variable pe_minimized equal pe
print "Minimization complete. PE = ${pe_minimized} kcal/mol (was -23,217)"
Minimization complete. PE = -142297.921302253 kcal/mol (was -23,217)

# Switch back to GPU pair style for MD
pair_style lj/cut/tip4p/long/gpu 2 3 2 1 0.1546 12.0
kspace_style pppm/tip4p 1.0e-4
kspace_modify mesh 50 50 50
kspace_modify order 5

# Re-apply pair coefficients again after style change
pair_coeff 1 1 0.07 3.4            # C-C
pair_coeff 2 2 0.1852 3.1589       # O-O
pair_coeff 3 3 0.0 0.0             # H-H
pair_coeff 1 2 ${epsilon_co} 3.2   # C-O (variable)
pair_coeff 1 2 0 3.2   
pair_coeff 1 3 0.0 0.0             # C-H
pair_coeff 2 3 0.0 0.0             # O-H

print ""


#==============================================================================
# STAGE 0.5: Apply SHAKE Constraints
#==============================================================================
thermo 1000

# ğŸ”§ CRITICAL FIX #3: Apply SHAKE with proper verification
print "Applying SHAKE constraints..."
Applying SHAKE constraints...
# CORRECTED: bond type 2 = O-H, angle type 1 = H-O-H
fix myshk water shake 0.0001 20 0 b 2 a 1
Finding SHAKE clusters ...
       0 = # of size 2 clusters
       0 = # of size 3 clusters
       0 = # of size 4 clusters
    1787 = # of frozen angles
  find clusters CPU = 0.001 seconds

# Verify SHAKE is working
print "SHAKE constraint verification:"
SHAKE constraint verification:
print "  Expected: ~2000 water molecules with constrained bonds and angles"
  Expected: ~2000 water molecules with constrained bonds and angles
print "  Check minimization output for cluster sizes"
  Check minimization output for cluster sizes
print ""

print "GPU Acceleration Status:"
GPU Acceleration Status:
print "  âœ“ Pair forces (LJ):      GPU (lj/cut/tip4p/long/gpu)"
  œ“ Pair forces (LJ):      GPU (lj/cut/tip4p/long/gpu)
print "  âœ“ Coulomb (PPPM):        CPU (pppm/tip4p) - GPU suffix not available"
  œ“ Coulomb (PPPM):        CPU (pppm/tip4p) - GPU suffix not available
print "  âœ“ Neighbor lists:        GPU (neigh yes)"
  œ“ Neighbor lists:        GPU (neigh yes)
print "  â†’ Expected speedup:      2-3Ã— vs CPU-only version (pair forces only)"
  †’ Expected speedup:      2-3— vs CPU-only version (pair forces only)

#==============================================================================
# STAGE 1: NVT Thermalization (50 ps)
#==============================================================================
print ""

print "===== STAGE 1: NVT Thermalization (50 ps, GPU) ====="
===== STAGE 1: NVT Thermalization (50 ps, GPU) =====
print "Objective: Reach 300K while maintaining initial density"
Objective: Reach 300K while maintaining initial density

velocity all create 300.0 ${RANDOM_SEED} dist gaussian loop geom
velocity all create 300.0 42 dist gaussian loop geom

fix mynvt all nvt temp 300.0 300.0 100.0

# Trajectory output (every 4 ps) - using wrapped coordinates for proper visualization
dump nvt_traj all custom 2000 nvt_thermalization.lammpstrj id type xu yu zu
dump_modify nvt_traj sort id

dump nvt_dcd all dcd 2000 nvt_thermalization.dcd
dump_modify nvt_dcd unwrap yes

run 25000  # 50 ps at 2 fs timestep
PPPM initialization ...
  extracting TIP4P info from pair style
  using 12-bit tables for long-range coulomb
  G vector (1/distance) = 0.28512662
  grid = 50 50 50
  stencil order = 5
  estimated absolute RMS force accuracy = 0.00038934319
  estimated relative force accuracy = 1.1724955e-06
  using double precision FFTW3
  3d grid and FFT values/proc = 185193 125000
Generated 0 of 3 mixed pair_coeff terms from geometric mixing rule
Per MPI rank memory allocation (min/avg/max) = 49.79 | 49.79 | 49.79 Mbytes
   Step          Temp          Press          Volume         PotEng         KinEng         TotEng        Density    
        10   300           -112139.91      64000         -142297.92      3356.094      -138941.83      0.89136653   
      1000   298.41039     -127.27019      64000         -19914.156      3338.3111     -16575.845      0.89136653   
      2000   299.65639     -758.76988      64000         -19976.172      3352.2501     -16623.922      0.89136653   
      3000   301.93677     -497.64451      64000         -20073.822      3377.7606     -16696.062      0.89136653   
      4000   297.53641     -794.1358       64000         -20015.185      3328.5339     -16686.651      0.89136653   
      5000   295.72889     -1299.659       64000         -20033.204      3308.3133     -16724.891      0.89136653   
      6000   303.9382      -1055.2398      64000         -20065.744      3400.1506     -16665.593      0.89136653   
      7000   305.46529     -766.102        64000         -20034.24       3417.2341     -16617.006      0.89136653   
      8000   301.86222     -759.72814      64000         -19942.882      3376.9266     -16565.955      0.89136653   
      9000   298.08139     -1566.2052      64000         -20066.733      3334.6306     -16732.103      0.89136653   
     10000   295.62968     -203.49116      64000         -20055.78       3307.2033     -16748.576      0.89136653   
     11000   297.68634     -903.65623      64000         -20031.123      3330.2112     -16700.912      0.89136653   
     12000   300.19265     -753.2916       64000         -20067.323      3358.2492     -16709.074      0.89136653   
     13000   294.70446     -1260.5805      64000         -20098.066      3296.8529     -16801.213      0.89136653   
     14000   299.52632     -978.48546      64000         -20168.44       3350.795      -16817.645      0.89136653   
     15000   303.86854     -585.69692      64000         -20060.628      3399.3713     -16661.256      0.89136653   
     16000   299.08296     -1439.21        64000         -19889.294      3345.8351     -16543.459      0.89136653   
     17000   297.73288     -1552.5796      64000         -20076.173      3330.7318     -16745.441      0.89136653   
     18000   297.3403      -574.30026      64000         -20079.046      3326.34       -16752.706      0.89136653   
     19000   298.02586     -976.976        64000         -20014.617      3334.0094     -16680.607      0.89136653   
     20000   298.13077     -1274.2378      64000         -20031.661      3335.183      -16696.478      0.89136653   
     21000   302.86626     -949.90449      64000         -20043.083      3388.1588     -16654.924      0.89136653   
     22000   297.59291     -1428.5427      64000         -20065.661      3329.166      -16736.495      0.89136653   
     23000   300.75092     -1004.3969      64000         -19993.894      3364.4946     -16629.399      0.89136653   
     24000   296.12294     -1371.5094      64000         -20160.211      3312.7215     -16847.49       0.89136653   
     25000   298.96885     -510.32623      64000         -20178.983      3344.5586     -16834.424      0.89136653   
     25010   298.00691     -518.8457       64000         -20165.21       3333.7974     -16831.413      0.89136653   
Loop time of 371.156 on 4 procs for 25000 steps with 5541 atoms

Performance: 11.639 ns/day, 2.062 hours/ns, 67.357 timesteps/s, 373.226 katom-step/s
395.0% CPU use with 1 MPI tasks x 4 OpenMP threads

MPI task timing breakdown:
Section |  min time  |  avg time  |  max time  |%varavg| %total
---------------------------------------------------------------
Pair    | 14.689     | 14.689     | 14.689     |   0.0 |  3.96
Bond    | 0.11373    | 0.11373    | 0.11373    |   0.0 |  0.03
Kspace  | 332.41     | 332.41     | 332.41     |   0.0 | 89.56
Neigh   | 0.042143   | 0.042143   | 0.042143   |   0.0 |  0.01
Comm    | 6.9284     | 6.9284     | 6.9284     |   0.0 |  1.87
Output  | 0.086996   | 0.086996   | 0.086996   |   0.0 |  0.02
Modify  | 14.864     | 14.864     | 14.864     |   0.0 |  4.00
Other   |            | 2.023      |            |       |  0.54

Nlocal:           5541 ave        5541 max        5541 min
Histogram: 1 0 0 0 0 0 0 0 0 0
Nghost:          33485 ave       33485 max       33485 min
Histogram: 1 0 0 0 0 0 0 0 0 0
Neighs:              0 ave           0 max           0 min
Histogram: 1 0 0 0 0 0 0 0 0 0

Total # of neighbors = 0
Ave neighs/atom = 0
Ave special neighs/atom = 2.4872767
Neighbor list builds = 2296
Dangerous builds = 1

unfix mynvt
undump nvt_traj
undump nvt_dcd

write_restart nvt_complete.restart
System init for write_restart ...
PPPM initialization ...
  extracting TIP4P info from pair style
  using 12-bit tables for long-range coulomb
  G vector (1/distance) = 0.28512662
  grid = 50 50 50
  stencil order = 5
  estimated absolute RMS force accuracy = 0.00038934319
  estimated relative force accuracy = 1.1724955e-06
  using double precision FFTW3
  3d grid and FFT values/proc = 185193 125000
Generated 0 of 3 mixed pair_coeff terms from geometric mixing rule

# Check temperature
variable current_temp equal temp
print "NVT complete. Temperature: ${current_temp} K (target: 300K)"
NVT complete. Temperature: 298.00691332765 K (target: 300K)

# ğŸ”§ CHECKPOINT #1: Verify we're still at reasonable density
variable current_dens equal density
if "${current_dens} < 0.7" then     "print 'ERROR: Density dropped during NVT! Current: ${current_dens} g/cmÂ³'"     "print 'This should not happen - check initial configuration'"     "quit 1"

print "âœ“ Checkpoint 1 PASSED: Density = ${current_dens} g/cmÂ³"
œ“ Checkpoint 1 PASSED: Density = 0.891366525253087 g/cm³

#==============================================================================
# STAGE 1.5: Pre-Equilibration at 100 atm (50 ps) - NEW STAGE
#==============================================================================
print ""

print "===== STAGE 1.5: Pre-Equilibration at 100 atm (50 ps, GPU) ====="
===== STAGE 1.5: Pre-Equilibration at 100 atm (50 ps, GPU) =====
print "ğŸ”§ CRITICAL FIX: Reducing initial pressure before main ramp"
Ÿ”§ CRITICAL FIX: Reducing initial pressure before main ramp
print "Objective: Equilibrate volume at moderate pressure to prevent PPPM artifacts"
Objective: Equilibrate volume at moderate pressure to prevent PPPM artifacts
print ""

print "Why this is needed:"
Why this is needed:
print "  - NVT creates high pressure (~800 atm) in fixed volume"
  - NVT creates high pressure (~800 atm) in fixed volume
print "  - Direct ramp from 800â†’1 atm caused 169k atm spike (PPPM grid change)"
  - Direct ramp from 800†’1 atm caused 169k atm spike (PPPM grid change)
print "  - Pre-equilibrating at 100 atm reduces initial pressure safely"
  - Pre-equilibrating at 100 atm reduces initial pressure safely
print "  - Main ramp (100â†’1 atm) will then cause only ~5% box expansion"
  - Main ramp (100†’1 atm) will then cause only ~5% box expansion

# Higher barostat damping for this stage (more conservative)
fix mynpt_pre all npt temp 300.0 300.0 100.0 iso 100.0 100.0 5000.0

dump pre_dcd all dcd 2000 pre_equilibration.dcd
dump_modify pre_dcd unwrap yes

run 25000  # 50 ps at 2 fs timestep
PPPM initialization ...
  extracting TIP4P info from pair style
  using 12-bit tables for long-range coulomb
  G vector (1/distance) = 0.28512662
  grid = 50 50 50
  stencil order = 5
  estimated absolute RMS force accuracy = 0.00038934319
  estimated relative force accuracy = 1.1724955e-06
  using double precision FFTW3
  3d grid and FFT values/proc = 185193 125000
Generated 0 of 3 mixed pair_coeff terms from geometric mixing rule
Per MPI rank memory allocation (min/avg/max) = 49.79 | 49.79 | 49.79 Mbytes
   Step          Temp          Press          Volume         PotEng         KinEng         TotEng        Density    
     25010   298.00691     -518.54358      64000         -20165.21       3333.7974     -16831.413      0.89136653   
     26000   295.4797       185.43565      61397.252     -20161.448      3305.5255     -16855.922      0.92915327   
     27000   299.16027     -324.64457      59108.92      -20249.977      3346.7        -16903.277      0.96512434   
     28000   298.31414      263.53097      57379.766     -20238.62       3337.2343     -16901.386      0.99420861   
     29000   295.118        469.38271      56338.304     -20170.993      3301.4792     -16869.514      1.0125874    
     30000   296.45511      159.46476      55486.002     -20258.84       3316.4374     -16942.402      1.0281414    
     31000   299.2336       602.92392      54574.147     -20432.948      3347.5203     -17085.428      1.0453202    
     32000   305.85485      315.61115      53865.495     -20372.966      3421.5921     -16951.374      1.0590724    
     33000   302.0735      -378.37481      53732.71      -20308.671      3379.2902     -16929.381      1.0616896    
     34000   302.96592      194.67178      53536.149     -20404.521      3389.2737     -17015.248      1.0655876    
     35000   303.63947     -151.31372      53581.72      -20469.009      3396.8088     -17072.2        1.0646813    
     36000   306.03091      63.990128      53401.668     -20505.638      3423.5617     -17082.076      1.0682711    
     37000   303.20635      4.8878312      53603.231     -20439.575      3391.9634     -17047.611      1.0642541    
     38000   305.3347       15.311681      53844.037     -20461.224      3415.7732     -17045.451      1.0594944    
     39000   296.59869      55.641432      53940.938     -20423.528      3318.0436     -17105.485      1.0575911    
     40000   303.19221      192.1421       53745.336     -20322.6        3391.8053     -16930.794      1.0614402    
     41000   301.10276     -282.41147      53559.235     -20322.618      3368.4306     -16954.188      1.0651283    
     42000   297.957        200.52561      53473.764     -20311.122      3333.239      -16977.883      1.0668308    
     43000   304.48961      339.89433      53488.32      -20294.331      3406.3193     -16888.012      1.0665405    
     44000   302.82835      699.33528      53691.811     -20305.909      3387.7348     -16918.174      1.0624983    
     45000   297.20656      85.071512      54015.992     -20403.276      3324.8438     -17078.432      1.0561216    
     46000   297.84316      288.15816      53707.215     -20453.723      3331.9655     -17121.757      1.0621936    
     47000   303.07856      283.30908      53476.241     -20405.27       3390.5338     -17014.736      1.0667814    
     48000   300.52788     -609.01728      53939.818     -20322.453      3361.9995     -16960.454      1.0576131    
     49000   296.29442      508.99462      53302.548     -20413.298      3314.6397     -17098.658      1.0702576    
     50000   303.27687     -195.79531      53694.44      -20298.495      3392.7523     -16905.743      1.0624463    
     50010   299.09124     -449.97536      53702.629     -20273.398      3345.9278     -16927.471      1.0622843    
Loop time of 724.149 on 4 procs for 25000 steps with 5541 atoms

Performance: 5.966 ns/day, 4.023 hours/ns, 34.523 timesteps/s, 191.294 katom-step/s
308.8% CPU use with 1 MPI tasks x 4 OpenMP threads

MPI task timing breakdown:
Section |  min time  |  avg time  |  max time  |%varavg| %total
---------------------------------------------------------------
Pair    | 18.011     | 18.011     | 18.011     |   0.0 |  2.49
Bond    | 0.28173    | 0.28173    | 0.28173    |   0.0 |  0.04
Kspace  | 338.32     | 338.32     | 338.32     |   0.0 | 46.72
Neigh   | 0.04134    | 0.04134    | 0.04134    |   0.0 |  0.01
Comm    | 7.6779     | 7.6779     | 7.6779     |   0.0 |  1.06
Output  | 0.012776   | 0.012776   | 0.012776   |   0.0 |  0.00
Modify  | 356.99     | 356.99     | 356.99     |   0.0 | 49.30
Other   |            | 2.816      |            |       |  0.39

Nlocal:           5541 ave        5541 max        5541 min
Histogram: 1 0 0 0 0 0 0 0 0 0
Nghost:          35562 ave       35562 max       35562 min
Histogram: 1 0 0 0 0 0 0 0 0 0
Neighs:              0 ave           0 max           0 min
Histogram: 1 0 0 0 0 0 0 0 0 0

Total # of neighbors = 0
Ave neighs/atom = 0
Ave special neighs/atom = 2.4872767
Neighbor list builds = 2291
Dangerous builds = 0

unfix mynpt_pre
undump pre_dcd

write_restart pre_equilibration_complete.restart
System init for write_restart ...
PPPM initialization ...
  extracting TIP4P info from pair style
  using 12-bit tables for long-range coulomb
  G vector (1/distance) = 0.28851089
  grid = 50 50 50
  stencil order = 5
  estimated absolute RMS force accuracy = 0.00032646533
  estimated relative force accuracy = 9.8314064e-07
  using double precision FFTW3
  3d grid and FFT values/proc = 205379 125000
Generated 0 of 3 mixed pair_coeff terms from geometric mixing rule
write_data pre_equilibration_complete.data
System init for write_data ...
PPPM initialization ...
  extracting TIP4P info from pair style
  using 12-bit tables for long-range coulomb
  G vector (1/distance) = 0.28851089
  grid = 50 50 50
  stencil order = 5
  estimated absolute RMS force accuracy = 0.00032646533
  estimated relative force accuracy = 9.8314064e-07
  using double precision FFTW3
  3d grid and FFT values/proc = 205379 125000
Generated 0 of 3 mixed pair_coeff terms from geometric mixing rule
WARNING: Not all mixed pair coeffs generated from mixing. Use write_data with 'pair ij' option to store all pair coeffs. (src/write_data.cpp:364)

# ğŸ”§ CHECKPOINT #2: Verify still in liquid phase after pre-equilibration
variable current_dens equal density
variable current_press equal press
variable current_vol equal vol

print ""

print "Pre-equilibration complete:"
Pre-equilibration complete:
print "  Density:  ${current_dens} g/cmÂ³"
  Density:  1.06228426644679 g/cm³
print "  Pressure: ${current_press} atm"
  Pressure: -449.975362897609 atm
print "  Volume:   ${current_vol} Ã…Â³"
  Volume:   53702.6287765831 …³

if "${current_dens} < 0.85" then     "print 'ERROR: Density dropped to ${current_dens} during pre-equilibration!'"     "print 'Expected: Still ~0.95 g/cmÂ³ (may increase slightly due to compression)'"     "print 'System failed before main pressure ramp even started!'"     "quit 1"

print "âœ“ Checkpoint 2 PASSED: System stable at 100 atm"
œ“ Checkpoint 2 PASSED: System stable at 100 atm

#==============================================================================
# STAGE 2: GENTLE Pressure Ramp (100 â†’ 1 atm, 100 ps) - CORRECTED
#==============================================================================
print ""

print "===== STAGE 2: Gentle Pressure Ramp (100 ps, GPU) ====="
===== STAGE 2: Gentle Pressure Ramp (100 ps, GPU) =====
print "Ramping pressure from 100 atm â†’ 1 atm with drag damping"
Ramping pressure from 100 atm †’ 1 atm with drag damping
print ""

print "COMPARISON TO FAILED VERSION:"
COMPARISON TO FAILED VERSION:
print "  OLD: 50 atm â†’ 1 atm, no pre-equil â†’ 169,712 atm spike at step 51k"
  OLD: 50 atm †’ 1 atm, no pre-equil †’ 169,712 atm spike at step 51k
print "  NEW: 100 atm â†’ 1 atm, with pre-equil â†’ should be smooth (< 500 atm max)"
  NEW: 100 atm †’ 1 atm, with pre-equil †’ should be smooth (< 500 atm max)

# ğŸ”§ CRITICAL FIX #4: Add drag damping to prevent explosive expansion
fix mynpt_ramp all npt temp 300.0 300.0 100.0 iso 100.0 1.0 2000.0 drag 2.0

dump ramp_dcd all dcd 1000 pressure_ramp.dcd
dump_modify ramp_dcd unwrap yes

# Monitor closely during ramp (every 500 steps = 1 ps)
thermo 500

run 50000  # 100 ps at 2 fs timestep
PPPM initialization ...
  extracting TIP4P info from pair style
  using 12-bit tables for long-range coulomb
  G vector (1/distance) = 0.28851089
  grid = 50 50 50
  stencil order = 5
  estimated absolute RMS force accuracy = 0.00032646533
  estimated relative force accuracy = 9.8314064e-07
  using double precision FFTW3
  3d grid and FFT values/proc = 205379 125000
Generated 0 of 3 mixed pair_coeff terms from geometric mixing rule
Per MPI rank memory allocation (min/avg/max) = 50.64 | 50.64 | 50.64 Mbytes
   Step          Temp          Press          Volume         PotEng         KinEng         TotEng        Density    
     50010   299.09124     -442.10525      53702.629     -20273.364      3345.9278     -16927.436      1.0622843    
     50500   298.48915     -738.84711      53289.529     -20361.082      3339.1922     -17021.89       1.0705191    
     51000   300.14066     -400.39108      53604.463     -20364.82       3357.6676     -17007.153      1.0642296    
     51500   300.93063     -437.35379      53799.733     -20372.806      3366.505      -17006.301      1.0603669    
     52000   300.47005      759.34674      53845.906     -20379.392      3361.3525     -17018.04       1.0594577    
     52500   296.16642      404.4757       53805.392     -20370.676      3313.2079     -17057.468      1.0602554    
     53000   295.76703      1.1849285      54227.587     -20357.737      3308.7398     -17048.997      1.0520007    
     53500   306.16852     -57.522188      54039.67      -20473.18       3425.1012     -17048.079      1.0556589    
     54000   302.76056      297.27395      53814.306     -20409.965      3386.9764     -17022.989      1.0600798    
     54500   297.58648      860.89411      53451.497     -20389.859      3329.094      -17060.765      1.0672752    
     55000   309.29405      686.48112      53672.228     -20478.794      3460.0664     -17018.727      1.062886     
     55500   299.25432      267.97443      53811.502     -20365.53       3347.7521     -17017.778      1.060135     
     56000   295.02244      583.79988      53519.12      -20322.336      3300.4102     -17021.926      1.0659267    
     56500   293.33934      82.839359      53903.675     -20319.17       3281.5814     -17037.589      1.0583222    
     57000   294.63812      159.77009      53680.577     -20328.004      3296.1108     -17031.893      1.0627206    
     57500   298.13663     -574.85362      53460.298     -20408.657      3335.2486     -17073.409      1.0670995    
     58000   299.81398      147.19367      53322.352     -20374.103      3354.013      -17020.09       1.0698601    
     58500   300.57595      1011.7193      53661.96      -20416.563      3362.5372     -17054.025      1.0630893    
     59000   297.93926      52.213999      53962.619     -20404.581      3333.0406     -17071.541      1.0571662    
     59500   298.70061      449.59027      53672.704     -20419.035      3341.5578     -17077.477      1.0628765    
     60000   295.89517      271.99817      53932.328     -20380.876      3310.1733     -17070.703      1.05776      
     60500   299.58833      126.85034      53973.413     -20405.92       3351.4887     -17054.431      1.0569548    
     61000   308.13599     -458.39276      53661.199     -20489.722      3447.1111     -17042.61       1.0631044    
     61500   300.45958     -27.920303      53937.291     -20408.889      3361.2354     -17047.654      1.0576626    
     62000   300.12974      687.42557      53634.282     -20360.465      3357.5454     -17002.92       1.0636379    
     62500   295.27339      95.492805      53554.519     -20287.96       3303.2176     -16984.742      1.0652221    
     63000   301.94045     -2.4852402      53488.836     -20339.294      3377.8018     -16961.492      1.0665302    
     63500   299.8062       361.68975      53390.466     -20336.965      3353.926      -16983.039      1.0684952    
     64000   299.16504     -631.50876      53330.846     -20298.684      3346.7534     -16951.931      1.0696897    
     64500   295.33934     -188.56942      53664.049     -20300.549      3303.9553     -16996.594      1.063048     
     65000   305.09825      46.89071       53468.8       -20431.502      3413.128      -17018.374      1.0669298    
     65500   301.03357     -123.83622      53491.996     -20410.688      3367.6565     -17043.032      1.0664672    
     66000   294.60226     -273.30622      53404.408     -20336.34       3295.7096     -17040.63       1.0682163    
     66500   299.3809      -352.60796      53411.077     -20345.369      3349.1682     -16996.201      1.0680829    
     67000   302.28511     -612.18406      53647.816     -20363.273      3381.6575     -16981.616      1.0633696    
     67500   302.44537     -749.52722      53575.788     -20385.787      3383.4504     -17002.337      1.0647992    
     68000   299.33856      112.22836      53632.591     -20365.383      3348.6945     -17016.688      1.0636715    
     68500   295.43969      617.48575      53787.281     -20371.932      3305.0779     -17066.854      1.0606124    
     69000   302.96086     -65.247606      53427.067     -20440.143      3389.2171     -17050.926      1.0677632    
     69500   298.61937      264.86508      53726.593     -20378.525      3340.6489     -17037.876      1.0618104    
     70000   291.23034      568.84953      54087.11      -20294.633      3257.988      -17036.645      1.054733     
     70500   299.15483      228.65864      53600.403     -20363.421      3346.6391     -17016.782      1.0643102    
     71000   300.91581     -240.08221      53872.1       -20370.159      3366.3392     -17003.819      1.0589425    
     71500   302.6193       362.94049      53631.178     -20372.368      3385.396      -16986.972      1.0636995    
     72000   301.8459       191.83854      53643.685     -20353.594      3376.7441     -16976.849      1.0634515    
     72500   299.6112       348.83913      53846.824     -20322.062      3351.7446     -16970.317      1.0594396    
     73000   294.62317      128.10464      54084.866     -20248.09       3295.9435     -16952.147      1.0547767    
     73500   299.44584     -433.11315      54092.176     -20370.859      3349.8946     -17020.965      1.0546342    
     74000   297.46093     -62.216844      53933.964     -20349.478      3327.6895     -17021.788      1.0577279    
     74500   303.04635      302.91694      53854.556     -20421.3        3390.1735     -17031.126      1.0592875    
     75000   298.73599     -1.2332066      53977.349     -20317.766      3341.9536     -16975.812      1.0568777    
     75500   299.92182      341.14755      53911.856     -20345.326      3355.2195     -16990.107      1.0581616    
     76000   298.6848      -226.56942      54001.787     -20321.195      3341.3809     -16979.814      1.0563994    
     76500   304.37058      166.05798      53883.464     -20415.53       3404.9876     -17010.542      1.0587192    
     77000   301.70861      577.04182      53833.903     -20425.911      3375.2082     -17050.703      1.0596939    
     77500   296.81945     -185.24921      53629.352     -20374.887      3320.5133     -17054.374      1.0637357    
     78000   301.34109     -465.84435      53566.324     -20432.845      3371.0967     -17061.748      1.0649873    
     78500   299.9047       122.4432       53615.901     -20397.724      3355.0279     -17042.696      1.0640026    
     79000   303.34691     -429.51063      53816.255     -20405.602      3393.5358     -17012.066      1.0600414    
     79500   303.65874     -837.56282      53902.911     -20465.882      3397.0243     -17068.858      1.0583372    
     80000   301.76356     -346.99243      53764.399     -20395.831      3375.823      -17020.008      1.0610638    
     80500   302.50019      372.08123      53799.249     -20380.633      3384.0636     -16996.57       1.0603765    
     81000   297.79063     -49.808688      54026.768     -20347.748      3331.3779     -17016.37       1.055911     
     81500   289.60725      385.84095      53902.811     -20238.002      3239.8305     -16998.172      1.0583392    
     82000   296.11137      192.6013       53664.705     -20284.967      3312.592      -16972.375      1.063035     
     82500   303.55242     -15.940678      53481.406     -20361.17       3395.8349     -16965.335      1.0666783    
     83000   295.66718      332.21672      53516.943     -20321.791      3307.6229     -17014.168      1.06597      
     83500   298.68534     -224.48463      53996.715     -20354.011      3341.3869     -17012.624      1.0564987    
     84000   300.60023      249.78707      53959.829     -20356.47       3362.8088     -16993.661      1.0572209    
     84500   301.31837     -480.618        53642.654     -20370.296      3370.8426     -16999.453      1.0634719    
     85000   302.62385     -498.79781      53412.099     -20387.175      3385.447      -17001.728      1.0680624    
     85500   298.76293     -335.04769      53814.445     -20356.629      3342.2549     -17014.374      1.060077     
     86000   297.33253      444.246        53645.549     -20318.651      3326.2531     -16992.398      1.0634146    
     86500   299.96062      51.292671      53758.549     -20307.488      3355.6535     -16951.834      1.0611793    
     87000   309.50685      180.76051      53933.703     -20450.846      3462.447      -16988.399      1.057733     
     87500   303.93096      588.11796      53860.53      -20430.876      3400.0696     -17030.806      1.05917      
     88000   296.19762     -454.23669      53967.806     -20328.237      3313.5569     -17014.68       1.0570646    
     88500   296.61336      287.80585      53832.544     -20357.333      3318.2078     -17039.126      1.0597206    
     89000   297.08752      50.47329       54200.769     -20307.648      3323.5122     -16984.136      1.0525212    
     89500   299.01902      353.38969      54130.654     -20367.451      3345.1199     -17022.331      1.0538845    
     90000   297.62559     -352.06937      54321.463     -20341.77       3329.5316     -17012.239      1.0501826    
     90500   303.3158      -241.19127      54159.328     -20377.248      3393.1879     -16984.06       1.0533265    
     91000   302.05204      303.06976      54257.074     -20316.11       3379.0502     -16937.059      1.0514289    
     91500   300.77886      4.7504151      54188.316     -20335.629      3364.8071     -16970.822      1.0527631    
     92000   293.39686     -156.3908       54172.121     -20266.597      3282.2248     -16984.372      1.0530778    
     92500   295.54125      173.0383       53806.095     -20276.623      3306.2141     -16970.409      1.0602416    
     93000   301.41892     -260.47463      53477.39      -20293.245      3371.9675     -16921.277      1.0667585    
     93500   302.31268      1183.6237      53592.939     -20339.092      3381.966      -16957.126      1.0644585    
     94000   296.50138      965.09201      53910.897     -20294.933      3316.955      -16977.978      1.0581804    
     94500   304.62358      488.94731      53870.966     -20393.062      3407.8179     -16985.244      1.0589648    
     95000   294.3113       370.75149      53865.207     -20335.298      3292.4547     -17042.844      1.059078     
     95500   301.64516     -445.35329      53922.652     -20435.091      3374.4984     -17060.593      1.0579498    
     96000   297.96191     -885.86535      53478.156     -20355.663      3333.294      -17022.369      1.0667432    
     96500   301.38415      261.99875      53563.859     -20397.57       3371.5785     -17025.992      1.0650364    
     97000   299.25319      163.61495      53538.923     -20333.715      3347.7395     -16985.975      1.0655324    
     97500   298.56136     -459.39955      53887.902     -20313.648      3340          -16973.648      1.058632     
     98000   300.05962      697.35949      53798.017     -20394.02       3356.761      -17037.259      1.0604008    
     98500   298.12499     -397.97297      54361.145     -20350.953      3335.1183     -17015.835      1.049416     
     99000   302.02774      242.2903       54028.583     -20380.517      3378.7783     -17001.738      1.0558755    
     99500   295.47733      152.85533      54078.931     -20312.078      3305.499      -17006.579      1.0548925    
    100000   300.47094     -293.67542      54289.626     -20354.938      3361.3624     -16993.575      1.0507985    
    100010   295.75073     -582.66352      54291.683     -20301.183      3308.5575     -16992.625      1.0507587    
Loop time of 1453.31 on 4 procs for 50000 steps with 5541 atoms

Performance: 5.945 ns/day, 4.037 hours/ns, 34.404 timesteps/s, 190.634 katom-step/s
309.0% CPU use with 1 MPI tasks x 4 OpenMP threads

MPI task timing breakdown:
Section |  min time  |  avg time  |  max time  |%varavg| %total
---------------------------------------------------------------
Pair    | 35.894     | 35.894     | 35.894     |   0.0 |  2.47
Bond    | 0.51566    | 0.51566    | 0.51566    |   0.0 |  0.04
Kspace  | 681.66     | 681.66     | 681.66     |   0.0 | 46.90
Neigh   | 0.085361   | 0.085361   | 0.085361   |   0.0 |  0.01
Comm    | 15.514     | 15.514     | 15.514     |   0.0 |  1.07
Output  | 0.047831   | 0.047831   | 0.047831   |   0.0 |  0.00
Modify  | 713.9      | 713.9      | 713.9      |   0.0 | 49.12
Other   |            | 5.695      |            |       |  0.39

Nlocal:           5541 ave        5541 max        5541 min
Histogram: 1 0 0 0 0 0 0 0 0 0
Nghost:          35544 ave       35544 max       35544 min
Histogram: 1 0 0 0 0 0 0 0 0 0
Neighs:              0 ave           0 max           0 min
Histogram: 1 0 0 0 0 0 0 0 0 0

Total # of neighbors = 0
Ave neighs/atom = 0
Ave special neighs/atom = 2.4872767
Neighbor list builds = 4590
Dangerous builds = 0

thermo 1000  # Return to normal frequency

unfix mynpt_ramp
undump ramp_dcd

write_restart pressure_ramp_complete.restart
System init for write_restart ...
PPPM initialization ...
  extracting TIP4P info from pair style
  using 12-bit tables for long-range coulomb
  G vector (1/distance) = 0.28831867
  grid = 50 50 50
  stencil order = 5
  estimated absolute RMS force accuracy = 0.00032987098
  estimated relative force accuracy = 9.9339666e-07
  using double precision FFTW3
  3d grid and FFT values/proc = 205379 125000
Generated 0 of 3 mixed pair_coeff terms from geometric mixing rule
write_data pressure_ramp_complete.data
System init for write_data ...
PPPM initialization ...
  extracting TIP4P info from pair style
  using 12-bit tables for long-range coulomb
  G vector (1/distance) = 0.28831867
  grid = 50 50 50
  stencil order = 5
  estimated absolute RMS force accuracy = 0.00032987098
  estimated relative force accuracy = 9.9339666e-07
  using double precision FFTW3
  3d grid and FFT values/proc = 205379 125000
Generated 0 of 3 mixed pair_coeff terms from geometric mixing rule
WARNING: Not all mixed pair coeffs generated from mixing. Use write_data with 'pair ij' option to store all pair coeffs. (src/write_data.cpp:364)

# ğŸ”§ CHECKPOINT #3: Critical check after ramp (most likely failure point)
variable current_dens equal density
variable current_press equal press
variable current_vol equal vol
variable current_boxsize equal vol^(1.0/3.0)

print ""

print "Pressure ramp complete:"
Pressure ramp complete:
print "  Density:  ${current_dens} g/cmÂ³"
  Density:  1.05075868010062 g/cm³
print "  Pressure: ${current_press} atm"
  Pressure: -582.663518260594 atm
print "  Volume:   ${current_vol} Ã…Â³"
  Volume:   54291.6834250987 …³
print "  Box size: ${current_boxsize} Ã…"
  Box size: 37.8655645301579 …

if "${current_dens} < 0.75" then     "print ''"     "print 'ğŸ”´ CRITICAL ERROR: Density collapsed to ${current_dens} g/cmÂ³!'"     "print ''"     "print 'This means the PPPM artifact occurred despite fixes.'"     "print 'Check equilibration.log for pressure spike around step 75,000-85,000'"     "print ''"     "print 'If pressure exceeded 10,000 atm during ramp:'"     "print '  â†’ PPPM grid still recalculating (increase mesh size)'"     "print '  â†’ Try mesh 50 50 50 or mesh 60 60 60'"     "print ''"     "print 'If pressure stayed < 1,000 atm but density still dropped:'"     "print '  â†’ Initial configuration may be problematic'"     "print '  â†’ Check initial_system.data for pre-existing issues'"     "print ''"     "quit 1"

print "âœ“ Checkpoint 3 PASSED: Pressure ramp successful, liquid phase maintained"
œ“ Checkpoint 3 PASSED: Pressure ramp successful, liquid phase maintained

#==============================================================================
# STAGE 3: NPT Equilibration (Complete 1000 ps with 2-phase strategy)
#==============================================================================
print ""

print "===== STAGE 3: NPT Equilibration (1000 ps, GPU) ====="
===== STAGE 3: NPT Equilibration (1000 ps, GPU) =====
print "Equilibrating at 300K, 1 atm with improved pressure control"
Equilibrating at 300K, 1 atm with improved pressure control
print ""

print "Strategy:"
Strategy:
print "  Phase 1 (400 ps): Higher damping for gentle pressure equilibration"
  Phase 1 (400 ps): Higher damping for gentle pressure equilibration
print "  Phase 2 (600 ps): Standard damping for final equilibration"
  Phase 2 (600 ps): Standard damping for final equilibration
print ""


# Phase 1: Gentle NPT with stronger pressure damping (400 ps)
print "Phase 1: Gentle pressure equilibration (400 ps, pdamp=5000)..."
Phase 1: Gentle pressure equilibration (400 ps, pdamp=5000)...
# ğŸ”§ CRITICAL: Using npt/gpu instead of npt for FULL GPU acceleration
fix mynpt_gentle all npt/gpu temp 300.0 300.0 100.0 iso 1.0 1.0 5000.0

dump npt_traj all custom 2000 npt_equilibration.lammpstrj id type xu yu zu
dump_modify npt_traj sort id

dump npt_dcd all dcd 2000 npt_equilibration.dcd
dump_modify npt_dcd unwrap yes

# Thermodynamic averaging during NPT
fix thermo_avg_npt all ave/time 100 10 1000 v_epsilon_co v_temp v_press v_pe v_ke v_etotal v_vol v_dens     file npt_equilibration_thermo.dat

run 200000  # 400 ps at 2 fs timestep
PPPM initialization ...
  extracting TIP4P info from pair style
  using 12-bit tables for long-range coulomb
  G vector (1/distance) = 0.28831867
  grid = 50 50 50
  stencil order = 5
  estimated absolute RMS force accuracy = 0.00032987098
  estimated relative force accuracy = 9.9339666e-07
  using double precision FFTW3
  3d grid and FFT values/proc = 205379 125000
Generated 0 of 3 mixed pair_coeff terms from geometric mixing rule
Per MPI rank memory allocation (min/avg/max) = 50.64 | 50.64 | 50.64 Mbytes
   Step          Temp          Press          Volume         PotEng         KinEng         TotEng        Density    
    100010   295.75073     -580.94471      54291.683     -20301.23       3308.5575     -16992.673      1.0507587    
    101000   297.06596     -190.59505      53987.694     -20351.288      3323.2709     -17028.017      1.0566752    
    102000   303.59257     -52.460972      53721.731     -20305.771      3396.284      -16909.487      1.0619065    
    103000   293.0925       203.95561      54013.209     -20445.542      3278.82       -17166.722      1.056176     
    104000   294.09118     -867.82671      54206.934     -20338.3        3289.9922     -17048.308      1.0524015    
    105000   301.69042      39.181793      53631.509     -20261.192      3375.0048     -16886.187      1.0636929    
    106000   305.25996      331.12511      53436.191     -20311.449      3414.9371     -16896.512      1.0675809    
    107000   302.98565      511.27886      53310.533     -20439.01       3389.4944     -17049.515      1.0700973    
    108000   296.92274      182.36983      53835.074     -20196.872      3321.6687     -16875.203      1.0596708    
    109000   301.50371      599.82964      53878.504     -20304.091      3372.916      -16931.175      1.0588167    
    110000   301.07647      544.30443      53532.066     -20424.501      3368.1365     -17056.365      1.0656689    
    111000   298.03603     -68.49078       53729.047     -20267.759      3334.1231     -16933.636      1.061762     
    112000   306.88482      143.24532      53841.425     -20190.731      3433.1144     -16757.617      1.0595458    
    113000   296.176        309.86389      53655.107     -20187.493      3313.315      -16874.178      1.0632251    
    114000   303.21181      365.13657      53895.177     -20293.782      3392.0245     -16901.758      1.0584891    
    115000   298.92881      431.5658       53764.077     -20437.57       3344.1107     -17093.459      1.0610701    
    116000   304.03853     -39.646252      53966.099     -20360.11       3401.273      -16958.837      1.057098     
    117000   297.1064      -853.17009      53829.583     -20419.171      3323.7234     -17095.448      1.0597789    
    118000   299.42925     -216.70557      53880.429     -20420.274      3349.7091     -17070.565      1.0587788    
    119000   301.42481     -805.16076      53879.211     -20302.964      3372.0334     -16930.931      1.0588028    
    120000   296.82118      170.86649      53249.768     -20400.971      3320.5326     -17080.438      1.0713184    
    121000   304.19821      563.06325      53962.823     -20218.355      3403.0593     -16815.295      1.0571622    
    122000   298.62281      443.35675      54413.667     -20383.389      3340.6874     -17042.702      1.0484031    
    123000   293.64182      1193.0973      53998.651     -20326.247      3284.9652     -17041.282      1.0564608    
    124000   302.82571     -597.67992      53581.128     -20400.93       3387.7052     -17013.224      1.0646931    
    125000   296.22208      493.78868      53505.164     -20508.45       3313.8306     -17194.62       1.0662047    
    126000   296.39407      159.18899      53919.945     -20392.289      3315.7546     -17076.535      1.0580029    
    127000   293.57178     -446.55243      54294.284     -20334.843      3284.1817     -17050.661      1.0507084    
    128000   302.62463     -206.46355      54043.237     -20304.391      3385.4558     -16918.935      1.0555892    
    129000   298.05208      207.39393      53834.195     -20224.893      3334.3027     -16890.59       1.0596881    
    130000   301.96054      259.64563      53702.978     -20302.407      3378.0266     -16924.38       1.0622774    
    131000   302.15944      1355.8182      53816.921     -20404.916      3380.2517     -17024.664      1.0600283    
    132000   300.34944      532.49245      54286.085     -20296.877      3360.0032     -16936.874      1.050867     
    133000   303.71527      330.56637      54195.008     -20250.054      3397.6567     -16852.398      1.0526331    
    134000   303.81258      583.90818      53486.675     -20400.422      3398.7453     -17001.677      1.0665733    
    135000   299.57327      365.67606      53794.285     -20248.231      3351.3202     -16896.911      1.0604743    
    136000   301.98492      461.32597      54196.133     -20403.132      3378.2993     -17024.833      1.0526112    
    137000   305.89575     -161.94794      54084.436     -20403.742      3422.0497     -16981.692      1.0547851    
    138000   297.23211      154.71012      53144.933     -20455.451      3325.1297     -17130.322      1.0734317    
    139000   305.68738      807.80571      53414.131     -20331.237      3419.7186     -16911.518      1.0680218    
    140000   299.852       -983.89877      54106.607     -20257.673      3354.4384     -16903.235      1.0543529    
    141000   296.00785     -164.72762      53896.335     -20387.838      3311.4339     -17076.404      1.0584664    
    142000   308.29096     -464.98745      53839.172     -20311.913      3448.8449     -16863.068      1.0595902    
    143000   300.51966     -190.65589      53645.485     -20482.332      3361.9075     -17120.424      1.0634158    
    144000   303.25622      319.1073       54054.584     -20355.602      3392.5213     -16963.081      1.0553676    
    145000   293.95121     -896.20408      54371.118     -20334.296      3288.4263     -17045.869      1.0492235    
    146000   300.08684     -543.70661      53834.881     -20303.292      3357.0655     -16946.226      1.0596746    
    147000   291.3592       184.90486      53395.822     -20270.86       3259.4295     -17011.43       1.068388     
    148000   305.36274     -476.96433      54237.864     -20352.871      3416.0868     -16936.784      1.0518013    
    149000   306.5698      -318.00292      54107.504     -20360.028      3429.5903     -16930.438      1.0543354    
    150000   299.71181      41.643091      53800.004     -20403.533      3352.87       -17050.663      1.0603616    
    151000   300.59323      24.972811      54024.025     -20303.563      3362.7305     -16940.832      1.0559646    
    152000   297.08752     -184.97785      53725.322     -20405.876      3323.5121     -17082.364      1.0618356    
    153000   298.88132      663.95314      53818.771     -20312.75       3343.5793     -16969.171      1.0599918    
    154000   307.80639      328.2127       54114.729     -20277.951      3443.424      -16834.527      1.0541946    
    155000   300.84668      274.80543      54070.498     -20246.96       3365.5659     -16881.395      1.055057     
    156000   298.52523     -406.46929      53424.252     -20296.222      3339.5958     -16956.626      1.0678195    
    157000   301.49374      187.06528      53476.785     -20241.122      3372.8045     -16868.318      1.0667705    
    158000   299.643       -302.79876      54395.863     -20288.372      3352.1003     -16936.271      1.0487463    
    159000   294.44744     -112.08305      54056.921     -20394.164      3293.9777     -17100.187      1.055322     
    160000   306.39041      667.26703      53923.219     -20388.193      3427.5834     -16960.61       1.0579386    
    161000   294.05248     -745.23545      54246.1       -20419.568      3289.5593     -17130.009      1.0516416    
    162000   294.7521      -825.27358      53764.593     -20355.77       3297.3859     -17058.385      1.06106      
    163000   304.58206      410.35305      53585.034     -20404.197      3407.3534     -16996.844      1.0646155    
    164000   301.30767     -342.74622      53980.357     -20325.07       3370.723      -16954.347      1.0568188    
    165000   307.05702     -110.04782      53906.372     -20432.979      3435.0408     -16997.938      1.0582693    
    166000   301.60755     -579.09487      54141.85      -20372.482      3374.0777     -16998.404      1.0536666    
    167000   298.51174      31.031201      54174.115     -20367.698      3339.4448     -17028.253      1.053039     
    168000   309.13758      165.08063      53889.315     -20238.481      3458.316      -16780.165      1.0586042    
    169000   299.99466      341.66461      53309.22      -20428.387      3356.0343     -17072.352      1.0701237    
    170000   295.11274     -698.87134      54024.337     -20331.203      3301.4204     -17029.783      1.0559585    
    171000   303.99591     -277.36233      54278.95      -20202.271      3400.7962     -16801.474      1.0510052    
    172000   298.05332      458.16921      54079.629     -20315.223      3334.3166     -16980.906      1.0548789    
    173000   300.43333      82.454921      54327.04      -20458.528      3360.9416     -17097.586      1.0500748    
    174000   298.0621       308.75478      54395.503     -20219.993      3334.4147     -16885.578      1.0487532    
    175000   298.79136     -587.82498      54411.2       -20342.72       3342.5731     -17000.147      1.0484506    
    176000   298.94226     -558.78084      54235.702     -20352.966      3344.2611     -17008.705      1.0518433    
    177000   291.80505      387.5818       53394.565     -20303.639      3264.4173     -17039.221      1.0684132    
    178000   302.03369     -429.28926      53901.543     -20371.005      3378.8449     -16992.16       1.0583641    
    179000   303.02193     -467.35198      53628.306     -20315.525      3389.9003     -16925.625      1.0637565    
    180000   302.92148      798.24397      53613.429     -20331.368      3388.7766     -16942.592      1.0640517    
    181000   296.21198     -553.92942      54215.961     -20331.283      3313.7175     -17017.565      1.0522262    
    182000   301.84425      694.58658      53617.278     -20370.373      3376.7256     -16993.647      1.0639753    
    183000   304.5754       120.52659      53511.11      -20440.055      3407.2789     -17032.776      1.0660862    
    184000   297.67512      372.42572      53544.07      -20415.231      3330.0857     -17085.145      1.06543      
    185000   299.78267      244.35627      53615.547     -20212.757      3353.6628     -16859.094      1.0640096    
    186000   305.72301     -621.2095       53497.809     -20289.44       3420.1173     -16869.322      1.0663513    
    187000   300.17792     -501.33279      53678.968     -20337.635      3358.0844     -16979.551      1.0627525    
    188000   299.45954     -219.03902      53945.209     -20479.302      3350.0479     -17129.255      1.0575074    
    189000   302.41517      261.55428      53850.298     -20466.339      3383.1125     -17083.227      1.0593712    
    190000   301.361        258.95514      54037.358     -20402.515      3371.3195     -17031.195      1.0557041    
    191000   301.29235     -232.19309      53628.911     -20374.777      3370.5515     -17004.226      1.0637445    
    192000   302.11968      466.4823       53222.279     -20468.626      3379.8069     -17088.819      1.0718717    
    193000   297.52939     -349.18092      54014.149     -20264.05       3328.4554     -16935.594      1.0561577    
    194000   301.15783     -127.24299      54027.596     -20309.105      3369.0466     -16940.058      1.0558948    
    195000   293.16651      778.21691      53537.585     -20364.601      3279.6479     -17084.954      1.065559     
    196000   302.04995     -1009.3323      54055.311     -20269.209      3379.0268     -16890.182      1.0553534    
    197000   301.08453     -242.57279      54228.463     -20247.736      3368.2267     -16879.509      1.0519837    
    198000   302.77221     -1227.9924      53569.795     -20247.521      3387.1067     -16860.414      1.0649183    
    199000   297.02231     -67.153612      53355.825     -20259.122      3322.7827     -16936.339      1.0691889    
    200000   295.60403     -404.80203      53575.259     -20323.937      3306.9164     -17017.021      1.0648097    
    201000   302.57714     -422.99187      54092.45      -20377.294      3384.9244     -16992.37       1.0546288    
    202000   297.45134     -654.48272      54058.521     -20405.381      3327.5822     -17077.799      1.0552908    
    203000   298.97096     -388.37987      54241.379     -20321.359      3344.5822     -16976.777      1.0517332    
    204000   294.56039      199.86905      53566.658     -20424.541      3295.2413     -17129.3        1.0649807    
    205000   296.30388     -107.97899      54233.019     -20303.47       3314.7456     -16988.725      1.0518953    
    206000   292.02823     -349.47178      54301.215     -20323.817      3266.914      -17056.903      1.0505742    
    207000   299.03867     -687.90501      53768.719     -20262.49       3345.3396     -16917.151      1.0609786    
    208000   306.5693       51.205457      53788.85      -20456.777      3429.5847     -17027.192      1.0605815    
    209000   294.92278      303.53605      54071.528     -20453.843      3299.2953     -17154.547      1.0550369    
    210000   302.91983      134.404        54281.971     -20273.273      3388.7581     -16884.515      1.0509467    
    211000   291.16706      532.81562      53914.856     -20382.304      3257.2801     -17125.024      1.0581027    
    212000   299.52134      591.41979      53820.846     -20284.495      3350.7392     -16933.756      1.059951     
    213000   300.05967      97.668328      53761.119     -20409.53       3356.7616     -17052.768      1.0611285    
    214000   294.70571      177.8275       53939.353     -20457.732      3296.8669     -17160.865      1.0576222    
    215000   297.16307      8.2125837      53782.925     -20510.963      3324.3574     -17186.606      1.0606983    
    216000   299.04619     -57.700722      54088.589     -20288.792      3345.4238     -16943.368      1.0547041    
    217000   309.61347     -485.377        54348.414     -20336.701      3463.6398     -16873.061      1.0496619    
    218000   305.37867      275.01467      53719.091     -20286.682      3416.2651     -16870.417      1.0619587    
    219000   293.38042      340.6636       53669.587     -20464.244      3282.0409     -17182.204      1.0629383    
    220000   301.92791     -256.23739      54265.62      -20253.727      3377.6616     -16876.066      1.0512634    
    221000   300.2624       576.41222      54039.036     -20347.306      3359.0295     -16988.276      1.0556713    
    222000   293.27383      708.39367      53451.398     -20412.893      3280.8485     -17132.045      1.0672772    
    223000   294.31237     -9.6028075      53694.55      -20380.668      3292.4666     -17088.202      1.0624441    
    224000   301.18118     -319.56142      54142.804     -20325.189      3369.3078     -16955.881      1.053648     
    225000   293.86487     -1178.3264      54172.748     -20321.499      3287.4604     -17034.039      1.0530656    
    226000   303.29481     -407.43477      53612.736     -20463.816      3392.953      -17070.863      1.0640654    
    227000   305.7705      -510.1986       53952.887     -20407.145      3420.6485     -16986.497      1.0573569    
    228000   301.12965     -182.20677      54163.849     -20221.632      3368.7314     -16852.901      1.0532386    
    229000   292.79249     -471.26016      53849.741     -20252.718      3275.4638     -16977.255      1.0593822    
    230000   306.63532      85.189017      53477.297     -20302.397      3430.3232     -16872.074      1.0667603    
    231000   302.86075     -59.485925      53879.677     -20366.909      3388.0972     -16978.812      1.0587936    
    232000   306.48579     -664.57349      53802.944     -20372.708      3428.6504     -16944.057      1.0603036    
    233000   304.10916     -1071.9883      53344.816     -20421.515      3402.0631     -17019.452      1.0694096    
    234000   303.51776      100.16285      53294.124     -20359.478      3395.4471     -16964.03       1.0704268    
    235000   292.68312     -703.70243      54005.513     -20382.752      3274.2403     -17108.511      1.0563266    
    236000   298.56515      47.912801      54630.762     -20299.064      3340.0424     -16959.022      1.0442369    
    237000   296.42278      76.02667       54186.134     -20369.893      3316.0757     -17053.817      1.0528055    
    238000   295.32997     -30.124517      54057.892     -20289.39       3303.8505     -16985.539      1.055303     
    239000   297.63178     -120.85898      54010.106     -20426.19       3329.6008     -17096.589      1.0562367    
    240000   297.1445       391.34707      53549.511     -20232.759      3324.1497     -16908.61       1.0653217    
    241000   299.65421      104.24706      54240.587     -20353.426      3352.2257     -17001.2        1.0517485    
    242000   303.74522     -108.7396       54219.595     -20256.759      3397.9918     -16858.768      1.0521557    
    243000   302.75448      568.69875      53601.893     -20351.014      3386.9084     -16964.106      1.0642807    
    244000   298.97685      8.8468808      54079.563     -20257.451      3344.6481     -16912.803      1.0548802    
    245000   304.72973     -6.6469761      54020.383     -20394.148      3409.0054     -16985.143      1.0560358    
    246000   300.23762      627.8103       53272.504     -20172.925      3358.7522     -16814.173      1.0708612    
    247000   298.54099     -631.4054       53623.542     -20392.977      3339.7721     -17053.205      1.063851     
    248000   299.88844     -39.19662       54132.327     -20286.252      3354.846      -16931.406      1.0538519    
    249000   301.70361      151.1958       54506.045     -20316.984      3375.1523     -16941.832      1.0466263    
    250000   301.17787      567.05343      54025.582     -20425.33       3369.2708     -17056.059      1.0559342    
    251000   299.13662     -265.54869      53995.945     -20347.13       3346.4354     -17000.694      1.0565137    
    252000   298.7488      -1042.167       54382.891     -20400.826      3342.0969     -17058.729      1.0489964    
    253000   302.24312     -569.32802      54628.006     -20266.775      3381.1878     -16885.587      1.0442896    
    254000   304.39923      485.73546      54248.813     -20285.916      3405.3082     -16880.608      1.051589     
    255000   301.23792      457.19356      53947.288     -20356.531      3369.9426     -16986.588      1.0574666    
    256000   294.83496     -526.7285       53994.816     -20313.277      3298.3128     -17014.964      1.0565358    
    257000   303.22318     -8.7162701      53519.163     -20374.691      3392.1517     -16982.54       1.0659258    
    258000   301.61354      765.22929      53329.064     -20456.926      3374.1446     -17082.781      1.0697255    
    259000   302.90357     -760.92953      54147.466     -20343.542      3388.5762     -16954.966      1.0535573    
    260000   301.35791     -70.98015       53983.522     -20358.318      3371.2849     -16987.033      1.0567569    
    261000   300.58139      333.1291       53933.82      -20565.638      3362.598      -17203.04       1.0577307    
    262000   303.84328      1067.382       54320.263     -20394.312      3399.0887     -16995.223      1.0502058    
    263000   300.16117     -389.43801      54722.267     -20373.747      3357.897      -17015.85       1.0424908    
    264000   300.10262     -131.93073      54099.345     -20360.184      3357.242      -17002.942      1.0544944    
    265000   302.49825      893.87873      53757.682     -20386.981      3384.042      -17002.939      1.0611964    
    266000   299.54556      73.852306      53931.115     -20419.757      3351.0102     -17068.747      1.0577838    
    267000   303.40363      343.7364       53992.631     -20330.119      3394.1704     -16935.949      1.0565786    
    268000   295.93693     -248.8517       53775.475     -20372.026      3310.6406     -17061.386      1.0608453    
    269000   291.15497     -461.05946      54089.768     -20232.068      3257.1448     -16974.923      1.0546811    
    270000   309.56501     -1.3901992      54259.74      -20349.828      3463.0976     -16886.73       1.0513773    
    271000   296.77308     -550.4309       53773.433     -20304.144      3319.9945     -16984.149      1.0608855    
    272000   302.32134     -154.41216      53544.827     -20346.153      3382.0628     -16964.091      1.0654149    
    273000   297.57985      721.98788      53800.85      -20362.778      3329.0198     -17033.758      1.0603449    
    274000   297.09079     -1221.7377      54345.314     -20454.673      3323.5487     -17131.124      1.0497217    
    275000   307.2942       82.906181      54180.753     -20321.901      3437.6941     -16884.207      1.05291      
    276000   305.11265      1133.2908      53755.915     -20317.552      3413.2892     -16904.263      1.0612313    
    277000   304.55924      315.94159      53907.789     -20518.631      3407.0981     -17111.533      1.0582415    
    278000   304.95565      114.93644      53993.065     -20497.229      3411.5328     -17085.697      1.0565701    
    279000   303.65934      500.75036      53726         -20298.011      3397.0311     -16900.98       1.0618222    
    280000   295.12235      735.15521      53513.995     -20241.317      3301.5279     -16939.789      1.0660287    
    281000   293.25326      988.63751      53715.996     -20376.964      3280.6184     -17096.346      1.0620199    
    282000   298.53247     -856.1398       53830.211     -20416.472      3339.6768     -17076.795      1.0597666    
    283000   298.37835      284.43554      53489.514     -20345.904      3337.9527     -17007.952      1.0665166    
    284000   300.03478      438.83676      53624.342     -20362.759      3356.4831     -17006.276      1.0638351    
    285000   299.94157     -141.22025      54155.892     -20232.79       3355.4403     -16877.35       1.0533934    
    286000   298.39662     -130.97908      53917.375     -20364.774      3338.1571     -17026.617      1.0580533    
    287000   304.90134     -716.976        53628.987     -20378.751      3410.9252     -16967.826      1.063743     
    288000   299.309        156.72975      53963.836     -20320.595      3348.3639     -16972.231      1.0571424    
    289000   300.58404     -548.70236      54009.202     -20370.319      3362.6277     -17007.691      1.0562544    
    290000   299.46228      430.45641      53498.788     -20403.863      3350.0786     -17053.784      1.0663318    
    291000   300.20219      150.43423      53714.768     -20311.471      3358.356      -16953.115      1.0620442    
    292000   295.99595      268.49778      54018.368     -20261.849      3311.3008     -16950.549      1.0560752    
    293000   302.24523     -603.35809      53798.817     -20407.531      3381.2114     -17026.319      1.060385     
    294000   299.77631     -124.85577      53865.509     -20244.255      3353.5916     -16890.663      1.0590721    
    295000   302.13799      64.960329      53540.402     -20386.565      3380.0117     -17006.553      1.065503     
    296000   308.85559     -444.72147      54079.116     -20268.295      3455.1614     -16813.134      1.0548889    
    297000   300.00488      102.7747       54307.572     -20277.002      3356.1486     -16920.854      1.0504513    
    298000   302.08854      619.54027      53499.719     -20438.227      3379.4585     -17058.769      1.0663132    
    299000   292.79545     -640.93015      53915.039     -20355.233      3275.4969     -17079.736      1.0580992    
    300000   305.32872     -259.58959      53903.405     -20477.178      3415.7064     -17061.471      1.0583275    
    300010   300.47473      121.81025      53903.446     -20423.881      3361.4048     -17062.476      1.0583267    
Loop time of 5814.96 on 4 procs for 200000 steps with 5541 atoms

Performance: 5.943 ns/day, 4.038 hours/ns, 34.394 timesteps/s, 190.577 katom-step/s
309.4% CPU use with 1 MPI tasks x 4 OpenMP threads

MPI task timing breakdown:
Section |  min time  |  avg time  |  max time  |%varavg| %total
---------------------------------------------------------------
Pair    | 141.68     | 141.68     | 141.68     |   0.0 |  2.44
Bond    | 2.2236     | 2.2236     | 2.2236     |   0.0 |  0.04
Kspace  | 2731.4     | 2731.4     | 2731.4     |   0.0 | 46.97
Neigh   | 0.33584    | 0.33584    | 0.33584    |   0.0 |  0.01
Comm    | 61.931     | 61.931     | 61.931     |   0.0 |  1.07
Output  | 0.73283    | 0.73283    | 0.73283    |   0.0 |  0.01
Modify  | 2853.6     | 2853.6     | 2853.6     |   0.0 | 49.07
Other   |            | 23.05      |            |       |  0.40

Nlocal:           5541 ave        5541 max        5541 min
Histogram: 1 0 0 0 0 0 0 0 0 0
Nghost:          35883 ave       35883 max       35883 min
Histogram: 1 0 0 0 0 0 0 0 0 0
Neighs:              0 ave           0 max           0 min
Histogram: 1 0 0 0 0 0 0 0 0 0

Total # of neighbors = 0
Ave neighs/atom = 0
Ave special neighs/atom = 2.4872767
Neighbor list builds = 18397
Dangerous builds = 0

unfix mynpt_gentle

variable phase1_dens equal density
variable phase1_press equal press
print ""

print "Phase 1 complete:"
Phase 1 complete:
print "  Density:  ${phase1_dens} g/cmÂ³"
  Density:  1.05832672568689 g/cm³
print "  Pressure: ${phase1_press} atm"
  Pressure: 121.810253230127 atm
print ""


# Phase 2: Standard NPT damping (600 ps)
print "Phase 2: Final equilibration (600 ps, pdamp=2000)..."
Phase 2: Final equilibration (600 ps, pdamp=2000)...
# ğŸ”§ CRITICAL: Using npt/gpu instead of npt for FULL GPU acceleration
fix mynpt_standard all npt/gpu temp 300.0 300.0 100.0 iso 1.0 1.0 2000.0

run 300000  # 600 ps at 2 fs timestep
PPPM initialization ...
  extracting TIP4P info from pair style
  using 12-bit tables for long-range coulomb
  G vector (1/distance) = 0.28844514
  grid = 50 50 50
  stencil order = 5
  estimated absolute RMS force accuracy = 0.0003276263
  estimated relative force accuracy = 9.8663686e-07
  using double precision FFTW3
  3d grid and FFT values/proc = 205379 125000
Generated 0 of 3 mixed pair_coeff terms from geometric mixing rule
Per MPI rank memory allocation (min/avg/max) = 53.19 | 53.19 | 53.19 Mbytes
   Step          Temp          Press          Volume         PotEng         KinEng         TotEng        Density    
    300010   300.47473      122.12596      53903.446     -20423.892      3361.4048     -17062.488      1.0583267    
    301000   297.61727      813.84611      53631.425     -20329.92       3329.4384     -17000.482      1.0636946    
    302000   298.7792      -365.74143      53536.288     -20376.971      3342.4369     -17034.534      1.0655849    
    303000   300.54996      266.72066      53968.412     -20326.895      3362.2464     -16964.648      1.0570527    
    304000   305.60912      1037.6652      53420.268     -20395.202      3418.8431     -16976.359      1.0678991    
    305000   300.21056      575.76667      54403.854     -20257.93       3358.4496     -16899.48       1.0485922    
    306000   300.74068     -127.65952      54040.754     -20409.273      3364.38       -17044.893      1.0556377    
    307000   303.66302      717.21835      54070.525     -20381.278      3397.0722     -16984.206      1.0550565    
    308000   307.81396     -274.25619      53743.561     -20427.855      3443.5087     -16984.347      1.0614752    
    309000   303.23239      402.07562      52962.155     -20356.185      3392.2547     -16963.93       1.0771363    
    310000   291.08805     -1158.0443      54177.021     -20245.908      3256.3962     -16989.512      1.0529825    
    311000   297.19486     -552.87357      54070.009     -20238.047      3324.713      -16913.334      1.0550666    
    312000   305.60986     -52.227549      53788.844     -20360.331      3418.8514     -16941.479      1.0605816    
    313000   302.64912      418.37304      53885.034     -20251.098      3385.7296     -16865.368      1.0586883    
    314000   305.11975      268.78772      53722.829     -20166.26       3413.3686     -16752.891      1.0618848    
    315000   307.67109     -756.10885      53723.566     -20339.025      3441.9103     -16897.114      1.0618703    
    316000   304.45414     -183.3852       53709.292     -20473.328      3405.9225     -17067.405      1.0621525    
    317000   300.28027     -141.42632      54332.193     -20398.472      3359.2294     -17039.243      1.0499752    
    318000   295.12961     -762.15185      54269.069     -20264.231      3301.6091     -16962.622      1.0511965    
    319000   291.36377      170.97995      54193.559     -20391.44       3259.4807     -17131.959      1.0526612    
    320000   296.65333     -659.41384      53921.97      -20382.282      3318.6549     -17063.627      1.0579631    
    321000   298.11475     -992.96666      53695.641     -20398.976      3335.0037     -17063.973      1.0624225    
    322000   304.14822     -1081.9375      53952.895     -20384.79       3402.5001     -16982.29       1.0573567    
    323000   295.38016     -647.1746       53953.31      -20286.752      3304.412      -16982.34       1.0573486    
    324000   302.95419     -74.523371      53541.613     -20364.981      3389.1425     -16975.838      1.0654789    
    325000   305.46905      611.60573      53723.44      -20293.132      3417.2762     -16875.856      1.0618728    
    326000   297.80429     -773.76739      54099.483     -20418.855      3331.5307     -17087.324      1.0544917    
    327000   301.41392      642.99888      53204.524     -20305.689      3371.9116     -16933.777      1.0722295    
    328000   303.42894      36.936658      53780.07      -20338.928      3394.4535     -16944.475      1.0607546    
    329000   303.02081      468.68111      53625.751     -20403.438      3389.8878     -17013.55       1.0638072    
    330000   301.64496      1099.6106      53691.246     -20413.535      3374.4962     -17039.039      1.0625095    
    331000   297.78913      264.83224      53573.39      -20325.485      3331.361      -16994.124      1.0648469    
    332000   296.22022      256.61588      53933.069     -20386.921      3313.8097     -17073.111      1.0577454    
    333000   296.7025      -542.7467       54214.716     -20474.64       3319.2049     -17155.435      1.0522504    
    334000   296.18172      136.73144      53827.157     -20276.874      3313.379      -16963.495      1.0598267    
    335000   292.47491      557.65506      53184.863     -20275.664      3271.911      -17003.753      1.0726258    
    336000   292.61706      485.68518      53584.14      -20358.906      3273.5012     -17085.405      1.0646333    
    337000   302.01749     -1050.1069      53594.748     -20328.934      3378.6637     -16950.27       1.0644225    
    338000   298.54909      144.86884      53678.111     -20264.589      3339.8627     -16924.727      1.0627695    
    339000   304.86188      278.3355       53945.015     -20377.574      3410.4837     -16967.09       1.0575112    
    340000   303.54874      179.58728      53660.25      -20243.274      3395.7937     -16847.481      1.0631232    
    341000   308.12124     -513.18505      53871.202     -20411.51       3446.9462     -16964.564      1.0589602    
    342000   304.87631      817.79226      54046.548     -20437.35       3410.6453     -17026.705      1.0555245    
    343000   306.97118     -214.2512       54219.442     -20398.768      3434.0805     -16964.688      1.0521587    
    344000   295.72623      509.93799      54100.838     -20384.863      3308.2834     -17076.579      1.0544653    
    345000   298.42144      161.25964      53536.43      -20282.228      3338.4347     -16943.794      1.065582     
    346000   301.96277      205.49504      53871.004     -20429.36       3378.0515     -17051.308      1.0589641    
    347000   301.13954      335.65469      53668.617     -20279.073      3368.842      -16910.23       1.0629575    
    348000   297.29624     -145.52126      53295.661     -20340.711      3325.8471     -17014.864      1.0703959    
    349000   292.74815     -227.45132      53397.114     -20486.03       3274.9678     -17211.063      1.0683622    
    350000   305.80862      616.41948      53652.112     -20385.504      3421.0749     -16964.429      1.0632845    
    351000   298.61307      543.39851      54057.637     -20406.482      3340.5784     -17065.904      1.055308     
    352000   294.51848      111.6021       54132.664     -20387.572      3294.7723     -17092.799      1.0538454    
    353000   302.36442     -979.53458      54345.291     -20431.798      3382.5448     -17049.253      1.0497222    
    354000   300.6727      -565.11516      54615.79      -20236.731      3363.6195     -16873.111      1.0445232    
    355000   296.83503     -371.85147      53804.091     -20349.7        3320.6875     -17029.012      1.060281     
    356000   310.1764       74.3345        53968.939     -20317.431      3469.9372     -16847.494      1.0570424    
    357000   306.86429     -225.90527      53496.585     -20216.76       3432.8847     -16783.875      1.0663757    
    358000   303.3259      -333.30805      54260.84      -20278.531      3393.3009     -16885.23       1.051356     
    359000   301.17622     -693.61755      53591.628     -20302.174      3369.2524     -16932.922      1.0644845    
    360000   298.91682      258.80906      53934.714     -20322.803      3343.9766     -16978.826      1.0577132    
    361000   302.34199      113.12573      54383.746     -20396.358      3382.2939     -17014.064      1.0489799    
    362000   303.01277      57.757926      53474.834     -20458.022      3389.7979     -17068.224      1.0668094    
    363000   298.01688     -504.04071      54151.079     -20249.57       3333.909      -16915.661      1.053487     
    364000   298.38731     -297.93358      54049.765     -20586.903      3338.0529     -17248.85       1.0554617    
    365000   297.10753     -461.49024      54639.871     -20253.367      3323.7361     -16929.631      1.0440628    
    366000   300.93562     -162.33181      53733.291     -20322.16       3366.5607     -16955.6        1.0616781    
    367000   293.67655      77.053084      54084.828     -20343.646      3285.3537     -17058.292      1.0547775    
    368000   304.1202       729.81474      54012.651     -20420.727      3402.1866     -17018.541      1.056187     
    369000   302.45401      31.506538      53926.445     -20429.358      3383.547      -17045.811      1.0578754    
    370000   296.72689      194.79258      53720.108     -20363.436      3319.4778     -17043.958      1.0619386    
    371000   299.97175      654.6045       53896.49      -20316.303      3355.778      -16960.525      1.0584633    
    372000   303.99514     -547.04544      53629.604     -20197.692      3400.7876     -16796.905      1.0637307    
    373000   297.80544      230.06999      53294.511     -20321.831      3331.5435     -16990.287      1.070419     
    374000   300.35775     -145.18901      53388.567     -20428.037      3360.0962     -17067.94       1.0685332    
    375000   296.84602      872.4087       53045.28      -20286.393      3320.8105     -16965.582      1.0754483    
    376000   298.30992     -172.99133      53362.616     -20428.984      3337.1872     -17091.797      1.0690529    
    377000   299.09348     -410.48843      54166.264     -20375.125      3345.9528     -17029.172      1.0531917    
    378000   304.81856     -655.6395       54502.583     -20317.829      3409.9991     -16907.83       1.0466927    
    379000   298.20046      4.8881582      54053.984     -20272.585      3335.9627     -16936.623      1.0553793    
    380000   295.80448     -79.43057       53784.897     -20384.709      3309.1589     -17075.55       1.0606594    
    381000   295.05726     -275.36928      54267.138     -20389.425      3300.7997     -17088.625      1.0512339    
    382000   291.97149     -634.7724       54098.528     -20360.723      3266.2793     -17094.444      1.0545103    
    383000   298.224       -110.9425       53909.715     -20258.842      3336.2259     -16922.616      1.0582037    
    384000   297.63354     -245.60911      54153.232     -20294.249      3329.6205     -16964.629      1.0534451    
    385000   307.1213       244.327        53897.783     -20266.614      3435.7599     -16830.854      1.0584379    
    386000   301.67778     -549.93895      54135.848     -20253.041      3374.8634     -16878.178      1.0537834    
    387000   298.26465      514.29496      53787.806     -20429.608      3336.6807     -17092.927      1.0606021    
    388000   296.29835     -684.2995       53785.761     -20322.709      3314.6838     -17008.025      1.0606424    
    389000   298.73378     -1293.156       54066.018     -20398.465      3341.9289     -17056.536      1.0551444    
    390000   306.22293      78.70148       54088.182     -20310.833      3425.7099     -16885.123      1.0547121    
    391000   299.56837     -421.72688      53986.798     -20346.36       3351.2654     -16995.094      1.0566927    
    392000   298.67494     -335.44691      54050.288     -20286.019      3341.2706     -16944.749      1.0554515    
    393000   304.79057      290.36843      53983.63      -20375.953      3409.686      -16966.267      1.0567547    
    394000   299.61383     -388.92301      54131.8       -20334.767      3351.774      -16982.993      1.0538622    
    395000   297.19042      264.3384       54636.243     -20338.669      3324.6633     -17014.006      1.0441322    
    396000   296.30544     -483.5037       54080.341     -20351.557      3314.7631     -17036.794      1.054865     
    397000   306.79531      682.02346      53458.828     -20460.871      3432.113      -17028.758      1.0671288    
    398000   303.12163      1447.8361      53626.855     -20205.508      3391.0156     -16814.492      1.0637853    
    399000   295.68846      689.60362      53823.88      -20374.092      3307.861      -17066.231      1.0598912    
    400000   299.32197      71.901939      54189.829     -20311.287      3348.5089     -16962.778      1.0527337    
    401000   302.76822      843.734        53484.44      -20322.226      3387.0621     -16935.164      1.0666178    
    402000   297.68414     -414.7289       53728.777     -20337.155      3330.1865     -17006.969      1.0617673    
    403000   304.78526     -386.41597      54251.332     -20401.624      3409.6266     -16991.998      1.0515402    
    404000   299.22038      4.3112811      54093.471     -20258.364      3347.3724     -16910.991      1.0546089    
    405000   307.73776     -214.8126       53951.776     -20339.347      3442.6563     -16896.69       1.0573787    
    406000   295.77117      22.850486      53481.979     -20303.494      3308.7862     -16994.708      1.0666669    
    407000   306.30354     -247.76453      53628.143     -20352.596      3426.6116     -16925.984      1.0637597    
    408000   298.80502      124.82046      53678.864     -20481.578      3342.7258     -17138.852      1.0627546    
    409000   293.90492     -293.19914      53939.849     -20302.032      3287.9085     -17014.123      1.0576125    
    410000   305.4692       716.43653      52776.301     -20515.883      3417.2778     -17098.605      1.0809294    
    411000   302.40137     -855.52289      53798.801     -20276.279      3382.9581     -16893.321      1.0603853    
    412000   293.80924      402.76761      53749.937     -20282.262      3286.8381     -16995.424      1.0613493    
    413000   309.65546     -580.88287      54345.347     -20390.637      3464.1094     -16926.527      1.0497211    
    414000   301.87087      272.56724      53902.194     -20276.338      3377.0235     -16899.314      1.0583513    
    415000   297.90802      566.7096       53390.377     -20359.784      3332.6911     -17027.093      1.068497     
    416000   297.47131     -361.25873      53204.467     -20353.527      3327.8057     -17025.721      1.0722306    
    417000   306.04435      180.13018      53922.207     -20322.708      3423.712      -16898.996      1.0579585    
    418000   300.9392       216.06449      53846.296     -20424.768      3366.6008     -17058.167      1.05945      
    419000   293.78996      425.64758      54194.207     -20248.85       3286.6224     -16962.228      1.0526486    
    420000   294.21668     -643.01657      53883.491     -20357.105      3291.3961     -17065.709      1.0587187    
    421000   301.71433      452.94056      53482.033     -20363.958      3375.2722     -16988.686      1.0666658    
    422000   298.53795     -941.90047      53927.711     -20378.001      3339.7381     -17038.263      1.0578505    
    423000   300.72885     -588.95755      53964.89      -20436.305      3364.2477     -17072.057      1.0571217    
    424000   297.46658     -113.18266      53918.631     -20351.532      3327.7527     -17023.779      1.0580287    
    425000   302.70763     -344.9994       53872.558     -20348.909      3386.3842     -16962.525      1.0589335    
    426000   295.73297     -310.27506      53817.698     -20388.784      3308.3588     -17080.425      1.060013     
    427000   302.94535     -642.12503      53997.819     -20333.529      3389.0436     -16944.486      1.0564771    
    428000   299.76096     -1039.4968      54008.511     -20344.349      3353.4199     -16990.93       1.0562679    
    429000   294.69549     -702.34379      53804.476     -20462.41       3296.7526     -17165.657      1.0602735    
    430000   303.03882      555.15472      53601.385     -20493.772      3390.0893     -17103.683      1.0642907    
    431000   296.15785     -824.25985      53699.777     -20390.645      3313.1119     -17077.533      1.0623407    
    432000   295.47256     -151.34351      53884.735     -20389.684      3305.4456     -17084.239      1.0586942    
    433000   296.53925     -903.06806      54445.609     -20352.101      3317.3787     -17034.722      1.047788     
    434000   293.03187     -663.33569      54730.229     -20374.943      3278.1417     -17096.801      1.0423391    
    435000   307.58145     -444.66747      54006.042     -20388.671      3440.9076     -16947.763      1.0563162    
    436000   299.45164     -564.7298       54029.943     -20462.566      3349.9596     -17112.606      1.0558489    
    437000   293.78956     -92.538299      53849.952     -20332.538      3286.6179     -17045.92       1.0593781    
    438000   296.37644     -153.92532      53722.325     -20257.61       3315.5574     -16942.053      1.0618948    
    439000   299.47104      103.80316      53989.376     -20288.908      3350.1766     -16938.732      1.0566423    
    440000   302.56399     -666.45544      53526.453     -20363.105      3384.7774     -16978.327      1.0657807    
    441000   306.15843     -521.77129      54571.531     -20288.629      3424.9882     -16863.64       1.0453703    
    442000   299.83561     -352.30628      53715.495     -20356.568      3354.255      -17002.313      1.0620298    
    443000   301.94645     -747.46408      54059.178     -20367.475      3377.8689     -16989.606      1.0552779    
    444000   301.05407     -310.09702      53871.905     -20408.985      3367.8859     -17041.099      1.0589464    
    445000   295.21202      604.08041      53530.007     -20411.024      3302.531      -17108.493      1.0657099    
    446000   297.97696      143.50201      54008.245     -20290.742      3333.4624     -16957.279      1.0562731    
    447000   300.68588      128.70626      54404.499     -20298.698      3363.767      -16934.931      1.0485798    
    448000   298.79248     -656.91305      54377.042     -20336.721      3342.5855     -16994.135      1.0491092    
    449000   300.63023      117.34673      53334.312     -20326.018      3363.1444     -16962.874      1.0696202    
    450000   303.03336     -850.72164      53731.255     -20376.025      3390.0282     -16985.996      1.0617183    
    451000   296.95358     -36.342917      53706.014     -20290.254      3322.0138     -16968.24       1.0622173    
    452000   304.48299      824.57515      53401.897     -20349.409      3406.2452     -16943.164      1.0682665    
    453000   293.25029     -825.67011      53623.109     -20470.155      3280.5852     -17189.57       1.0638596    
    454000   296.77777     -990.70073      53772.09      -20296.861      3320.047      -16976.814      1.060912     
    455000   296.19368     -198.43881      54093.553     -20276.493      3313.5128     -16962.981      1.0546073    
    456000   300.25754      312.80161      54180.248     -20327.851      3358.9751     -16968.876      1.0529198    
    457000   305.94126      546.18717      54128.515     -20257.077      3422.5588     -16834.519      1.0539262    
    458000   300.6295      -50.29558       53848.821     -20388.037      3363.1362     -17024.901      1.0594003    
    459000   304.62558      562.82041      54055.916     -20355.701      3407.8403     -16947.86       1.0553416    
    460000   300.44607      123.83763      54055.647     -20313.01       3361.0842     -16951.926      1.0553469    
    461000   304.40174     -195.87644      53856.335     -20396.422      3405.3363     -16991.086      1.0592525    
    462000   299.01121      127.7865       53711.786     -20308.581      3345.0324     -16963.549      1.0621032    
    463000   300.4074      -166.08657      53850.628     -20368.625      3360.6517     -17007.974      1.0593648    
    464000   297.32221      362.37958      53838.918     -20213.22       3326.1377     -16887.082      1.0595952    
    465000   299.30023      656.85238      53283.669     -20412.76       3348.2658     -17064.494      1.0706368    
    466000   300.45542      8.3823541      54054.153     -20397.093      3361.1888     -17035.904      1.055376     
    467000   304.36838      637.26584      54204.631     -20453.494      3404.963      -17048.531      1.0524462    
    468000   295.37681      314.87411      54051.009     -20348.918      3304.3745     -17044.544      1.0554374    
    469000   310.29154      980.95401      53797.908     -20287.985      3471.2253     -16816.76       1.0604029    
    470000   296.5795       101.87402      54172.678     -20267.41       3317.829      -16949.581      1.053067     
    471000   302.42739     -812.06216      54445.196     -20337.258      3383.2492     -16954.009      1.047796     
    472000   300.21063     -286.53211      54145.431     -20315.28       3358.4503     -16956.83       1.0535969    
    473000   302.65308     -199.9892       53808.182     -20482.034      3385.774      -17096.26       1.0602004    
    474000   295.8446       968.56674      53561.279     -20439.576      3309.6076     -17129.968      1.0650877    
    475000   298.56331      686.86546      53690.154     -20282.641      3340.0218     -16942.619      1.0625311    
    476000   294.25954      396.08117      53917.184     -20295.019      3291.8756     -17003.143      1.0580571    
    477000   298.05919     -554.71419      53841.095     -20329.377      3334.3823     -16994.995      1.0595523    
    478000   300.2139      -137.08756      53777.372     -20293.335      3358.4869     -16934.848      1.0608078    
    479000   300.67501      194.96226      54373.101     -20261.06       3363.6453     -16897.414      1.0491853    
    480000   305.56619     -504.88384      54039.57      -20374.871      3418.3629     -16956.508      1.0556608    
    481000   305.76449     -553.32762      54041.426     -20262.309      3420.5812     -16841.728      1.0556246    
    482000   301.37481     -506.7542       53936.177     -20423.807      3371.474      -17052.333      1.0576845    
    483000   299.82798      655.23697      53684.211     -20355.026      3354.1696     -17000.857      1.0626487    
    484000   297.93992      558.65203      53800.474     -20330.813      3333.0479     -16997.765      1.0603523    
    485000   296.761        223.79217      53309.432     -20415.654      3319.8594     -17095.794      1.0701194    
    486000   301.46406      323.22287      53927.4       -20375.365      3372.4724     -17002.893      1.0578566    
    487000   297.61738     -3.9438596      53980.69      -20272.747      3329.4397     -16943.308      1.0568123    
    488000   302.80835      375.37421      53748.784     -20307.032      3387.511      -16919.521      1.0613721    
    489000   297.91431     -102.94479      54109.89      -20295.018      3332.7614     -16962.256      1.0542889    
    490000   296.37902      697.818        54294.161     -20340.401      3315.5862     -17024.815      1.0507107    
    491000   297.8734       756.09848      53824.207     -20447.547      3332.3038     -17115.243      1.0598848    
    492000   294.22525     -683.31424      53855.078     -20211.292      3291.492      -16919.8        1.0592772    
    493000   291.20019     -340.26144      54519.173     -20354.911      3257.6508     -17097.26       1.0463742    
    494000   299.39225     -249.98505      53771.82      -20329.15       3349.2952     -16979.854      1.0609174    
    495000   302.98594     -705.93911      53805.254     -20326.641      3389.4977     -16937.143      1.0602581    
    496000   293.04018     -457.0395       53775.308     -20325.972      3278.2346     -17047.738      1.0608486    
    497000   302.55577     -261.87823      53159.675     -20393.63       3384.6854     -17008.944      1.0731341    
    498000   298.11018     -611.46946      53614.652     -20348.75       3334.9527     -17013.797      1.0640274    
    499000   293.69846      244.59013      54104.203     -20366.388      3285.5989     -17080.789      1.0543997    
    500000   301.74321      141.61956      53983.311     -20343.394      3375.5953     -16967.799      1.056761     
    501000   297.3613      -187.77093      53919.15      -20367.96       3326.575      -17041.385      1.0580185    
    502000   295.60472     -30.921305      53219.25      -20407.08       3306.9241     -17100.156      1.0719328    
    503000   299.79046      345.23965      53611.371     -20261.511      3353.75       -16907.761      1.0640925    
    504000   295.59088     -416.9274       53784.748     -20393.77       3306.7693     -17087.001      1.0606624    
    505000   298.04755      219.82858      53697.623     -20344.487      3334.252      -17010.235      1.0623833    
    506000   295.74163      376.18272      53527.42      -20256.994      3308.4557     -16948.538      1.0657614    
    507000   296.03586      471.50034      54007.505     -20353.756      3311.7473     -17042.009      1.0562876    
    508000   298.22704     -227.27379      53927.567     -20234.093      3336.26       -16897.833      1.0578534    
    509000   300.75672     -332.46322      53925.043     -20183.336      3364.5595     -16818.777      1.0579029    
    510000   294.13079     -955.06022      54390.392     -20223.768      3290.4353     -16933.333      1.0488517    
    511000   295.05026      682.87595      53829.249     -20178.781      3300.7214     -16878.059      1.0597855    
    512000   297.3762       120.71472      53789.463     -20329.248      3326.7417     -17002.506      1.0605694    
    513000   303.70402     -332.48306      53669.747     -20193.799      3397.5308     -16796.269      1.0629351    
    514000   295.80714     -774.70764      54116.116     -20281.09       3309.1886     -16971.902      1.0541676    
    515000   297.85542      411.58319      54139.011     -20299.024      3332.1027     -16966.921      1.0537218    
    516000   293.28389      344.80148      53642.97      -20453.345      3280.9611     -17172.384      1.0634657    
    517000   298.81127      618.70722      53568.641     -20530.239      3342.7957     -17187.444      1.0649413    
    518000   300.77289     -444.83703      54424.164     -20280.568      3364.7404     -16915.827      1.0482009    
    519000   302.39703      748.27724      54063.13      -20295.232      3382.9096     -16912.323      1.0552008    
    520000   290.56652      736.98228      53697.65      -20353.211      3250.5618     -17102.649      1.0623828    
    521000   301.36312     -75.446801      53615.42      -20350.037      3371.3433     -16978.694      1.0640121    
    522000   296.03427      68.01357       54171.377     -20402.812      3311.7295     -17091.082      1.0530923    
    523000   307.21954      254.23136      54125.092     -20261.054      3436.8589     -16824.195      1.0539928    
    524000   298.36804      185.14757      54006.143     -20183.72       3337.8373     -16845.882      1.0563142    
    525000   302.4242      -201.04519      54078.263     -20277.699      3383.2135     -16894.486      1.0549055    
    526000   297.50298     -459.87103      53860.72      -20399.066      3328.1599     -17070.906      1.0591663    
    527000   296.50314     -1468.15        53843.925     -20267.837      3316.9747     -16950.862      1.0594966    
    528000   300.42913     -307.82214      53460.965     -20253.545      3360.8947     -16892.65       1.0670862    
    529000   302.19142     -9.1454856      54106.366     -20208.896      3380.6094     -16828.287      1.0543576    
    530000   293.96575      268.02341      54102.822     -20339.713      3288.589      -17051.124      1.0544266    
    531000   306.37084      127.24105      53773.211     -20335.467      3427.3645     -16908.102      1.0608899    
    532000   295.42016     -646.59445      53807.569     -20259.435      3304.8595     -16954.575      1.0602125    
    533000   294.64189      379.73783      54352.567     -20434.683      3296.1529     -17138.53       1.0495817    
    534000   305.13498     -109.4514       54370.76      -20314.818      3413.5389     -16901.279      1.0492305    
    535000   300.32508     -12.532751      54171.265     -20353.885      3359.7307     -16994.154      1.0530944    
    536000   297.35622     -423.98074      54006.103     -20299.502      3326.5181     -16972.984      1.056315     
    537000   297.32731     -254.3787       54143.164     -20387.342      3326.1947     -17061.147      1.053641     
    538000   301.69217     -11.964546      54451.201     -20277.061      3375.0243     -16902.037      1.0476804    
    539000   304.52048     -683.37642      53712.829     -20329.844      3406.6646     -16923.179      1.0620825    
    540000   295.99504     -296.51364      53472.041     -20329.013      3311.2907     -17017.722      1.0668652    
    541000   306.37074     -211.87387      53890.541     -20333.846      3427.3634     -16906.482      1.0585802    
    542000   298.47981     -231.8565       53769.668     -20325.956      3339.0877     -16986.868      1.0609598    
    543000   299.89189     -398.52001      54219.664     -20421.728      3354.8846     -17066.844      1.0521544    
    544000   302.19043      416.64517      53865.337     -20321.974      3380.5983     -16941.376      1.0590755    
    545000   304.12138     -588.82773      54075.385     -20394.515      3402.1998     -16992.315      1.0549616    
    546000   308.63546     -530.00302      54260.577     -20290.198      3452.6988     -16837.499      1.0513611    
    547000   305.426       -4.7253074      54718.701     -20315.473      3416.7945     -16898.679      1.0425587    
    548000   299.34569      624.37715      53601.968     -20246.652      3348.7742     -16897.878      1.0642792    
    549000   298.22137     -55.564437      53825.031     -20457.717      3336.1965     -17121.521      1.0598686    
    550000   300.26862      771.41352      53537.765     -20394.173      3359.0991     -17035.074      1.0655555    
    551000   294.19859      282.12964      53379.598     -20392.223      3291.1938     -17101.029      1.0687128    
    552000   297.62611     -165.76559      54525.5       -20347.94       3329.5374     -17018.402      1.0462528    
    553000   302.54831     -143.95395      54111.785     -20187.765      3384.602      -16803.163      1.054252     
    554000   294.16166      82.893479      54466.825     -20349.378      3290.7806     -17058.597      1.0473799    
    555000   294.29064     -482.99949      54322.07      -20322.369      3292.2235     -17030.146      1.0501709    
    556000   295.46545     -147.90337      53799.418     -20375.069      3305.3661     -17069.703      1.0603731    
    557000   301.57967      579.90202      53741.533     -20277.268      3373.7658     -16903.502      1.0615153    
    558000   301.32459     -506.1018       54311.452     -20278.417      3370.9122     -16907.505      1.0503762    
    559000   300.73493     -840.69533      53965.725     -20427.599      3364.3157     -17063.283      1.0571054    
    560000   297.63579      306.84284      53549.009     -20460.486      3329.6456     -17130.84       1.0653317    
    561000   295.44237     -197.05675      53888.223     -20388.663      3305.1079     -17083.555      1.0586257    
    562000   302.90995      457.78542      53350.842     -20335.772      3388.6476     -16947.125      1.0692888    
    563000   298.36493      193.98694      53634.563     -20458.74       3337.8025     -17120.938      1.0636324    
    564000   304.77477     -85.399062      53400.202     -20340.12       3409.5093     -16930.61       1.0683004    
    565000   295.98869      195.07519      54011.736     -20351.955      3311.2196     -17040.735      1.0562048    
    566000   293.35804     -478.16632      53866.855     -20297.088      3281.7906     -17015.297      1.0590456    
    567000   300.82396      107.76284      53958.239     -20440.474      3365.3117     -17075.162      1.057252     
    568000   300.50081     -553.66135      54081.079     -20411.459      3361.6965     -17049.763      1.0548506    
    569000   310.52629      2.2383859      54047.41      -20363.228      3473.8514     -16889.376      1.0555077    
    570000   301.6416       366.22953      53733.248     -20292.281      3374.4586     -16917.823      1.0616789    
    571000   300.5636      -111.45338      53965.126     -20440.877      3362.3991     -17078.478      1.0571171    
    572000   302.7951      -89.945714      54067.261     -20359.562      3387.3628     -16972.199      1.0551202    
    573000   301.66519      166.79703      53767.934     -20353.876      3374.7224     -16979.153      1.060994     
    574000   298.84545      493.73828      54172.598     -20343.471      3343.1781     -17000.293      1.0530685    
    575000   298.07697      544.87811      54465.226     -20364.686      3334.5812     -17030.105      1.0474107    
    576000   298.83462      175.48614      54045.666     -20335.102      3343.0569     -16992.045      1.0555418    
    577000   304.66877     -488.64312      54289.65      -20438.149      3408.3234     -17029.825      1.050798     
    578000   299.84718     -267.03253      54048.222     -20316.203      3354.3844     -16961.819      1.0554919    
    579000   304.76479     -804.36812      53718.608     -20241.076      3409.3976     -16831.679      1.0619683    
    580000   293.14431     -142.98032      53679.708     -20450.009      3279.3996     -17170.61       1.0627379    
    581000   300.2143       90.114457      53097.346     -20348.362      3358.4914     -16989.871      1.0743938    
    582000   303.80616     -285.90928      53990.372     -20483.573      3398.6735     -17084.899      1.0566228    
    583000   295.44087      271.64009      53414.159     -20336.247      3305.0911     -17031.156      1.0680213    
    584000   302.62283      4.5622354      53961.146     -20383.033      3385.4356     -16997.598      1.0571951    
    585000   302.27461     -522.77191      53133.045     -20351.224      3381.54       -16969.684      1.0736719    
    586000   297.69148      543.06167      53850.203     -20323.18       3330.2687     -16992.911      1.0593731    
    587000   303.23494      53.554598      53846.464     -20282.74       3392.2833     -16890.457      1.0594467    
    588000   301.32999     -194.8362       53615.542     -20335.069      3370.9726     -16964.097      1.0640097    
    589000   302.00139      521.42274      53842.841     -20275.192      3378.4835     -16896.708      1.059518     
    590000   298.8011       385.093        53737.371     -20414.067      3342.6819     -17071.385      1.0615975    
    591000   302.86471     -753.6927       53978.892     -20434.214      3388.1415     -17046.073      1.0568475    
    592000   299.16392     -333.39379      53617.092     -20288.559      3346.7409     -16941.819      1.0639789    
    593000   301.38449     -0.91289103     53407.405     -20461.172      3371.5823     -17089.59       1.0681563    
    594000   307.55645      74.222507      53789.617     -20456.231      3440.6279     -17015.603      1.0605663    
    595000   300.135        144.06276      53521.879     -20398.91       3357.6042     -17041.306      1.0658717    
    596000   298.00121     -110.74059      54364.992     -20419.998      3333.7336     -17086.265      1.0493418    
    597000   305.11795      577.91826      53779.836     -20407.195      3413.3484     -16993.847      1.0607592    
    598000   302.68703      111.28074      53938.364     -20260.558      3386.1538     -16874.404      1.0576416    
    599000   301.03637     -252.89679      53825.904     -20303.679      3367.6879     -16935.991      1.0598514    
    600000   299.22675      69.664309      54061.933     -20385.125      3347.4437     -17037.681      1.0552242    
    600010   296.39057      376.03847      54039.653     -20347.373      3315.7154     -17031.658      1.0556592    
Loop time of 8702.07 on 4 procs for 300000 steps with 5541 atoms

Performance: 5.957 ns/day, 4.029 hours/ns, 34.475 timesteps/s, 191.024 katom-step/s
309.8% CPU use with 1 MPI tasks x 4 OpenMP threads

MPI task timing breakdown:
Section |  min time  |  avg time  |  max time  |%varavg| %total
---------------------------------------------------------------
Pair    | 209.24     | 209.24     | 209.24     |   0.0 |  2.40
Bond    | 3.1575     | 3.1575     | 3.1575     |   0.0 |  0.04
Kspace  | 4086.7     | 4086.7     | 4086.7     |   0.0 | 46.96
Neigh   | 0.50441    | 0.50441    | 0.50441    |   0.0 |  0.01
Comm    | 92.57      | 92.57      | 92.57      |   0.0 |  1.06
Output  | 1.1286     | 1.1286     | 1.1286     |   0.0 |  0.01
Modify  | 4274.6     | 4274.6     | 4274.6     |   0.0 | 49.12
Other   |            | 34.13      |            |       |  0.39

Nlocal:           5541 ave        5541 max        5541 min
Histogram: 1 0 0 0 0 0 0 0 0 0
Nghost:          35588 ave       35588 max       35588 min
Histogram: 1 0 0 0 0 0 0 0 0 0
Neighs:              0 ave           0 max           0 min
Histogram: 1 0 0 0 0 0 0 0 0 0

Total # of neighbors = 0
Ave neighs/atom = 0
Ave special neighs/atom = 2.4872767
Neighbor list builds = 27583
Dangerous builds = 0

undump npt_traj
undump npt_dcd
unfix mynpt_standard
unfix thermo_avg_npt

write_restart npt_complete.restart
System init for write_restart ...
PPPM initialization ...
  extracting TIP4P info from pair style
  using 12-bit tables for long-range coulomb
  G vector (1/distance) = 0.28840068
  grid = 50 50 50
  stencil order = 5
  estimated absolute RMS force accuracy = 0.00032841378
  estimated relative force accuracy = 9.8900833e-07
  using double precision FFTW3
  3d grid and FFT values/proc = 205379 125000
Generated 0 of 3 mixed pair_coeff terms from geometric mixing rule
write_data npt_complete.data
System init for write_data ...
PPPM initialization ...
  extracting TIP4P info from pair style
  using 12-bit tables for long-range coulomb
  G vector (1/distance) = 0.28840068
  grid = 50 50 50
  stencil order = 5
  estimated absolute RMS force accuracy = 0.00032841378
  estimated relative force accuracy = 9.8900833e-07
  using double precision FFTW3
  3d grid and FFT values/proc = 205379 125000
Generated 0 of 3 mixed pair_coeff terms from geometric mixing rule
WARNING: Not all mixed pair coeffs generated from mixing. Use write_data with 'pair ij' option to store all pair coeffs. (src/write_data.cpp:364)

# CRITICAL: Save NPT checkpoint for production restart capability
write_restart npt_equilibration_complete.restart
System init for write_restart ...
PPPM initialization ...
  extracting TIP4P info from pair style
  using 12-bit tables for long-range coulomb
  G vector (1/distance) = 0.28840068
  grid = 50 50 50
  stencil order = 5
  estimated absolute RMS force accuracy = 0.00032841378
  estimated relative force accuracy = 9.8900833e-07
  using double precision FFTW3
  3d grid and FFT values/proc = 205379 125000
Generated 0 of 3 mixed pair_coeff terms from geometric mixing rule
write_data npt_equilibration_complete.data
System init for write_data ...
PPPM initialization ...
  extracting TIP4P info from pair style
  using 12-bit tables for long-range coulomb
  G vector (1/distance) = 0.28840068
  grid = 50 50 50
  stencil order = 5
  estimated absolute RMS force accuracy = 0.00032841378
  estimated relative force accuracy = 9.8900833e-07
  using double precision FFTW3
  3d grid and FFT values/proc = 205379 125000
Generated 0 of 3 mixed pair_coeff terms from geometric mixing rule
WARNING: Not all mixed pair coeffs generated from mixing. Use write_data with 'pair ij' option to store all pair coeffs. (src/write_data.cpp:364)

variable current_dens equal density
variable current_vol equal vol
variable current_press equal press
variable current_temp equal temp
print ""

print "NPT equilibration complete (1000 ps total):"
NPT equilibration complete (1000 ps total):
print "  Temperature: ${current_temp} K"
  Temperature: 296.390571077346 K
print "  Density:     ${current_dens} g/cmÂ³"
  Density:     1.05565922027007 g/cm³
print "  Pressure:    ${current_press} atm"
  Pressure:    376.038470884125 atm
print "  Volume:      ${current_vol} Ã…Â³"
  Volume:      54039.6526841328 …³
print ""

print "âœ… CHECKPOINT: NPT equilibration complete"
œ… CHECKPOINT: NPT equilibration complete
print "   Files saved:"
   Files saved:
print "     - npt_complete.restart (legacy name)"
     - npt_complete.restart (legacy name)
print "     - npt_equilibration_complete.restart (for production restart)"
     - npt_equilibration_complete.restart (for production restart)
print "     - npt_equilibration_complete.data (structure file)"
     - npt_equilibration_complete.data (structure file)
print "     - npt_equilibration_thermo.dat (thermodynamics)"
     - npt_equilibration_thermo.dat (thermodynamics)
print ""


# Checkpoint: Verify density
if "${current_dens} < 0.85 || ${current_dens} > 1.15" then     "print 'ERROR: Density outside expected range (0.85-1.15 g/cmÂ³)'"     "print 'Current density: ${current_dens} g/cmÂ³'"     "quit 1"

print "âœ“ Density validation PASSED: ${current_dens} g/cmÂ³"
œ“ Density validation PASSED: 1.05565922027007 g/cm³

print ""


# ğŸ”§ CHECKPOINT #4: Final validation before production
variable current_dens equal density
variable current_press equal press
variable current_vol equal vol
variable current_boxsize equal vol^(1.0/3.0)

print ""

print "NPT equilibration complete. FINAL VALIDATION:"
NPT equilibration complete. FINAL VALIDATION:
print "  Density:  ${current_dens} g/cmÂ³"
  Density:  1.05565922027007 g/cm³
print "  Pressure: ${current_press} atm"
  Pressure: 376.038470884125 atm
print "  Volume:   ${current_vol} Ã…Â³"
  Volume:   54039.6526841328 …³
print "  Box size: ${current_boxsize} Ã…"
  Box size: 37.8068809464575 …
print ""

print "âœ… CHECKPOINT: NPT equilibration complete (1000 ps)"
œ… CHECKPOINT: NPT equilibration complete (1000 ps)
print "   Creating restart file: npt_equilibration_complete.restart"
   Creating restart file: npt_equilibration_complete.restart
print "   This checkpoint allows restarting from production stage if needed"
   This checkpoint allows restarting from production stage if needed
print ""


# Save NPT checkpoint for production restart capability
write_restart npt_equilibration_complete.restart
System init for write_restart ...
PPPM initialization ...
  extracting TIP4P info from pair style
  using 12-bit tables for long-range coulomb
  G vector (1/distance) = 0.28840068
  grid = 50 50 50
  stencil order = 5
  estimated absolute RMS force accuracy = 0.00032841378
  estimated relative force accuracy = 9.8900833e-07
  using double precision FFTW3
  3d grid and FFT values/proc = 205379 125000
Generated 0 of 3 mixed pair_coeff terms from geometric mixing rule
write_data npt_equilibration_complete.data
System init for write_data ...
PPPM initialization ...
  extracting TIP4P info from pair style
  using 12-bit tables for long-range coulomb
  G vector (1/distance) = 0.28840068
  grid = 50 50 50
  stencil order = 5
  estimated absolute RMS force accuracy = 0.00032841378
  estimated relative force accuracy = 9.8900833e-07
  using double precision FFTW3
  3d grid and FFT values/proc = 205379 125000
Generated 0 of 3 mixed pair_coeff terms from geometric mixing rule
WARNING: Not all mixed pair coeffs generated from mixing. Use write_data with 'pair ij' option to store all pair coeffs. (src/write_data.cpp:364)

print "âœ… NPT checkpoint saved successfully"
œ… NPT checkpoint saved successfully
print "   Files created:"
   Files created:
print "     - npt_equilibration_complete.restart (for continuation)"
     - npt_equilibration_complete.restart (for continuation)
print "     - npt_equilibration_complete.data (structure file)"
     - npt_equilibration_complete.data (structure file)
print ""


if "${current_dens} < 0.80" then     "print 'ğŸ”´ ERROR: Density ${current_dens} g/cmÂ³ is TOO LOW (gas phase)!'"     "print 'Expected: 0.95-1.05 g/cmÂ³ for liquid water'"     "print ''"     "print 'Possible causes:'"     "print '  1. System escaped to gas phase during equilibration'"     "print '  2. PPPM grid artifacts occurred later in simulation'"     "print '  3. Initial system was not properly solvated'"     "quit 1"

if "${current_dens} > 1.20" then     "print 'ğŸ”´ ERROR: Density ${current_dens} g/cmÂ³ is TOO HIGH (over-compressed)!'"     "print 'Expected: 0.95-1.05 g/cmÂ³ for liquid water'"     "print ''"     "print 'Possible causes:'"     "print '  1. Barostat not converging properly'"     "print '  2. System trapped in metastable compressed state'"     "quit 1"

print "âœ… Density validation PASSED: ${current_dens} g/cmÂ³"
œ… Density validation PASSED: 1.05565922027007 g/cm³
print "Current density: ${current_dens} g/cmÂ³"
Current density: 1.05565922027007 g/cm³

#==============================================================================
# STAGE 4: Production MD (4000 ps = 4 ns)
#==============================================================================
print ""

print "===== STAGE 4: Production MD (4000 ps = 4 ns, GPU) ====="
===== STAGE 4: Production MD (4000 ps = 4 ns, GPU) =====
print "Main data collection phase - RDF, MSD, trajectories"
Main data collection phase - RDF, MSD, trajectories
print ""

print "Pressure control strategy:"
Pressure control strategy:
print "  â€¢ Using MTK barostat for better ensemble accuracy"
  €¢ Using MTK barostat for better ensemble accuracy
print "  â€¢ Tdamp = 100 fs (standard for NosÃ©-Hoover)"
  €¢ Tdamp = 100 fs (standard for Nos©-Hoover)
print "  â€¢ Pdamp = 1000 fs (tighter control for stable production)"
  €¢ Pdamp = 1000 fs (tighter control for stable production)
print ""


# Production NPT with MTK barostat and tighter pressure control
# Using smaller pdamp (1000 fs vs 2000 fs) for more stable pressure
# ğŸ”§ CRITICAL: Using npt/gpu instead of npt for FULL GPU acceleration
fix mynpt all npt/gpu temp 300.0 300.0 100.0 iso 1.0 1.0 1000.0 mtk yes

# Main trajectory dump (every 1 ps for analysis)
# Trajectory output (every 1 ps) - using wrapped coordinates for proper visualization
dump prod_traj all custom 1000 production.lammpstrj id type xu yu zu
dump_modify prod_traj sort id

# DCD dump (every 0.5 ps for smooth visualization)
dump prod_dcd all dcd 500 production.dcd
dump_modify prod_dcd unwrap yes

# Detailed thermodynamics (every 1 ps)
fix thermo_avg all ave/time 100 10 1000 v_epsilon_co v_temp v_press v_pe v_ke v_etotal v_vol v_dens     file production_thermo.dat

# Very detailed thermodynamics (every 0.1 ps for fluctuation analysis)
fix thermo_detailed all ave/time 10 10 100 v_temp v_press v_pe v_ke v_vol v_dens     file production_detailed_thermo.dat

# Compute RDFs on-the-fly (C60-water, C60-C60, water-water)
# Syntax: compute ID group-ID rdf Nbin type1 type2 [cutoff]
# Type 1=C, Type 2=O, Type 3=H
compute rdf_CO all rdf 150 1 2  # C-O pairs (C60-water)
compute rdf_CC all rdf 150 1 1  # C-C pairs (C60-C60)
compute rdf_OO all rdf 150 2 2  # O-O pairs (water-water)

# Average RDFs over production run (every 10 ps)
# FIXED: Explicit column indexing (RDF outputs [1]=r, [2]=g(r), [3]=coordination)
fix rdf_CO_avg all ave/time 1000 10 10000 c_rdf_CO[1] c_rdf_CO[2] c_rdf_CO[3] file rdf_CO.dat mode vector
fix rdf_CC_avg all ave/time 1000 10 10000 c_rdf_CC[1] c_rdf_CC[2] c_rdf_CC[3] file rdf_CC.dat mode vector
fix rdf_OO_avg all ave/time 1000 10 10000 c_rdf_OO[1] c_rdf_OO[2] c_rdf_OO[3] file rdf_OO.dat mode vector

# Compute MSD for water oxygen (diffusion analysis)
# Need to use the oxygen group defined earlier
compute msd_water oxygen msd
# MSD compute outputs: [1]=dxÂ², [2]=dyÂ², [3]=dzÂ², [4]=total rÂ²
fix msd_avg all ave/time 100 10 1000 c_msd_water[1] c_msd_water[2] c_msd_water[3] c_msd_water[4] file msd_water.dat

# Dump images every 20 ps for visualization
dump prod_img all image 10000 production_*.ppm type type     axes yes 0.8 0.02 view 60 30 zoom 1.5     box no 0.01 shiny 0.5
dump_modify prod_img pad 6 backcolor white

run 2000000  # 4000 ps = 4 ns at 2 fs timestep
PPPM initialization ...
  extracting TIP4P info from pair style
  using 12-bit tables for long-range coulomb
  G vector (1/distance) = 0.28840068
  grid = 50 50 50
  stencil order = 5
  estimated absolute RMS force accuracy = 0.00032841378
  estimated relative force accuracy = 9.8900833e-07
  using double precision FFTW3
  3d grid and FFT values/proc = 205379 125000
Generated 0 of 3 mixed pair_coeff terms from geometric mixing rule
Neighbor list info ...
  update: every = 1 steps, delay = 5 steps, check = yes
  max neighbors/atom: 2000, page size: 100000
  master list distance cutoff = 14.3092
  ghost atom cutoff = 18
  binsize = 7.1546, bins = 6 6 6
  3 neighbor lists, perpetual/occasional/extra = 0 3 0
  (1) compute rdf, occasional
      attributes: half, newton off
      pair build: half/bin/newtoff
      stencil: full/bin/3d
      bin: standard
  (2) compute rdf, occasional
      attributes: half, newton off
      pair build: half/bin/newtoff
      stencil: full/bin/3d
      bin: standard
  (3) compute rdf, occasional
      attributes: half, newton off
      pair build: half/bin/newtoff
      stencil: full/bin/3d
      bin: standard
Per MPI rank memory allocation (min/avg/max) = 58.91 | 58.91 | 58.91 Mbytes
   Step          Temp          Press          Volume         PotEng         KinEng         TotEng        Density    
    600010   296.39057      354.14568      54039.653     -20347.364      3315.7154     -17031.649      1.0556592    
    601000   304.11607      37.057013      53302.728     -20391.782      3402.1404     -16989.642      1.070254     
    602000   296.0979      -102.24658      53734.279     -20319.374      3312.4413     -17006.933      1.0616586    
    603000   301.31574      61.763347      53833.805     -20316.81       3370.8131     -16945.997      1.0596958    
    604000   309.46456      424.44819      54331.623     -20290.529      3461.9739     -16828.555      1.0499863    
    605000   297.30181      307.28443      53979.152     -20384.102      3325.9095     -17058.192      1.0568424    
    606000   296.32294      129.44798      53795.216     -20342.984      3314.9589     -17028.025      1.060456     
    607000   300.02835     -7.8078186      53437.166     -20391.673      3356.4112     -17035.262      1.0675614    
    608000   290.24473     -5.3843698      54063.308     -20298.28       3246.962      -17051.318      1.0551973    
    609000   295.81246     -367.40618      53851.346     -20299.954      3309.2482     -16990.706      1.0593506    
    610000   299.56686      626.61475      53886.622     -20382.786      3351.2485     -17031.537      1.0586571    
    611000   293.6311       733.14863      53546.767     -20378.762      3284.8453     -17093.916      1.0653763    
    612000   292.8719       339.29547      53738.488     -20294.826      3276.3522     -17018.474      1.0615754    
    613000   300.06967     -131.10399      53755.973     -20323.828      3356.8734     -16966.955      1.0612301    
    614000   299.87794     -187.57481      54107.432     -20365.561      3354.7286     -17010.832      1.0543368    
    615000   295.87669      809.6115       53790.075     -20480.176      3309.9666     -17170.209      1.0605573    
    616000   299.95165     -16.097643      53835.229     -20425.225      3355.5531     -17069.672      1.0596678    
    617000   298.07562      640.66761      53476.284     -20414.406      3334.566      -17079.84       1.0667805    
    618000   305.27649     -722.39514      54272.567     -20342.484      3415.122      -16927.362      1.0511288    
    619000   298.33318      167.88827      53590.656     -20306.55       3337.4473     -16969.103      1.0645038    
    620000   292.37604      260.38467      53228.033     -20314.507      3270.8049     -17043.702      1.0717559    
    621000   305.22928      482.29727      53860.153     -20309.601      3414.5938     -16895.007      1.0591774    
    622000   301.82455     -9.5106066      53576.452     -20406.426      3376.5053     -17029.921      1.064786     
    623000   300.24498      516.86411      54021.634     -20371.789      3358.8346     -17012.955      1.0560113    
    624000   298.95025     -721.68093      54044.933     -20262.65       3344.3505     -16918.3        1.0555561    
    625000   295.26061     -1054.4186      54426.966     -20227.584      3303.0745     -16924.51       1.0481469    
    626000   302.33454      4.4660884      53482.775     -20227.851      3382.2104     -16845.641      1.066651     
    627000   301.00645     -178.1621       54383.118     -20322.252      3367.3531     -16954.899      1.048992     
    628000   301.99622      437.60426      53424.456     -20346.574      3378.4257     -16968.148      1.0678154    
    629000   299.82069      433.63175      53524.78      -20265.427      3354.0881     -16911.339      1.065814     
    630000   303.52966     -538.46054      53563.79      -20320.128      3395.5803     -16924.547      1.0650377    
    631000   296.85848     -816.76478      53402.027     -20382.354      3320.9499     -17061.405      1.0682639    
    632000   294.01045     -67.508913      53909.814     -20428.72       3289.0891     -17139.631      1.0582017    
    633000   303.88253      618.70404      53961.344     -20271.206      3399.5278     -16871.679      1.0571912    
    634000   298.82935     -87.370136      53697.439     -20350.435      3342.998      -17007.437      1.0623869    
    635000   299.4111      -302.67326      53945.568     -20316.36       3349.506      -16966.854      1.0575004    
    636000   297.66098      522.78025      53645.566     -20228.295      3329.9274     -16898.367      1.0634142    
    637000   294.62161     -387.11125      53996.57      -20403.161      3295.926      -17107.235      1.0565015    
    638000   304.44475     -215.27763      54121.745     -20322.231      3405.8174     -16916.414      1.054058     
    639000   302.3206       227.53805      54047.541     -20348.224      3382.0545     -16966.169      1.0555051    
    640000   300.77938     -193.92719      54086.089     -20346.417      3364.8129     -16981.604      1.0547529    
    641000   300.27484      258.43863      54113.115     -20301.906      3359.1686     -16942.737      1.0542261    
    642000   298.37395      179.32434      54036.474     -20359.21       3337.9035     -17021.306      1.0557213    
    643000   302.05179      124.99245      53970.838     -20441.096      3379.0474     -17062.049      1.0570052    
    644000   299.86632      132.59221      53528.849     -20343.924      3354.5985     -16989.325      1.0657329    
    645000   299.79528     -222.91605      54181.414     -20286.98       3353.8038     -16933.176      1.0528972    
    646000   293.93426      253.26756      54243.291     -20410.089      3288.2367     -17121.852      1.0516961    
    647000   300.0135      -673.38446      53656.828     -20282.042      3356.2451     -16925.797      1.063191     
    648000   302.49903      42.158763      53257.448     -20274.741      3384.0506     -16890.69       1.0711639    
    649000   298.76069      12.090512      53666.611     -20358.301      3342.2299     -17016.071      1.0629972    
    650000   306.50109      122.19889      53345.814     -20286.999      3428.8216     -16858.178      1.0693896    
    651000   299.66042      356.22248      53892.836     -20301.634      3352.2951     -16949.339      1.0585351    
    652000   302.29177     -122.62905      53789.876     -20371.201      3381.732      -16989.469      1.0605612    
    653000   303.94222     -501.19718      53410.044     -20438.819      3400.1956     -17038.623      1.0681035    
    654000   304.48279      339.02245      54219.575     -20342.468      3406.2429     -16936.225      1.0521561    
    655000   302.12682      82.930849      53905.215     -20391.131      3379.8868     -17011.244      1.058292     
    656000   299.9033       1163.5738      53807.088     -20420.05       3355.0123     -17065.038      1.060222     
    657000   300.94629      487.30759      53752.53      -20498.901      3366.6802     -17132.221      1.0612981    
    658000   298.1941       447.3726       53564.414     -20538.662      3335.8915     -17202.77       1.0650253    
    659000   294.16066     -104.75215      53556.958     -20337.439      3290.7695     -17046.669      1.0651736    
    660000   298.15577      220.76783      54133.589     -20474.739      3335.4626     -17139.276      1.0538274    
    661000   305.00307     -744.83654      54424.651     -20383.682      3412.0633     -16971.619      1.0481915    
    662000   299.25264      1089.8972      53541.088     -20392.077      3347.7333     -17044.344      1.0654893    
    663000   297.31855     -961.49535      53852.6       -20419.564      3326.0967     -17093.468      1.059326     
    664000   299.80242     -294.1305       53746.821     -20415.909      3353.8837     -17062.025      1.0614108    
    665000   299.53246     -113.16903      54341.661     -20400.399      3350.8637     -17049.536      1.0497923    
    666000   305.99075      72.777993      54175.624     -20401.911      3423.1124     -16978.799      1.0530097    
    667000   299.61345     -18.629251      54030.261     -20426.801      3351.7697     -17075.032      1.0558427    
    668000   303.40762      688.23778      54001.993     -20355.866      3394.215      -16961.651      1.0563954    
    669000   297.40242      185.42132      53888.763     -20391.841      3327.0349     -17064.806      1.0586151    
    670000   303.57315      222.15945      54114.102     -20495.253      3396.0668     -17099.186      1.0542069    
    671000   306.82108     -638.68833      54250.736     -20327.299      3432.4014     -16894.898      1.0515518    
    672000   300.10757     -308.31784      53804.073     -20392.802      3357.2975     -17035.504      1.0602814    
    673000   302.60244      43.06918       53994.543     -20247.244      3385.2075     -16862.037      1.0565412    
    674000   296.40574     -1142.584       54235.452     -20219.082      3315.8851     -16903.197      1.0518481    
    675000   301.60606     -594.04557      53742.476     -20397.114      3374.061      -17023.053      1.0614966    
    676000   304.43774      344.42175      54040.047     -20320.801      3405.7389     -16915.062      1.0556515    
    677000   300.71239      634.44621      53285.539     -20341.079      3364.0636     -16977.015      1.0705992    
    678000   295.60994      384.44835      53986.336     -20383.879      3306.9825     -17076.897      1.0567018    
    679000   303.47985     -682.32822      53799.91      -20315.2        3395.023      -16920.177      1.0603634    
    680000   301.69725     -366.6704       54002.53      -20273.52       3375.0812     -16898.439      1.0563849    
    681000   300.37002     -508.15093      53874.02      -20421.871      3360.2335     -17061.638      1.0589048    
    682000   300.05034     -20.961689      53695.667     -20201.302      3356.6571     -16844.645      1.062422     
    683000   300.08065      371.14095      53400.472     -20385.868      3356.9963     -17028.871      1.068295     
    684000   296.40413      629.07381      53374.47      -20345.798      3315.8671     -17029.931      1.0688154    
    685000   299.16286      462.82566      53449.286     -20418.427      3346.729      -17071.698      1.0673194    
    686000   295.18045      662.66461      53937.347     -20381.126      3302.1779     -17078.948      1.0576615    
    687000   302.74444     -337.3658       54180.887     -20363.666      3386.7961     -16976.87       1.0529074    
    688000   291.90628     -530.6037       53868.351     -20251.585      3265.5497     -16986.035      1.0590162    
    689000   295.58924      547.05478      54089.61      -20260.39       3306.751      -16953.639      1.0546842    
    690000   299.74663      200.32993      54173.699     -20410.656      3353.2596     -17057.397      1.0530471    
    691000   294.74201     -579.27322      53777.219     -20376.057      3297.273      -17078.784      1.0608109    
    692000   300.50328      128.96662      53833.44      -20264.665      3361.7242     -16902.941      1.059703     
    693000   291.08997      565.11509      53838.219     -20337.543      3256.4177     -17081.125      1.0596089    
    694000   293.86559      13.384197      54233.518     -20261.995      3287.4685     -16974.526      1.0518856    
    695000   299.04589     -431.26866      54092.827     -20321.678      3345.4204     -16976.258      1.0546215    
    696000   300.72783      12.166383      53612.448     -20457.267      3364.2363     -17093.03       1.0640711    
    697000   298.12437      81.848071      53831.596     -20366.841      3335.1113     -17031.729      1.0597393    
    698000   295.90463      619.41947      53994.715     -20354.004      3310.2792     -17043.725      1.0565378    
    699000   297.79759      793.55178      54116.667     -20262.983      3331.4557     -16931.527      1.0541569    
    700000   298.52987      162.90986      54080.109     -20376.776      3339.6477     -17037.128      1.0548695    
    701000   296.5612      -186.29444      54260.234     -20321.565      3317.6243     -17003.94       1.0513677    
    702000   300.38225     -849.62546      54008.69      -20387.248      3360.3703     -17026.877      1.0562644    
    703000   304.92999      139.73135      53478.639     -20351.893      3411.2457     -16940.647      1.0667335    
    704000   305.10393      108.77174      53885.957     -20245.302      3413.1916     -16832.11       1.0586702    
    705000   304.50815     -35.555475      54516.1       -20367.759      3406.5266     -16961.232      1.0464332    
    706000   293.91406     -89.974133      53994.138     -20461.483      3288.0108     -17173.472      1.0565491    
    707000   301.02867      566.0319       53457.136     -20367.954      3367.6017     -17000.352      1.0671626    
    708000   299.50407      442.11537      54136.752     -20330.527      3350.5461     -16979.981      1.0537658    
    709000   298.52553      261.24378      54008.792     -20314.295      3339.5991     -16974.696      1.0562624    
    710000   293.12869      801.59388      53205.776     -20274.06       3279.2248     -16994.835      1.0722042    
    711000   303.52743      848.42893      54326.11      -20307.273      3395.5553     -16911.717      1.0500928    
    712000   300.63913      106.08856      54196.867     -20456.619      3363.244      -17093.375      1.052597     
    713000   303.27853      943.55187      53626.758     -20418.854      3392.7708     -17026.083      1.0637872    
    714000   297.14151     -323.05665      53662.722     -20308.259      3324.1162     -16984.143      1.0630742    
    715000   303.05573     -201.81958      54131.678     -20273.244      3390.2784     -16882.966      1.0538646    
    716000   293.27628      300.76672      53686.339     -20434.737      3280.8759     -17153.861      1.0626066    
    717000   304.23847      249.42029      54147.981     -20392.462      3403.5097     -16988.953      1.0535473    
    718000   300.17888      470.80376      53791.36      -20344.482      3358.0952     -16986.387      1.060532     
    719000   299.60369      839.00266      53859.256     -20351.415      3351.6605     -16999.754      1.0591951    
    720000   299.2805      -439.2198       54046.78      -20294.895      3348.045      -16946.85       1.05552      
    721000   298.85669      119.91222      54064.863     -20416.556      3343.3038     -17073.252      1.055167     
    722000   291.65668     -232.79511      53494.428     -20350.648      3262.7575     -17087.891      1.0664187    
    723000   305.45406     -514.76988      53981.466     -20234.848      3417.1085     -16817.739      1.0567971    
    724000   302.68863     -368.74275      53530.195     -20429.971      3386.1717     -17043.8        1.0657061    
    725000   302.09046      409.50111      53237.272     -20297.516      3379.4799     -16918.036      1.0715699    
    726000   303.87201      268.51281      53732.474     -20337.504      3399.4102     -16938.094      1.0616942    
    727000   306.17037      33.095163      53690.734     -20334.604      3425.1218     -16909.482      1.0625196    
    728000   299.72683     -51.320216      53492.71      -20326.244      3353.0381     -16973.206      1.0664529    
    729000   298.50747     -112.13228      54220.17      -20262.037      3339.3971     -16922.639      1.0521446    
    730000   296.60607     -210.31063      53687.618     -20299.858      3318.1263     -16981.732      1.0625813    
    731000   298.66472      32.279994      53418.511     -20328.131      3341.1563     -16986.975      1.0679342    
    732000   309.67023      255.70538      53447.776     -20295.874      3464.2747     -16831.599      1.0673495    
    733000   297.79044     -108.95584      54029.411     -20328.212      3331.3758     -16996.836      1.0558593    
    734000   292.77075     -79.294743      53368.747     -20285.341      3275.2206     -17010.121      1.0689301    
    735000   298.51127      547.82217      53395.69      -20377.573      3339.4396     -17038.133      1.0683907    
    736000   293.36602     -164.5277       53437.76      -20436.736      3281.8798     -17154.857      1.0675496    
    737000   306.04523      631.41107      53653.903     -20401.84       3423.722      -16978.118      1.063249     
    738000   310.16313      407.33622      53630.518     -20497.8        3469.7887     -17028.011      1.0637126    
    739000   301.6639       740.03484      53734.592     -20376.679      3374.708      -17001.971      1.0616524    
    740000   301.6523       409.8743       53747.632     -20393.019      3374.5783     -17018.44       1.0613948    
    741000   300.15838     -783.97149      53606.485     -20433.716      3357.8658     -17075.85       1.0641895    
    742000   295.60969     -286.33453      54425.483     -20283.691      3306.9797     -16976.712      1.0481755    
    743000   309.10541     -72.874295      54102.856     -20233.723      3457.956      -16775.767      1.054426     
    744000   295.41329     -39.067756      53477.039     -20414.126      3304.7827     -17109.344      1.0667655    
    745000   297.46759      874.03301      53558.835     -20327.549      3327.764      -16999.785      1.0651363    
    746000   299.96547      804.37116      53439.037     -20428.097      3355.7078     -17072.389      1.067524     
    747000   299.98709      693.7544       53577.888     -20378.287      3355.9496     -17022.337      1.0647575    
    748000   293.24089     -573.45328      53621.856     -20307.395      3280.48       -17026.915      1.0638844    
    749000   306.39232     -303.34886      53458.003     -20345.429      3427.6048     -16917.824      1.0671453    
    750000   291.3371       98.69843       53836.563     -20291.108      3259.1823     -17031.926      1.0596415    
    751000   306.44838      97.397914      53595.394     -20465.631      3428.2319     -17037.399      1.0644097    
    752000   294.54056      293.78117      54153.197     -20356.628      3295.0194     -17061.608      1.0534458    
    753000   307.80111     -186.02262      53783.409     -20442.79       3443.3649     -16999.425      1.0606888    
    754000   302.37891     -46.525207      53685.327     -20352.559      3382.7068     -16969.852      1.0626266    
    755000   301.83058     -407.11613      53495.492     -20282.498      3376.5727     -16905.925      1.0663975    
    756000   300.11085      479.90496      53459.444     -20343.676      3357.3341     -16986.342      1.0671165    
    757000   299.95265      34.14054       53798.626     -20354.78       3355.5643     -16999.215      1.0603888    
    758000   301.20673     -527.27467      53520.144     -20341.942      3369.5938     -16972.348      1.0659063    
    759000   304.03382     -78.21385       54196.437     -20338.697      3401.2203     -16937.477      1.0526053    
    760000   305.0309       88.18329       53691.192     -20484.309      3412.3746     -17071.934      1.0625105    
    761000   304.08573     -99.963417      53915.94      -20395.026      3401.801      -16993.225      1.0580815    
    762000   300.14373     -142.82343      53220.407     -20367.595      3357.702      -17009.893      1.0719095    
    763000   295.56655      419.87072      53818.316     -20306.981      3306.4972     -17000.484      1.0600008    
    764000   306.15297     -1077.217       54047.867     -20170.97       3424.9272     -16746.043      1.0554988    
    765000   307.74943      17.906627      53818.704     -20388.571      3442.7867     -16945.784      1.0599931    
    766000   304.19322     -257.40826      53860.373     -20389.857      3403.0035     -16986.853      1.0591731    
    767000   300.24289      590.43164      53729.613     -20394.207      3358.8112     -17035.395      1.0617508    
    768000   296.49143      346.05472      53633.218     -20364.946      3316.8437     -17048.102      1.063659     
    769000   304.13269      789.34996      53751.838     -20399.412      3402.3264     -16997.086      1.0613118    
    770000   301.49796     -311.35091      53459.111     -20312.941      3372.8517     -16940.089      1.0671232    
    771000   298.86552     -188.32011      53749.411     -20357.912      3343.4026     -17014.509      1.0613597    
    772000   304.17259     -853.89422      54064.942     -20358.862      3402.7727     -16956.089      1.0551654    
    773000   305.04837      41.205466      54148.562     -20329.948      3412.57       -16917.378      1.053536     
    774000   297.0573       93.212859      54012.671     -20367.606      3323.1741     -17044.432      1.0561866    
    775000   296.56783     -47.131681      54038.064     -20423.905      3317.6985     -17106.207      1.0556902    
    776000   299.99971     -84.666302      54221.761     -20198.775      3356.0907     -16842.684      1.0521137    
    777000   289.90875      859.55337      53670.925     -20321.467      3243.2034     -17078.263      1.0629118    
    778000   297.51466     -186.59536      54341.293     -20307.315      3328.2906     -16979.024      1.0497994    
    779000   306.68714     -315.72044      54238.504     -20377.163      3430.9029     -16946.26       1.0517889    
    780000   302.41008      195.0654       53634.297     -20277.903      3383.0556     -16894.847      1.0636377    
    781000   297.99801     -747.45267      53867.188     -20422.795      3333.6978     -17089.097      1.0590391    
    782000   308.16669      251.61133      53721.195     -20484.139      3447.4547     -17036.684      1.0619171    
    783000   307.62128      61.896881      54063.573     -20418.861      3441.3531     -16977.508      1.0551921    
    784000   307.20623      211.74336      53888.611     -20269.809      3436.71       -16833.099      1.0586181    
    785000   300.28609      201.95233      53983.849     -20280.851      3359.2946     -16921.556      1.0567505    
    786000   302.88123      223.41745      53945.769     -20323.684      3388.3263     -16935.358      1.0574964    
    787000   302.72368      425.94227      53573.758     -20270.075      3386.5638     -16883.511      1.0648396    
    788000   297.71317     -343.79751      53700.675     -20455.399      3330.5113     -17124.888      1.0623229    
    789000   296.12801     -1024.5453      54176.97      -20370.882      3312.7781     -17058.104      1.0529835    
    790000   306.15502     -607.61695      53683.838     -20412.224      3424.9501     -16987.274      1.0626561    
    791000   304.39436      739.39362      53731.551     -20354.836      3405.2536     -16949.582      1.0617125    
    792000   293.63494      31.909757      53692.048     -20362.711      3284.8882     -17077.823      1.0624936    
    793000   304.01935      600.11619      54393.349     -20407.14       3401.0584     -17006.082      1.0487947    
    794000   299.87944      125.228        54165.84      -20382.08       3354.7453     -17027.335      1.0531999    
    795000   300.92437     -1022.956       53741.635     -20380.808      3366.4349     -17014.373      1.0615132    
    796000   301.64946     -715.23171      54025.212     -20376.891      3374.5465     -17002.345      1.0559414    
    797000   304.73718     -26.54457       53280.694     -20385.17       3409.0888     -16976.081      1.0706966    
    798000   297.93789     -172.39266      53824.927     -20381.751      3333.0252     -17048.726      1.0598706    
    799000   296.72481      780.16719      53617.405     -20375.039      3319.4546     -17055.584      1.0639728    
    800000   294.68792     -366.36911      53673.88      -20373.609      3296.6679     -17076.941      1.0628533    
    801000   297.73344     -154.86618      54063.076     -20408.843      3330.7381     -17078.104      1.0552018    
    802000   305.33286     -538.70119      54430.151     -20428.858      3415.7526     -17013.106      1.0480856    
    803000   305.37352      594.57435      53758.227     -20307.657      3416.2075     -16891.45       1.0611856    
    804000   299.35552     -612.83285      53943.579     -20272.613      3348.8843     -16923.728      1.0575394    
    805000   294.28709     -323.3204       53656.67      -20298.246      3292.1839     -17006.062      1.0631941    
    806000   300.77816     -636.49379      53974.051     -20297.956      3364.7993     -16933.156      1.0569423    
    807000   297.51514      232.76004      53794.272     -20400.765      3328.296      -17072.469      1.0604746    
    808000   297.04496     -1013.349       53977.94      -20307.872      3323.036      -16984.836      1.0568661    
    809000   298.61299      1110.9264      53892.897     -20400.31       3340.5776     -17059.732      1.0585339    
    810000   301.89574      174.94489      54102.937     -20421.862      3377.3016     -17044.56       1.0544244    
    811000   298.45803      34.990187      54054.39      -20292.418      3338.844      -16953.574      1.0553714    
    812000   307.75222      206.84514      54381.037     -20350.268      3442.818      -16907.45       1.0490322    
    813000   297.70169     -389.96205      54196.828     -20274.912      3330.3829     -16944.53       1.0525977    
    814000   296.0803      -312.23511      54365.281     -20396.296      3312.2445     -17084.051      1.0493362    
    815000   305.55362      57.772646      54308.334     -20402.088      3418.2223     -16983.865      1.0504365    
    816000   301.09598     -440.75855      54428.054     -20269.211      3368.3548     -16900.856      1.048126     
    817000   303.74323      93.324277      54093.82      -20340.96       3397.9694     -16942.991      1.0546021    
    818000   296.43622     -721.62852      53862.876     -20431.342      3316.2261     -17115.116      1.0591239    
    819000   300.36243      57.350274      53956.486     -20392.678      3360.1485     -17032.529      1.0572864    
    820000   298.09324     -393.10068      53804.731     -20406.101      3334.7632     -17071.338      1.0602684    
    821000   296.45171     -514.19677      53892.087     -20334.897      3316.3994     -17018.498      1.0585498    
    822000   301.80003     -18.831644      53907.037     -20419.928      3376.2309     -17043.697      1.0582562    
    823000   302.60206      660.36685      53475.632     -20303.934      3385.2032     -16918.731      1.0667935    
    824000   298.02879     -434.85208      53875.684     -20351.178      3334.0421     -17017.136      1.0588721    
    825000   296.37952     -301.93276      54107.553     -20277.054      3315.5918     -16961.462      1.0543345    
    826000   302.90759      296.11849      53429.137     -20374.833      3388.6212     -16986.212      1.0677219    
    827000   302.77632     -618.5588       54394.302     -20366.328      3387.1527     -16979.176      1.0487763    
    828000   306.0425      -325.02735      53803.132     -20282.543      3423.6914     -16858.852      1.0602999    
    829000   297.71024     -735.47682      54065.024     -20304.485      3330.4785     -16974.007      1.0551638    
    830000   305.55029      17.714192      53677.297     -20223.756      3418.1851     -16805.571      1.0627856    
    831000   294.71321      149.61576      53913.009     -20382.161      3296.9508     -17085.21       1.058139     
    832000   303.59899     -132.19021      54073.959     -20287.528      3396.3558     -16891.172      1.0549895    
    833000   292.91156     -240.42458      53979.097     -20338.944      3276.7958     -17062.148      1.0568435    
    834000   297.00379     -250.03721      53945.635     -20450.324      3322.5754     -17127.749      1.0574991    
    835000   303.06087     -729.55358      53641.667     -20414.275      3390.336      -17023.939      1.0634915    
    836000   303.57595     -234.63794      53760.721     -20438.897      3396.0981     -17042.799      1.0611364    
    837000   305.08639     -877.71286      54105.597     -20400.603      3412.9954     -16987.607      1.0543726    
    838000   301.54939     -56.1087        54199.336     -20299.03       3373.427      -16925.603      1.052549     
    839000   294.95537      165.96663      53724.796     -20350.193      3299.6598     -17050.533      1.061846     
    840000   298.13086      1093.2834      53457.913     -20332.031      3335.184      -16996.847      1.0671471    
    841000   309.44154      646.25182      53630.66      -20323.96       3461.7164     -16862.244      1.0637098    
    842000   296.38484     -126.85338      54029.114     -20349.18       3315.6513     -17033.529      1.0558651    
    843000   306.11585      387.07232      53747.056     -20317.179      3424.5119     -16892.667      1.0614062    
    844000   296.50234      313.78539      54245.289     -20419.712      3316.9658     -17102.746      1.0516574    
    845000   293.64405     -786.91924      53611.731     -20453.616      3284.9902     -17168.626      1.0640854    
    846000   307.61781      302.74561      54136.206     -20490.155      3441.3144     -17048.841      1.0537764    
    847000   297.49175     -212.75353      54516.104     -20256.973      3328.0343     -16928.939      1.0464331    
    848000   304.44872      774.18871      53882.276     -20377.463      3405.8617     -16971.601      1.0587425    
    849000   298.69257     -182.69779      53799.402     -20404.111      3341.4678     -17062.643      1.0603734    
    850000   292.68551     -619.23509      53654.123     -20293.062      3274.267      -17018.795      1.0632446    
    851000   302.75292      245.33773      53542.747     -20392.888      3386.8909     -17005.997      1.0654563    
    852000   297.4301       182.31131      53738.146     -20431.02       3327.3446     -17103.675      1.0615822    
    853000   301.7883       621.24914      53504.058     -20436.944      3376.0997     -17060.845      1.0662268    
    854000   303.07447     -520.91309      54157.24      -20353.681      3390.4881     -16963.192      1.0533672    
    855000   305.07886      122.43468      53896.765     -20308.32       3412.9111     -16895.409      1.0584579    
    856000   301.11988     -191.86987      53531.635     -20293.101      3368.6222     -16924.479      1.0656775    
    857000   295.05367     -211.14404      53979.719     -20195.693      3300.7596     -16894.933      1.0568313    
    858000   301.2995       150.89168      53896.574     -20400.56       3370.6315     -17029.928      1.0584617    
    859000   311.11903      82.6096        54150.989     -20401.652      3480.4824     -16921.169      1.0534887    
    860000   299.19143     -187.05844      54261.815     -20380.2        3347.0486     -17033.151      1.0513371    
    861000   304.12661     -197.7247       54158.614     -20497.934      3402.2583     -17095.676      1.0533404    
    862000   303.47179      421.84898      54226.06      -20499.601      3394.9329     -17104.668      1.0520303    
    863000   304.87074      125.84179      53736.334     -20357.855      3410.5829     -16947.272      1.061618     
    864000   293.62537      129.1484       53878.269     -20416.136      3284.7811     -17131.355      1.0588213    
    865000   304.02729     -28.984303      54044.618     -20342.408      3401.1473     -16941.261      1.0555622    
    866000   294.2419      -763.31972      54057.083     -20376.788      3291.6782     -17085.11       1.0553188    
    867000   302.30735     -823.54196      54065.154     -20384.952      3381.9063     -17003.045      1.0551613    
    868000   300.17327      412.42242      53494.367     -20283.257      3358.0324     -16925.225      1.0664199    
    869000   300.8142      -467.38212      54279.47      -20234.222      3365.2025     -16869.019      1.0509951    
    870000   302.69597      38.777426      54326.894     -20261.414      3386.2538     -16875.161      1.0500777    
    871000   299.85908     -104.5565       53823.185     -20303.012      3354.5176     -16948.494      1.0599049    
    872000   300.6448      -493.73312      54705.01      -20197.699      3363.3074     -16834.392      1.0428196    
    873000   296.00662      196.35377      53486.039     -20379.47       3311.4202     -17068.05       1.0665859    
    874000   298.16467      878.87101      53840.319     -20356.051      3335.5623     -17020.489      1.0595676    
    875000   295.99409     -460.9824       53733.289     -20371.691      3311.28       -17060.411      1.0616781    
    876000   298.08981      753.43961      53789.116     -20332.176      3334.7248     -16997.451      1.0605762    
    877000   302.65431     -551.26541      54704.925     -20294.193      3385.7877     -16908.406      1.0428212    
    878000   295.32497      236.0571       54066.01      -20409.755      3303.7945     -17105.96       1.0551446    
    879000   294.20252     -94.357888      53802.516     -20324.814      3291.2377     -17033.576      1.0603121    
    880000   296.81711      1048.4116      53299.623     -20363.258      3320.4871     -17042.771      1.0703163    
    881000   298.69362     -688.88538      53548.378     -20309.202      3341.4796     -16967.722      1.0653443    
    882000   296.65343     -509.98049      54281.93      -20310.784      3318.656      -16992.128      1.0509475    
    883000   300.215        457.97489      53423.051     -20321.78       3358.4992     -16963.281      1.0678435    
    884000   299.57701     -63.798523      53800.714     -20306.388      3351.362      -16955.026      1.0603476    
    885000   299.98687     -465.75902      54200.677     -20326.542      3355.9471     -16970.595      1.052523     
    886000   297.95779     -149.729        53762.914     -20326.057      3333.2479     -16992.809      1.0610931    
    887000   302.84575     -271.01512      54475.622     -20246.431      3387.9294     -16858.502      1.0472108    
    888000   302.46515     -956.61964      54374.56      -20371.518      3383.6716     -16987.847      1.0491571    
    889000   291.04047     -224.72625      53805.4       -20472.67       3255.8639     -17216.806      1.0602553    
    890000   298.87517      363.88494      53611.571     -20396.08       3343.5106     -17052.569      1.0640885    
    891000   298.28264      331.45916      53780.729     -20432.879      3336.8819     -17095.997      1.0607416    
    892000   310.36097     -65.386513      53967.34      -20416.944      3472.002      -16944.942      1.0570737    
    893000   298.23444      636.32402      53490.878     -20322.802      3336.3427     -16986.459      1.0664895    
    894000   297.33437      231.96839      53848.774     -20331.614      3326.2737     -17005.34       1.0594012    
    895000   296.50221     -687.1774       53697.558     -20317.201      3316.9644     -17000.237      1.0623846    
    896000   297.78022     -579.81411      53659.929     -20375.99       3331.2614     -17044.729      1.0631296    
    897000   297.12935      336.84222      53515.295     -20360.513      3323.9801     -17036.533      1.0660029    
    898000   298.00219     -269.21361      54035.876     -20402.223      3333.7446     -17068.479      1.055733     
    899000   299.35724      66.68977       54185.893     -20373.328      3348.9035     -17024.425      1.0528101    
    900000   293.12794     -505.26069      53756.122     -20286.972      3279.2164     -17007.756      1.0612272    
    901000   298.59703     -47.572001      53402.516     -20393.772      3340.399      -17053.373      1.0682541    
    902000   294.19374      816.16719      53432.858     -20401.519      3291.1395     -17110.379      1.0676475    
    903000   300.36931      50.365         53762.222     -20385.559      3360.2255     -17025.334      1.0611068    
    904000   300.08687     -1303.5469      54425.351     -20356.705      3357.0659     -16999.64       1.048178     
    905000   300.75646      398.84388      53749.097     -20311.952      3364.5565     -16947.395      1.0613659    
    906000   302.37642      914.36085      53143.825     -20421.779      3382.679      -17039.1        1.0734541    
    907000   302.62619     -113.18664      54430.859     -20352.011      3385.4731     -16966.538      1.048072     
    908000   305.9222      -287.93599      53993.481     -20336.858      3422.3456     -16914.512      1.056562     
    909000   298.37165      312.64059      53398.182     -20412.339      3337.8777     -17074.461      1.0683408    
    910000   299.27412      487.81066      53947.916     -20434.441      3347.9736     -17086.467      1.0574543    
    911000   297.8241      -473.10038      54120.021     -20390.742      3331.7523     -17058.99       1.0540916    
    912000   296.86509      146.92998      53725.851     -20433.604      3321.0238     -17112.58       1.0618251    
    913000   299.38329     -115.39465      54387.074     -20339.557      3349.1949     -16990.362      1.0489157    
    914000   301.96212     -243.20456      54122.608     -20370.491      3378.0442     -16992.447      1.0540412    
    915000   300.5895      -275.50243      54025.617     -20441.689      3362.6888     -17079          1.0559335    
    916000   305.26459     -778.55415      54336.922     -20390.117      3414.9889     -16975.128      1.0498839    
    917000   298.75688      208.59366      53854.903     -20364.171      3342.1873     -17021.983      1.0592807    
    918000   305.1384       183.8062       53883.805     -20322.259      3413.5772     -16908.682      1.0587125    
    919000   309.26371      235.34671      54019.77      -20407.506      3459.727      -16947.779      1.0560478    
    920000   297.78101      97.840285      54034.42      -20410.304      3331.2703     -17079.034      1.0557614    
    921000   301.90745      595.01668      53968.474     -20406.979      3377.4326     -17029.546      1.0570515    
    922000   310.40112      49.362524      54184.677     -20311.105      3472.4512     -16838.654      1.0528338    
    923000   301.40942      69.351567      54264.033     -20349.994      3371.8612     -16978.133      1.0512941    
    924000   294.89157     -39.830203      54187.134     -20477.946      3298.9462     -17179          1.052786     
    925000   302.22162      46.962941      54233.708     -20384.187      3380.9473     -17003.24       1.0518819    
    926000   304.59317     -295.58071      54003.526     -20413.77       3407.4778     -17006.292      1.0563654    
    927000   296.04308     -378.75528      54089.804     -20273.67       3311.8281     -16961.842      1.0546804    
    928000   293.47462     -705.96077      54535.009     -20336.67       3283.0947     -17053.575      1.0460704    
    929000   296.15785     -481.35512      53748.068     -20245.146      3313.112      -16932.034      1.0613862    
    930000   299.61049     -442.64839      53300.061     -20232.797      3351.7366     -16881.06       1.0703075    
    931000   302.46752     -120.00335      53914.324     -20217.053      3383.6981     -16833.355      1.0581132    
    932000   303.22644     -860.48152      53751.12      -20252.799      3392.1882     -16860.611      1.0613259    
    933000   306.10984     -237.18185      53680.747     -20216.021      3424.4447     -16791.576      1.0627173    
    934000   296.44074      1292.7166      54111.474     -20329.543      3316.2767     -17013.266      1.0542581    
    935000   307.7994       446.32516      54169.285     -20505.424      3443.3458     -17062.078      1.0531329    
    936000   305.80665      1038.2287      53822.766     -20356.389      3421.0529     -16935.336      1.0599132    
    937000   297.56458     -152.6891       53969.669     -20400.317      3328.8491     -17071.468      1.0570281    
    938000   309.15819     -675.1854       53821.986     -20516.754      3458.5465     -17058.208      1.0599285    
    939000   301.07759     -301.11853      54071.453     -20415.717      3368.149      -17047.568      1.0550384    
    940000   303.01052     -333.55682      54013.259     -20332.105      3389.7727     -16942.332      1.0561751    
    941000   293.66188      327.5122       54120.418     -20248.786      3285.1896     -16963.596      1.0540838    
    942000   309.37452      1183.7013      54012.321     -20215.675      3460.9666     -16754.708      1.0561934    
    943000   302.6535       26.493898      54355.815     -20299.374      3385.7787     -16913.595      1.0495189    
    944000   300.00626      705.16224      53894.457     -20262.557      3356.1641     -16906.392      1.0585032    
    945000   300.66567      209.8989       53990.486     -20371.654      3363.5409     -17008.113      1.0566206    
    946000   305.50746     -24.493312      53544.873     -20273.328      3417.7058     -16855.622      1.065414     
    947000   303.45879     -309.94585      53620.325     -20239.9        3394.7874     -16845.113      1.0639148    
    948000   300.84909     -74.63996       53573.168     -20344.264      3365.5928     -16978.671      1.0648513    
    949000   299.56752      1029.2667      54223.481     -20330.244      3351.2559     -16978.988      1.0520803    
    950000   294.75417     -540.06996      54202.416     -20319.881      3297.4091     -17022.472      1.0524892    
    951000   303.20335     -354.76225      54324.423     -20362.78       3391.9298     -16970.851      1.0501254    
    952000   300.8651      -8.9687479      53380.449     -20488.834      3365.7719     -17123.062      1.0686957    
    953000   295.31596     -79.057183      54594.816     -20278.131      3303.6938     -16974.437      1.0449244    
    954000   294.4078       707.11104      53821.789     -20340.961      3293.5342     -17047.427      1.0599324    
    955000   295.47468     -622.78784      54089.731     -20421.594      3305.4694     -17116.124      1.0546819    
    956000   298.65061     -257.72281      53634.694     -20429.39       3340.9984     -17088.392      1.0636298    
    957000   301.45141     -662.46877      53933.814     -20386.857      3372.331      -17014.526      1.0577308    
    958000   296.34529      379.9899       53710.128     -20239.022      3315.2089     -16923.813      1.062136     
    959000   300.36529      626.18356      53300.222     -20358.81       3360.1806     -16998.629      1.0703043    
    960000   297.99518     -645.39719      54070.213     -20360.212      3333.6662     -17026.546      1.0550626    
    961000   302.0172      -34.470703      53916.127     -20344.155      3378.6604     -16965.494      1.0580778    
    962000   295.55978     -213.03064      53745.083     -20333.609      3306.4214     -17027.188      1.0614452    
    963000   303.35912     -14.644645      53622.829     -20314.2        3393.6724     -16920.527      1.0638651    
    964000   302.38626     -190.79586      53492.582     -20303.892      3382.7891     -16921.103      1.0664555    
    965000   295.11122      878.15651      53998.593     -20139.333      3301.4033     -16837.929      1.0564619    
    966000   300.38258     -382.92517      54050.701     -20289.093      3360.374      -16928.72       1.0554434    
    967000   298.44966      339.54707      53791.097     -20317.746      3338.7504     -16978.996      1.0605372    
    968000   302.93916     -91.903553      53998.233     -20429.986      3388.9743     -17041.012      1.056469     
    969000   299.30368      1068.4267      54139.742     -20362.408      3348.3044     -17014.104      1.0537076    
    970000   306.25717      4.2702625      53379.345     -20364.827      3426.0929     -16938.734      1.0687178    
    971000   301.27078     -775.58083      53769.765     -20271.119      3370.3102     -16900.809      1.0609579    
    972000   307.34766      219.68869      54623.849     -20385.227      3438.2921     -16946.935      1.0443691    
    973000   294.91263      454.3626       54360.843     -20430.237      3299.1818     -17131.055      1.0494219    
    974000   297.98618     -324.06241      54001.452     -20455.936      3333.5655     -17122.37       1.056406     
    975000   302.70105      402.39944      54177.674     -20365.664      3386.3106     -16979.353      1.0529699    
    976000   300.75205      292.90221      54420.384     -20393.436      3364.5072     -17028.929      1.0482737    
    977000   302.3139       9.6453494      54011.36      -20237.495      3381.9796     -16855.515      1.0562122    
    978000   298.44207     -581.18608      54196.103     -20280.678      3338.6655     -16942.013      1.0526118    
    979000   299.73247     -236.91843      53370.893     -20433.078      3353.1012     -17079.977      1.0688871    
    980000   300.19688     -1010.4333      54387.501     -20280.016      3358.2965     -16921.719      1.0489075    
    981000   303.02815     -46.762888      53592.323     -20410.702      3389.9698     -17020.732      1.0644707    
    982000   293.16826      108.45472      54295.296     -20380.494      3279.6675     -17100.827      1.0506888    
    983000   296.54579      359.45027      54378.664     -20387.478      3317.4518     -17070.026      1.0490779    
    984000   292.90748     -779.56307      54079.958     -20267.652      3276.7502     -16990.902      1.0548724    
    985000   300.15297     -138.7351       53922.709     -20262.184      3357.8053     -16904.378      1.0579487    
    986000   302.66824      977.91028      53289.723     -20330.131      3385.9436     -16944.187      1.0705152    
    987000   298.43693      73.174931      53959.121     -20347.077      3338.608      -17008.469      1.0572347    
    988000   295.58124      615.42789      54000.471     -20392.984      3306.6615     -17086.322      1.0564252    
    989000   302.171        436.81099      53976.445     -20276.981      3380.381      -16896.6        1.0568954    
    990000   290.83803      1170.5721      54110.906     -20199.778      3253.5993     -16946.179      1.0542691    
    991000   306.2009       56.433012      54157.61      -20339.988      3425.4634     -16914.524      1.0533599    
    992000   299.81664     -508.14694      54385.725     -20362.454      3354.0428     -17008.411      1.0489417    
    993000   303.23271     -596.19673      53516.565     -20391.993      3392.2582     -16999.735      1.0659776    
    994000   301.51886      305.81926      54008.327     -20517.679      3373.0855     -17144.594      1.0562715    
    995000   295.95688     -156.92606      53809.706     -20319.085      3310.8637     -17008.221      1.0601704    
    996000   294.04322      774.88327      53406.222     -20362.945      3289.4556     -17073.489      1.06818      
    997000   306.18438      1051.2913      54326.487     -20262.588      3425.2786     -16837.309      1.0500855    
    998000   304.16586     -124.54652      53884.262     -20325.88       3402.6974     -16923.182      1.0587035    
    999000   299.01587     -977.79606      54228.714     -20388.188      3345.0846     -17043.104      1.0519788    
   1000000   301.8773       164.41886      53564.197     -20352.393      3377.0954     -16975.297      1.0650297    
   1001000   298.36698      122.23249      53850.173     -20346.832      3337.8255     -17009.006      1.0593737    
   1002000   299.18615     -263.51826      53854.048     -20379.132      3346.9895     -17032.142      1.0592975    
   1003000   300.37916     -304.18758      53336.78      -20348.325      3360.3357     -16987.989      1.0695707    
   1004000   301.63296      547.92547      53406.265     -20478.544      3374.362      -17104.182      1.0681791    
   1005000   301.01406     -143.17506      53976.88      -20398.363      3367.4382     -17030.924      1.0568869    
   1006000   307.65456     -140.57943      53565.707     -20399.486      3441.7255     -16957.761      1.0649996    
   1007000   306.88457     -903.91417      54136.38      -20465.807      3433.1116     -17032.695      1.053773     
   1008000   291.91079      1129.0417      54178.469     -20394.189      3265.6003     -17128.588      1.0529544    
   1009000   303.03494     -728.89469      53997.405     -20388.97       3390.0458     -16998.924      1.0564852    
   1010000   300.7651      -333.72079      53752.05      -20406.981      3364.6532     -17042.328      1.0613076    
   1011000   304.3922      -1029.7069      54207.947     -20344.401      3405.2294     -16939.172      1.0523818    
   1012000   301.20498     -30.014242      54008.499     -20423.405      3369.5741     -17053.831      1.0562682    
   1013000   298.22021     -100.26517      54132.019     -20356.035      3336.1835     -17019.852      1.0538579    
   1014000   300.76686     -221.66964      54296.176     -20360.957      3364.6729     -16996.284      1.0506717    
   1015000   299.62963      90.631659      53459.67      -20250.142      3351.9507     -16898.191      1.067112     
   1016000   297.64892     -748.81117      53419.048     -20431.382      3329.7926     -17101.59       1.0679235    
   1017000   300.90778     -136.25117      54271.923     -20254.301      3366.2494     -16888.052      1.0511413    
   1018000   300.05891     -363.32635      53576.958     -20313.667      3356.753      -16956.914      1.064776     
   1019000   302.47165     -506.57723      53674         -20364.065      3383.7444     -16980.321      1.0628509    
   1020000   302.12904      1426.4926      53598.993     -20358.062      3379.9115     -16978.151      1.0643382    
   1021000   297.99119      634.38415      53556.217     -20329.922      3333.6216     -16996.3        1.0651883    
   1022000   302.76884      253.73096      54230         -20391.954      3387.069      -17004.885      1.0519538    
   1023000   301.22239      124.72454      53736.708     -20429.915      3369.7689     -17060.146      1.0616106    
   1024000   303.09295      419.59238      53790.489     -20372.944      3390.6949     -16982.249      1.0605492    
   1025000   307.59459     -572.40728      53657.066     -20490.515      3441.0545     -17049.46       1.0631863    
   1026000   303.17409     -0.17012633     53900.789     -20388.556      3391.6026     -16996.953      1.0583789    
   1027000   307.50916     -177.43096      53986.694     -20301.263      3440.0988     -16861.164      1.0566948    
   1028000   305.44467      121.79798      53526.535     -20329.135      3417.0035     -16912.132      1.065779     
   1029000   300.8268       24.34009       53767.308     -20285.333      3365.3434     -16919.989      1.0610064    
   1030000   305.61906     -779.60005      53918.107     -20362.557      3418.9543     -16943.603      1.058039     
   1031000   296.72456     -259.19434      53351.808     -20352.82       3319.4517     -17033.369      1.0692694    
   1032000   302.78494     -67.841289      53581.459     -20326.736      3387.2491     -16939.487      1.0646865    
   1033000   299.16974     -811.64673      53573.067     -20464.666      3346.8059     -17117.86       1.0648533    
   1034000   295.30327      469.41582      53482.314     -20377.177      3303.5518     -17073.625      1.0666602    
   1035000   299.33402      171.93927      53975.987     -20268.873      3348.6438     -16920.23       1.0569044    
   1036000   303.39182     -335.40842      54011.56      -20319.804      3394.0383     -16925.765      1.0562083    
   1037000   306.84622     -535.82192      53596.697     -20345.032      3432.6826     -16912.35       1.0643838    
   1038000   306.24377      352.57363      53586.837     -20353.135      3425.943      -16927.192      1.0645797    
   1039000   296.56362      546.65263      53232.288     -20366.876      3317.6513     -17049.225      1.0716702    
   1040000   293.12702      182.18991      53451.348     -20451.245      3279.2061     -17172.039      1.0672782    
   1041000   302.28073     -520.85626      53558.457     -20297.518      3381.6085     -16915.91       1.0651438    
   1042000   303.15843     -173.9622       53716.045     -20323.706      3391.4274     -16932.279      1.062019     
   1043000   300.10733      7.1992924      53808.061     -20322.06       3357.2947     -16964.765      1.0602028    
   1044000   307.66947      217.9885       53605.378     -20417.101      3441.8923     -16975.209      1.0642115    
   1045000   292.57941     -1076.7218      53925.915     -20262.061      3273.08       -16988.981      1.0578858    
   1046000   294.0544       404.25814      53936.096     -20396.048      3289.5807     -17106.467      1.0576861    
   1047000   301.29442      419.71219      53663.955     -20349.283      3370.5747     -16978.709      1.0630498    
   1048000   298.31982      561.72532      53188.537     -20314.113      3337.2979     -16976.816      1.0725517    
   1049000   294.50731      584.82165      53886.051     -20425.383      3294.6475     -17130.735      1.0586684    
   1050000   303.84793      1040.2947      53389.95      -20378.917      3399.1408     -16979.776      1.0685055    
   1051000   304.88434      525.25415      54030.507     -20474.815      3410.7351     -17064.08       1.0558379    
   1052000   295.25145      235.58339      54004.744     -20383.506      3302.9721     -17080.533      1.0563416    
   1053000   296.94394      1493.1939      53643.597     -20393.535      3321.9059     -17071.629      1.0634532    
   1054000   299.35049     -456.25502      53401.36      -20208.817      3348.8279     -16859.989      1.0682772    
   1055000   303.14878     -284.49477      53750.335     -20302.677      3391.3194     -16911.358      1.0613414    
   1056000   303.71211     -219.23134      54187.825     -20273.432      3397.6213     -16875.811      1.0527726    
   1057000   297.12888      77.186772      53892.488     -20483.852      3323.9748     -17159.877      1.0585419    
   1058000   299.7731       106.0995       53282.096     -20429.924      3353.5558     -17076.369      1.0706684    
   1059000   299.5929      -945.41204      54013.802     -20297.146      3351.5398     -16945.606      1.0561644    
   1060000   299.53637      90.19044       53787.574     -20393.881      3350.9074     -17042.974      1.0606066    
   1061000   307.41768     -466.02515      53870.115     -20293.781      3439.0754     -16854.705      1.0589816    
   1062000   299.97426      355.16268      53921.182     -20329.123      3355.8061     -16973.317      1.0579786    
   1063000   298.66245      688.95754      53538.299     -20354.242      3341.1309     -17013.111      1.0655448    
   1064000   296.55795      686.60124      54072.131     -20350.124      3317.5879     -17032.536      1.0550251    
   1065000   302.1777       489.43616      53527.77      -20446.591      3380.4559     -17066.135      1.0657544    
   1066000   288.70271     -1043.0108      54186.862     -20274.928      3229.7115     -17045.216      1.0527913    
   1067000   299.60971      345.26172      53909.807     -20289.716      3351.7278     -16937.989      1.0582019    
   1068000   296.3963      -1005.4618      54702.13      -20369.482      3315.7795     -17053.703      1.0428745    
   1069000   292.72716     -78.778788      53875.939     -20217.396      3274.7329     -16942.664      1.0588671    
   1070000   300.54567     -641.65238      53126.17      -20370.63       3362.1984     -17008.431      1.0738108    
   1071000   302.08962     -87.084623      53829.656     -20384.965      3379.4706     -17005.494      1.0597775    
   1072000   308.63005      127.39601      53402.541     -20318.69       3452.6382     -16866.052      1.0682536    
   1073000   305.32544     -147.30995      53922.252     -20229.933      3415.6697     -16814.263      1.0579576    
   1074000   305.40415      428.50046      54122.012     -20405.162      3416.5501     -16988.612      1.0540528    
   1075000   298.09485      183.29695      54481.609     -20460.331      3334.7812     -17125.55       1.0470957    
   1076000   298.87374      346.25776      54612.872     -20453.549      3343.4946     -17110.055      1.044579     
   1077000   295.7685      -562.51272      53358.729     -20492.064      3308.7563     -17183.307      1.0691307    
   1078000   297.31182     -262.97621      53721.68      -20364.879      3326.0215     -17038.858      1.0619075    
   1079000   302.21666     -194.35351      53443.091     -20451.449      3380.8917     -17070.557      1.0674431    
   1080000   303.97211     -427.40229      53347.907     -20396.758      3400.53       -16996.228      1.0693476    
   1081000   302.85115      817.49713      53850.392     -20207.482      3387.9898     -16819.492      1.0593694    
   1082000   303.63272      331.58063      54167.883     -20374.707      3396.7332     -16977.974      1.0531602    
   1083000   293.97049     -488.05045      54128.934     -20316.296      3288.6421     -17027.654      1.053918     
   1084000   304.54819      603.37682      53790.755     -20320.171      3406.9745     -16913.197      1.0605439    
   1085000   296.41396     -569.10597      53796.805     -20414.454      3315.9771     -17098.476      1.0604246    
   1086000   298.73575     -197.02051      54426.966     -20303.081      3341.9509     -16961.13       1.0481469    
   1087000   299.09525      338.03753      54407.736     -20267.388      3345.9726     -16921.416      1.0485174    
   1088000   299.48951      539.6936       54046.836     -20401.736      3350.3832     -17051.353      1.0555189    
   1089000   301.33724     -1002.205       54105.857     -20403.126      3371.0537     -17032.073      1.0543675    
   1090000   303.89224     -141.79437      54603.806     -20377.817      3399.6364     -16978.181      1.0447524    
   1091000   299.13878     -856.6093       54293.972     -20324.717      3346.4595     -16978.257      1.0507144    
   1092000   299.74655     -67.853463      53783.241     -20294.349      3353.2587     -16941.09       1.0606921    
   1093000   301.73935     -973.92556      53893.652     -20225.658      3375.5522     -16850.106      1.058519     
   1094000   302.35945      146.71027      53715.472     -20284.708      3382.4892     -16902.219      1.0620303    
   1095000   303.08155     -501.42261      54043.605     -20300.18       3390.5673     -16909.613      1.055582     
   1096000   299.35682     -59.926515      53837.838     -20357.985      3348.8988     -17009.086      1.0596164    
   1097000   297.43704      300.14638      53569.876     -20374.315      3327.4222     -17046.892      1.0649167    
   1098000   303.84607      550.47315      54111.108     -20356.111      3399.12       -16956.991      1.0542652    
   1099000   304.11656      290.99177      53406.396     -20521.832      3402.1459     -17119.687      1.0681765    
   1100000   302.62951     -267.00144      54095.467     -20388.558      3385.5103     -17003.048      1.05457      
   1101000   299.85459      53.764266      53938.986     -20288.48       3354.4674     -16934.012      1.0576294    
   1102000   297.63249     -389.08794      53737.463     -20359.285      3329.6088     -17029.676      1.0615957    
   1103000   296.62919     -100.37732      54093.895     -20323.071      3318.3848     -17004.686      1.0546007    
   1104000   302.29515     -74.128551      54079.418     -20379.067      3381.7698     -16997.297      1.054883     
   1105000   301.09825     -167.47085      53833.361     -20371.622      3368.3802     -17003.242      1.0597046    
   1106000   306.90523     -181.48574      53929.427     -20310.532      3433.3427     -16877.19       1.0578169    
   1107000   306.31605      138.03739      54086.818     -20279.092      3426.7516     -16852.34       1.0547386    
   1108000   301.24822      383.21445      53580.671     -20343.115      3370.0579     -16973.057      1.0647022    
   1109000   294.50699      496.18652      53281.459     -20350.603      3294.6439     -17055.959      1.0706812    
   1110000   302.16957      196.24811      53884.093     -20378.972      3380.3649     -16998.607      1.0587068    
   1111000   295.99513     -29.129511      53895.922     -20359.066      3311.2917     -17047.775      1.0584745    
   1112000   306.45546      448.615        53718.698     -20304.294      3428.3111     -16875.983      1.0619665    
   1113000   295.6044      -326.75967      53425.656     -20278.462      3306.9206     -16971.542      1.0677914    
   1114000   307.81204     -223.63952      54040.376     -20213.669      3443.4872     -16770.181      1.0556451    
   1115000   304.50401      255.71505      53258.809     -20352.965      3406.4804     -16946.484      1.0711366    
   1116000   298.22435     -68.745291      53854.285     -20398.429      3336.2299     -17062.199      1.0592928    
   1117000   298.06381     -94.408332      53629.698     -20320.038      3334.4339     -16985.604      1.0637289    
   1118000   301.15548     -484.00079      53930.293     -20260.133      3369.0204     -16891.113      1.0577999    
   1119000   301.7755       112.74488      54318.063     -20333.893      3375.9565     -16957.937      1.0502484    
   1120000   306.89206     -597.58616      53742.948     -20378.467      3433.1954     -16945.272      1.0614873    
   1121000   302.06168      281.41605      53644.156     -20350.604      3379.158      -16971.446      1.0634422    
   1122000   299.46943      45.25969       53733.17      -20448.815      3350.1586     -17098.656      1.0616805    
   1123000   301.87755      98.374802      53876.947     -20460.846      3377.0982     -17083.748      1.0588473    
   1124000   297.83076      107.84297      54015.602     -20411.124      3331.8268     -17079.297      1.0561293    
   1125000   291.98503      721.49318      53873.146     -20353.512      3266.4307     -17087.081      1.058922     
   1126000   291.95026      138.83693      53649.748     -20471.329      3266.0417     -17205.287      1.0633313    
   1127000   297.11219     -610.1963       53748.46      -20470.669      3323.7881     -17146.881      1.0613785    
   1128000   305.76932      688.33403      54380.778     -20219.418      3420.6353     -16798.783      1.0490372    
   1129000   297.02322     -740.7849       54043.699     -20444.823      3322.7929     -17122.03       1.0555802    
   1130000   296.61528      83.016651      54055.861     -20387.524      3318.2292     -17069.294      1.0553427    
   1131000   298.56634     -342.05234      54040.655     -20261.915      3340.0557     -16921.86       1.0556396    
   1132000   304.27392     -89.671963      54429.314     -20407.089      3403.9063     -17003.182      1.0481017    
   1133000   298.77375     -67.161306      53981.526     -20303.979      3342.376      -16961.603      1.0567959    
   1134000   299.72478     -1375.4371      53698.938     -20373.397      3353.0152     -17020.382      1.0623573    
   1135000   302.9281       129.33243      53825.05      -20375.06       3388.8506     -16986.21       1.0598682    
   1136000   303.98662     -20.042041      53766.567     -20330.139      3400.6922     -16929.447      1.061021     
   1137000   304.71129     -865.69472      53769.111     -20409.914      3408.7991     -17001.115      1.0609708    
   1138000   301.46295     -16.787436      53120.196     -20427.189      3372.46       -17054.729      1.0739316    
   1139000   298.25557     -333.78237      53743.996     -20388.248      3336.5792     -17051.669      1.0614666    
   1140000   301.7196       412.56066      53470.268     -20295.482      3375.3312     -16920.151      1.0669005    
   1141000   296.41814      345.91031      54094.895     -20405.299      3316.0239     -17089.275      1.0545812    
   1142000   297.94278      343.15412      54272.622     -20108.742      3333.0799     -16775.662      1.0511277    
   1143000   300.0664      -5.8925359      54397.19      -20322.855      3356.8368     -16966.018      1.0487207    
   1144000   299.87553     -448.19064      53573.107     -20444.727      3354.7016     -17090.025      1.0648525    
   1145000   307.96168      170.93414      53549.582     -20424.378      3445.1611     -16979.217      1.0653203    
   1146000   302.87164     -515.33923      53734.072     -20366.794      3388.219      -16978.575      1.0616627    
   1147000   294.83597      104.60321      53642.863     -20403.729      3298.3241     -17105.405      1.0634678    
   1148000   294.29592     -271.59883      53693.18      -20396.658      3292.2826     -17104.375      1.0624712    
   1149000   296.94767     -88.371394      53786.499     -20385.932      3321.9477     -17063.984      1.0606278    
   1150000   293.71424     -90.095122      53757.804     -20379.455      3285.7753     -17093.679      1.061194     
   1151000   297.91599     -28.408726      53844.912     -20367.842      3332.7803     -17035.062      1.0594772    
   1152000   295.44277      334.52507      53658.1       -20393.033      3305.1124     -17087.92       1.0631658    
   1153000   294.57828      172.10387      53717.408     -20451.462      3295.4413     -17156.02       1.061992     
   1154000   302.91788      668.45039      54046.749     -20320.753      3388.7363     -16932.016      1.0555206    
   1155000   307.93728     -532.22694      54262.068     -20330.207      3444.8882     -16885.319      1.0513322    
   1156000   295.94368      758.35039      53949.053     -20371.828      3310.7161     -17061.112      1.0574321    
   1157000   300.02732     -149.05955      54014.119     -20476.69       3356.3997     -17120.29       1.0561582    
   1158000   302.45611      494.45689      54122.236     -20348.904      3383.5705     -16965.333      1.0540484    
   1159000   303.30427     -359.904        54033.409     -20357.555      3393.0588     -16964.497      1.0557812    
   1160000   294.4157       439.49245      53539.16      -20351.838      3293.6226     -17058.215      1.0655277    
   1161000   308.4474       217.65026      53939.086     -20265.238      3450.5949     -16814.643      1.0576274    
   1162000   296.9216       98.77633       53910.042     -20307.4        3321.656      -16985.744      1.0581972    
   1163000   309.42269     -321.8164       54351.452     -20297.091      3461.5055     -16835.586      1.0496032    
   1164000   301.88948     -689.14451      53873.824     -20426.091      3377.2316     -17048.859      1.0589086    
   1165000   299.02918     -108.68208      53750.315     -20386.097      3345.2334     -17040.864      1.0613418    
   1166000   299.73886     -528.99277      53822.783     -20361.302      3353.1727     -17008.129      1.0599128    
   1167000   304.26035     -355.67506      54142.199     -20411.866      3403.7545     -17008.111      1.0536598    
   1168000   302.6988       802.84538      53962.733     -20324.423      3386.2855     -16938.137      1.057164     
   1169000   302.94801     -303.08823      53787.4       -20371.587      3389.0733     -16982.513      1.0606101    
   1170000   301.31612      314.56695      53303.642     -20369.652      3370.8175     -16998.834      1.0702356    
   1171000   292.09325     -1012.3164      54118.105     -20449.35       3267.6414     -17181.708      1.0541289    
   1172000   298.64714      470.07144      53452.28      -20395.013      3340.9596     -17054.053      1.0672596    
   1173000   305.33395     -356.13472      53991.741     -20323.89       3415.7648     -16908.125      1.056596     
   1174000   302.84233      1144.1808      54230.322     -20379.157      3387.8911     -16991.266      1.0519476    
   1175000   306.87747     -486.62509      54221.532     -20518.882      3433.0321     -17085.85       1.0521181    
   1176000   296.0696      -329.66664      53964.503     -20356.735      3312.1247     -17044.61       1.0571293    
   1177000   297.42099      72.529971      53669.139     -20284.864      3327.2427     -16957.621      1.0629471    
   1178000   306.58358      891.15091      53810.339     -20442.856      3429.7444     -17013.111      1.0601579    
   1179000   296.36717      103.37684      54082.476     -20412.931      3315.4536     -17097.477      1.0548233    
   1180000   299.85877     -421.28015      54263.009     -20445.685      3354.5141     -17091.171      1.0513139    
   1181000   306.23642      1132.6586      53671.926     -20392.293      3425.8607     -16966.432      1.0628919    
   1182000   301.41241     -266.38667      53632.126     -20407.743      3371.8946     -17035.848      1.0636807    
   1183000   301.22981     -158.21656      53974.197     -20316.832      3369.8519     -16946.98       1.0569394    
   1184000   302.0135      -299.82322      54103.687     -20258.779      3378.619      -16880.16       1.0544098    
   1185000   299.72924      22.209493      53696.871     -20335.563      3353.0651     -16982.498      1.0623982    
   1186000   293.4674      -119.64596      53925.623     -20322.293      3283.014      -17039.279      1.0578915    
   1187000   306.1002      -594.46876      54253.382     -20386.173      3424.3368     -16961.836      1.0515005    
   1188000   302.65619     -499.38123      54524.974     -20328.264      3385.8088     -16942.455      1.0462629    
   1189000   295.27025     -106.76719      54214.647     -20282.848      3303.1824     -16979.665      1.0522518    
   1190000   299.82748      897.80371      53506.282     -20361.096      3354.1641     -17006.932      1.0661824    
   1191000   290.32466     -348.91084      54169.626     -20391.898      3247.8562     -17144.042      1.0531263    
   1192000   302.35173     -81.199168      54230.21      -20441.618      3382.4028     -17059.216      1.0519498    
   1193000   299.3428       488.53882      53973.067     -20345.481      3348.742      -16996.739      1.0569616    
   1194000   297.7891       679.3824       53595.26      -20305.179      3331.3608     -16973.818      1.0644124    
   1195000   297.59407      138.16497      53785.651     -20383.246      3329.179      -17054.067      1.0606446    
   1196000   299.56204     -92.633547      53522.809     -20265.689      3351.1946     -16914.495      1.0658532    
   1197000   301.01826      1428.9815      53439.938     -20328.206      3367.4853     -16960.72       1.0675061    
   1198000   301.45903      214.93868      53586.377     -20381.237      3372.4162     -17008.821      1.0645888    
   1199000   299.03429      372.5181       53506.865     -20325.408      3345.2906     -16980.117      1.0661708    
   1200000   302.81139      475.1115       54243.634     -20429.545      3387.5449     -17042          1.0516895    
   1201000   303.31698     -54.506622      53492.207     -20282.789      3393.201      -16889.588      1.066463     
   1202000   305.72567      81.662579      53608.443     -20379.128      3420.147      -16958.981      1.0641506    
   1203000   288.84807      1346.3374      53487.198     -20456.604      3231.3376     -17225.267      1.0665628    
   1204000   302.55634      379.90714      53960.436     -20459.065      3384.6918     -17074.373      1.057209     
   1205000   295.34497     -1139.3246      54110.746     -20369.857      3304.0183     -17065.839      1.0542722    
   1206000   303.41782     -650.07976      53869.688     -20401.12       3394.3291     -17006.791      1.0589899    
   1207000   298.97497      703.67778      53225.689     -20258.128      3344.627      -16913.501      1.0718031    
   1208000   294.83949     -36.254414      53685.129     -20223.256      3298.3635     -16924.893      1.0626305    
   1209000   302.37228     -802.67154      53870.556     -20506.444      3382.6327     -17123.811      1.0589729    
   1210000   307.40898      307.77497      53703.802     -20429.538      3438.9782     -16990.56       1.0622611    
   1211000   302.55586      543.20264      53852.666     -20226.225      3384.6864     -16841.539      1.0593247    
   1212000   301.30138     -154.08019      53531.216     -20405.556      3370.6525     -17034.903      1.0656858    
   1213000   294.9098      -207.09312      54158.834     -20390.401      3299.1501     -17091.251      1.0533361    
   1214000   295.2559       222.76689      54115.199     -20257.916      3303.0218     -16954.894      1.0541855    
   1215000   294.16153      329.53839      53715.173     -20342.581      3290.7792     -17051.802      1.0620362    
   1216000   304.5934       399.3432       53677.515     -20540.045      3407.4803     -17132.564      1.0627813    
   1217000   300.86208     -25.367898      54295.557     -20465.215      3365.7381     -17099.477      1.0506837    
   1218000   298.1688       495.8551       53726.268     -20406.158      3335.6084     -17070.55       1.0618169    
   1219000   302.05215     -116.09905      53769.909     -20209.484      3379.0514     -16830.433      1.0609551    
   1220000   297.85138      285.17401      53925.373     -20408.252      3332.0575     -17076.195      1.0578964    
   1221000   303.08876     -183.88635      53650.417     -20365.064      3390.6479     -16974.416      1.0633181    
   1222000   296.54586      433.14764      54162.182     -20269.392      3317.4526     -16951.939      1.053271     
   1223000   297.73495     -520.05922      54008.474     -20317.995      3330.755      -16987.24       1.0562686    
   1224000   294.59952     -577.04338      54224.421     -20292.479      3295.679      -16996.801      1.0520621    
   1225000   304.6254       650.53256      53707.443     -20370.154      3407.8383     -16962.316      1.0621891    
   1226000   302.97947      211.47255      54246.159     -20448.684      3389.4253     -17059.259      1.0516405    
   1227000   297.82734      505.87664      53750.695     -20279.681      3331.7885     -16947.893      1.0613343    
   1228000   302.13797      373.19414      53775.52      -20309.067      3380.0114     -16929.056      1.0608444    
   1229000   295.09095      1038.7123      53195.233     -20405.643      3301.1766     -17104.466      1.0724167    
   1230000   297.66154      326.65668      53914.707     -20278.746      3329.9338     -16948.812      1.0581057    
   1231000   293.25814     -204.47751      53855.411     -20333.902      3280.673      -17053.229      1.0592707    
   1232000   301.9712      -834.72095      53884.164     -20478.543      3378.1458     -17100.397      1.0587054    
   1233000   301.13955      410.61013      54209.14      -20329.498      3368.8421     -16960.656      1.0523587    
   1234000   302.23338      883.91383      53680.352     -20382.71       3381.0788     -17001.631      1.0627251    
   1235000   301.1661       198.8196       54295.533     -20368.918      3369.1392     -16999.778      1.0506842    
   1236000   301.81266     -876.03031      53868.944     -20439.781      3376.3723     -17063.408      1.0590046    
   1237000   295.61452     -10.114388      53540.788     -20378.283      3307.0337     -17071.249      1.0654953    
   1238000   303.19745     -415.24822      53763.624     -20435.547      3391.8639     -17043.683      1.0610791    
   1239000   293.51909      4.3310836      53690.384     -20330.986      3283.5922     -17047.394      1.0625265    
   1240000   301.26795     -59.221687      53937.3       -20277.403      3370.2785     -16907.125      1.0576625    
   1241000   302.80014      24.307268      53798.233     -20339.911      3387.4192     -16952.491      1.0603965    
   1242000   298.38761     -128.92186      53866.284     -20370.296      3338.0563     -17032.24       1.0590569    
   1243000   299.55966      184.4849       53820.231     -20267.577      3351.168      -16916.41       1.0599631    
   1244000   303.70634     -488.68453      53293.736     -20328.841      3397.5568     -16931.284      1.0704346    
   1245000   304.81126      333.93153      53487.064     -20225.925      3409.9175     -16816.007      1.0665655    
   1246000   305.5408       10.356445      53676.019     -20321.873      3418.0789     -16903.794      1.0628109    
   1247000   311.94797     -359.64766      54579.976     -20325.717      3489.7558     -16835.961      1.0452085    
   1248000   297.43315      284.71643      53438.973     -20311.462      3327.3787     -16984.084      1.0675253    
   1249000   298.45129     -24.600729      54351.612     -20266.929      3338.7687     -16928.16       1.0496001    
   1250000   298.59372     -32.414363      54055.777     -20324.985      3340.362      -16984.623      1.0553443    
   1251000   303.10112     -26.345387      54069.736     -20294.089      3390.7861     -16903.303      1.0550719    
   1252000   296.19945     -91.994238      54213.217     -20243.162      3313.5773     -16929.584      1.0522795    
   1253000   304.51136     -371.46284      53870.602     -20344.45       3406.5625     -16937.888      1.058972     
   1254000   297.78253      157.84315      54147.749     -20226.496      3331.2872     -16895.209      1.0535518    
   1255000   308.56944      630.78545      53948.138     -20412.791      3451.9601     -16960.831      1.05745      
   1256000   308.9476       351.89411      53880.501     -20297.675      3456.1907     -16841.484      1.0587774    
   1257000   298.19062      198.03547      53680.912     -20244.82       3335.8525     -16908.967      1.062714     
   1258000   297.58255      509.65393      54113.323     -20273.516      3329.05       -16944.466      1.054222     
   1259000   308.23666      622.0847       53857.439     -20334.046      3448.2374     -16885.809      1.0592308    
   1260000   301.39934     -407.3521       54032.193     -20172.615      3371.7484     -16800.867      1.055805     
   1261000   299.12033      160.26891      53933.523     -20326.344      3346.2532     -16980.091      1.0577365    
   1262000   298.03129     -133.7829       53904.031     -20305.203      3334.0701     -16971.133      1.0583152    
   1263000   297.29911     -284.07042      54161.17      -20274.256      3325.8792     -16948.377      1.0532907    
   1264000   302.09479     -456.75997      54936.97      -20309.763      3379.5284     -16930.234      1.0384165    
   1265000   301.04838      615.12963      53837.802     -20274.725      3367.8223     -16906.903      1.0596171    
   1266000   299.2608      -117.75689      54415.57      -20342.349      3347.8246     -16994.525      1.0483664    
   1267000   293.43344      881.59582      53712.107     -20265.489      3282.6341     -16982.855      1.0620968    
   1268000   299.85667     -752.46438      53863.024     -20440.767      3354.4906     -17086.276      1.059121     
   1269000   302.62944     -681.01561      53967.505     -20295.516      3385.5095     -16910.007      1.0570705    
   1270000   287.87037     -354.69557      54208.537     -20377.027      3220.4001     -17156.627      1.0523704    
   1271000   300.87116      258.52829      53950.341     -20326.507      3365.8397     -16960.667      1.0574068    
   1272000   303.95951     -409.067        53914.723     -20291.276      3400.389      -16890.887      1.0581054    
   1273000   300.22817     -514.41143      53949.5       -20362.56       3358.6466     -17003.914      1.0574233    
   1274000   295.64998      820.43359      53546.443     -20338.869      3307.4304     -17031.438      1.0653828    
   1275000   302.70756      829.9828       53798.049     -20417.266      3386.3834     -17030.883      1.0604001    
   1276000   299.01928     -294.03406      54158.009     -20366.882      3345.1228     -17021.759      1.0533522    
   1277000   292.79372      70.271275      53520.772     -20409.04       3275.4775     -17133.562      1.0658938    
   1278000   300.07251      379.90918      53774.382     -20357.786      3356.9052     -17000.881      1.0608668    
   1279000   304.24456      199.20007      54420.053     -20416.639      3403.5778     -17013.061      1.0482801    
   1280000   304.30063     -424.03289      54324.159     -20335.04       3404.2051     -16930.835      1.0501305    
   1281000   300.61945     -85.734343      53164.868     -20386.918      3363.0238     -17023.894      1.0730292    
   1282000   305.67142      55.811366      53291.551     -20427.916      3419.5401     -17008.376      1.0704785    
   1283000   299.42361      339.33631      53853.745     -20343.357      3349.6459     -16993.711      1.0593035    
   1284000   301.10762      125.77183      54112.109     -20261.883      3368.485      -16893.398      1.0542457    
   1285000   303.24957      530.0979       54086.112     -20326.107      3392.4469     -16933.66       1.0547524    
   1286000   301.24276     -68.066763      53917.497     -20254.216      3369.9968     -16884.219      1.0580509    
   1287000   298.63182      172.77218      53489.219     -20310.411      3340.7883     -16969.622      1.0665225    
   1288000   302.6185       114.92864      53882.296     -20394.298      3385.3872     -17008.911      1.0587421    
   1289000   294.53076     -238.61289      53977.615     -20267.014      3294.9097     -16972.105      1.0568725    
   1290000   297.20048     -123.92938      53740.493     -20418.759      3324.7758     -17093.983      1.0615358    
   1291000   305.52613     -1074.6235      54331.53      -20265.623      3417.9148     -16847.708      1.049988     
   1292000   304.21627      840.94866      54080.524     -20452.294      3403.2614     -17049.032      1.0548614    
   1293000   296.53725      614.34509      54087.729     -20319.271      3317.3564     -17001.915      1.0547209    
   1294000   301.30545      478.5971       54267.226     -20327.504      3370.6981     -16956.806      1.0512322    
   1295000   300.6191       1032.4627      53726.445     -20335.914      3363.0199     -16972.894      1.0618134    
   1296000   308.56936     -1029.63        54106.308     -20373.467      3451.9593     -16921.508      1.0543587    
   1297000   294.73408      1092.9225      53743.521     -20372.855      3297.1843     -17075.671      1.061476     
   1298000   306.42339     -149.61749      54203.118     -20314.363      3427.9524     -16886.41       1.0524756    
   1299000   296.8269       688.61151      53754.529     -20340.008      3320.5967     -17019.412      1.0612586    
   1300000   300.76263      436.40704      53669.52      -20427.165      3364.6256     -17062.54       1.0629396    
   1301000   295.02706      414.04103      53811.903     -20333.578      3300.4618     -17033.116      1.0601271    
   1302000   303.25894     -488.80214      53648.759     -20366.546      3392.5518     -16973.994      1.0633509    
   1303000   303.4239      -247.7959       54467.889     -20430.372      3394.3971     -17035.975      1.0473594    
   1304000   300.88288     -446.63896      53975.7       -20321.504      3365.9708     -16955.533      1.05691      
   1305000   297.74455      516.38151      54039.458     -20424.635      3330.8623     -17093.773      1.055663     
   1306000   300.04399     -282.0341       53999.438     -20345.641      3356.5862     -16989.055      1.0564454    
   1307000   305.5446      -123.86178      53136.188     -20280.875      3418.1213     -16862.753      1.0736084    
   1308000   298.7196      -691.03818      53841.64      -20295.866      3341.7703     -16954.096      1.0595416    
   1309000   300.33794     -111.75981      54048.447     -20351.054      3359.8745     -16991.179      1.0554875    
   1310000   291.11011     -93.197742      53768.691     -20393.359      3256.6431     -17136.716      1.0609791    
   1311000   295.12827     -496.87096      53810.605     -20296.914      3301.5941     -16995.32       1.0601527    
   1312000   302.03458      398.30778      53948.009     -20384.021      3378.8548     -17005.167      1.0574525    
   1313000   298.95888     -1032.8952      54391.282     -20488.536      3344.447      -17144.089      1.0488346    
   1314000   301.1328       746.14259      54027.657     -20483.094      3368.7667     -17114.327      1.0558936    
   1315000   301.68931     -215.34833      53890.011     -20479.57       3374.9923     -17104.578      1.0585906    
   1316000   301.04243     -227.2936       54511.478     -20432.62       3367.7557     -17064.864      1.0465219    
   1317000   301.80073     -827.80565      54231.841     -20210.86       3376.2388     -16834.622      1.0519182    
   1318000   302.47234      607.99089      53791.886     -20428.371      3383.7521     -17044.619      1.0605216    
   1319000   296.90404      63.634865      54446.659     -20365.758      3321.4596     -17044.298      1.0477678    
   1320000   299.10367     -278.28837      54413.698     -20402.535      3346.0668     -17056.468      1.0484025    
   1321000   302.42465      1591.1878      53885.667     -20235.657      3383.2186     -16852.438      1.0586759    
   1322000   293.43245      467.15539      53740.531     -20445.905      3282.6229     -17163.282      1.0615351    
   1323000   298.35103     -148.62389      53626.82      -20326.668      3337.6471     -16989.021      1.0637859    
   1324000   302.61332      1091.1866      53841.959     -20417.9        3385.3292     -17032.571      1.0595353    
   1325000   302.96068      498.65234      53818.673     -20178.367      3389.2151     -16789.152      1.0599938    
   1326000   301.1779       252.53249      54236.247     -20457.552      3369.2712     -17088.281      1.0518327    
   1327000   307.00129      137.80913      54255.774     -20416.293      3434.4174     -16981.876      1.0514541    
   1328000   302.24965     -205.67794      54425.389     -20241.922      3381.2608     -16860.661      1.0481773    
   1329000   298.97853     -588.05507      53672.974     -20399.026      3344.6669     -17054.359      1.0628712    
   1330000   298.12013      267.55672      53631.973     -20370.06       3335.064      -17034.996      1.0636837    
   1331000   295.41306     -14.594852      54026.733     -20406.025      3304.78       -17101.245      1.0559117    
   1332000   302.79311      961.30929      53406.479     -20436.855      3387.3405     -17049.514      1.0681748    
   1333000   303.15744     -678.56777      53765.216     -20284.174      3391.4163     -16892.758      1.0610477    
   1334000   298.84793      533.49507      54120.209     -20269.051      3343.2059     -16925.845      1.0540879    
   1335000   299.72334     -61.878595      53744.758     -20382.738      3352.999      -17029.739      1.0614516    
   1336000   297.08265      96.283084      53854.204     -20256.928      3323.4577     -16933.47       1.0592944    
   1337000   301.46931      506.67362      54007.222     -20359.782      3372.5312     -16987.251      1.0562931    
   1338000   295.98934      463.00306      54029.588     -20352.615      3311.2268     -17041.389      1.0558559    
   1339000   298.5147      -275.3781       54127.983     -20368.618      3339.478      -17029.14       1.0539365    
   1340000   309.00481      494.73408      54242.774     -20278.079      3456.8307     -16821.248      1.0517061    
   1341000   300.0467       480.08874      54383.935     -20265.406      3356.6165     -16908.789      1.0489763    
   1342000   293.88448     -113.3975       53752.842     -20366.258      3287.6799     -17078.579      1.0612919    
   1343000   299.92014      776.09888      54026.383     -20272.881      3355.2007     -16917.68       1.0559185    
   1344000   304.78587     -612.18871      54083.039     -20245.488      3409.6334     -16835.855      1.0548123    
   1345000   299.35103     -151.88407      53306.209     -20356.078      3348.834      -17007.244      1.0701841    
   1346000   297.4569       186.07969      53538.586     -20433.329      3327.6445     -17105.684      1.0655391    
   1347000   301.50758     -629.85828      53939.414     -20323.414      3372.9593     -16950.454      1.057621     
   1348000   305.08828      215.9945       54143.59      -20315.936      3413.0165     -16902.92       1.0536327    
   1349000   305.29593     -634.62918      53961.117     -20348.65       3415.3395     -16933.311      1.0571956    
   1350000   297.44306      316.88459      53727.596     -20392.838      3327.4896     -17065.348      1.0617906    
   1351000   300.89508     -163.59722      54024.575     -20341.476      3366.1072     -16975.369      1.0559538    
   1352000   299.94014     -280.65384      54217.567     -20437.082      3355.4244     -17081.657      1.0521951    
   1353000   297.12106      122.86848      53903.775     -20234.615      3323.8874     -16910.727      1.0583203    
   1354000   299.93926      363.30792      53410.521     -20417.2        3355.4145     -17061.786      1.068094     
   1355000   297.58859      973.51283      53818.055     -20391.051      3329.1177     -17061.933      1.0600059    
   1356000   300.95979      178.52331      54074.677     -20498.794      3366.8311     -17131.963      1.0549755    
   1357000   304.18561      393.16819      53573.759     -20399.947      3402.9183     -16997.029      1.0648396    
   1358000   299.77318      708.28727      54288.691     -20299.238      3353.5566     -16945.681      1.0508166    
   1359000   306.55791      569.31093      54052.586     -20355.571      3429.4573     -16926.114      1.0554066    
   1360000   296.38903     -554.57289      53715.002     -20355.048      3315.6982     -17039.349      1.0620396    
   1361000   301.95364     -60.162697      53680.688     -20317.787      3377.9494     -16939.838      1.0627185    
   1362000   300.0352      -152.11293      53669.23      -20323.59       3356.4878     -16967.102      1.0629453    
   1363000   295.44119     -199.97491      53832.013     -20372.355      3305.0948     -17067.26       1.0597311    
   1364000   298.48283      337.69176      53435.191     -20170.331      3339.1214     -16831.209      1.0676009    
   1365000   292.23861     -532.0546       54161.506     -20191.57       3269.2675     -16922.303      1.0532842    
   1366000   300.84384     -932.53046      54200.16      -20198.288      3365.5341     -16832.754      1.052533     
   1367000   300.55444     -397.62316      53744.062     -20406.037      3362.2966     -17043.74       1.0614653    
   1368000   299.94926      709.04001      54123.542     -20387.684      3355.5264     -17032.158      1.054023     
   1369000   291.61406      1444.581       54215.914     -20270.227      3262.2807     -17007.947      1.0522272    
   1370000   303.4829       613.67911      53615.805     -20146.743      3395.0572     -16751.686      1.0640045    
   1371000   299.78144     -124.72028      54107.022     -20316.783      3353.649      -16963.134      1.0543448    
   1372000   293.67858     -444.05724      54416.837     -20255.52       3285.3764     -16970.144      1.048342     
   1373000   301.0855       939.26092      54013.415     -20198.923      3368.2375     -16830.685      1.056172     
   1374000   298.77963     -121.16177      53807.478     -20336.964      3342.4417     -16994.522      1.0602143    
   1375000   296.86568     -388.03796      53663.801     -20401.899      3321.0304     -17080.869      1.0630529    
   1376000   299.69415     -524.20538      54056.852     -20279.139      3352.6724     -16926.466      1.0553233    
   1377000   304.81415      300.88326      53381.049     -20402.612      3409.9499     -16992.662      1.0686837    
   1378000   300.40673     -129.74374      54220.062     -20278.296      3360.6442     -16917.652      1.0521467    
   1379000   301.9881       866.75225      53787.034     -20375.721      3378.3349     -16997.386      1.0606173    
   1380000   299.55255      342.51947      53592.241     -20318.947      3351.0884     -16967.858      1.0644723    
   1381000   297.68109      120.0959       53936.003     -20380.309      3330.1524     -17050.157      1.0576879    
   1382000   304.74771      786.90494      53993.957     -20351.546      3409.2066     -16942.34       1.0565526    
   1383000   296.75609     -177.51347      53867.025     -20331.554      3319.8045     -17011.75       1.0590423    
   1384000   298.94221     -130.14614      53724.869     -20443.826      3344.2606     -17099.565      1.0618445    
   1385000   300.87291      438.57741      53887.184     -20280.825      3365.8593     -16914.966      1.0586461    
   1386000   298.7813      -575.41287      54224.89      -20362.74       3342.4605     -17020.28       1.052053     
   1387000   306.21997      408.21708      53960.215     -20294.302      3425.6767     -16868.625      1.0572133    
   1388000   301.95378      501.56086      54261.95      -20227.929      3377.9509     -16849.978      1.0513345    
   1389000   293.0685       449.63718      53645.522     -20198.821      3278.5515     -16920.269      1.0634151    
   1390000   296.36419      553.19917      53354.57      -20369.904      3315.4203     -17054.484      1.0692141    
   1391000   298.43003      999.07703      53617.059     -20300.83       3338.5309     -16962.299      1.0639796    
   1392000   304.00958     -258.9372       53835.978     -20342.586      3400.9492     -16941.636      1.059653     
   1393000   304.4087      -91.492885      54174.098     -20346.87       3405.414      -16941.456      1.0530394    
   1394000   299.63897     -635.42305      54226.965     -20260.851      3352.0552     -16908.796      1.0520127    
   1395000   302.82056      22.800166      53458.818     -20395.355      3387.6476     -17007.708      1.067129     
   1396000   301.67171      527.24035      53760.423     -20305.293      3374.7954     -16930.498      1.0611423    
   1397000   304.56909     -430.73418      53851.577     -20262.339      3407.2083     -16855.131      1.0593461    
   1398000   299.46782      233.19826      53625.669     -20312.543      3350.1405     -16962.402      1.0638088    
   1399000   295.4617      -83.474322      53721.859     -20333.293      3305.3242     -17027.969      1.061904     
   1400000   307.09756      746.9678       53872.546     -20413.039      3435.4943     -16977.545      1.0589338    
   1401000   292.52195      565.56048      54381.907     -20283.685      3272.4373     -17011.248      1.0490154    
   1402000   303.46194     -584.83673      54316.675     -20286.428      3394.8227     -16891.605      1.0502752    
   1403000   301.58776      130.57389      54170.786     -20282.943      3373.8563     -16909.087      1.0531037    
   1404000   307.79314      428.89751      53585.649     -20264.182      3443.2758     -16820.907      1.0646033    
   1405000   296.28828     -79.560678      53303.341     -20315.016      3314.571      -17000.445      1.0702417    
   1406000   293.4917      -668.20933      53400.264     -20425.2        3283.2858     -17141.914      1.0682992    
   1407000   299.64348      548.37383      53659.87      -20355.578      3352.1057     -17003.472      1.0631308    
   1408000   299.03703      602.91292      54162.387     -20456.675      3345.3213     -17111.353      1.0532671    
   1409000   300.18791      265.41045      54071.18      -20348.189      3358.1962     -16989.993      1.0550437    
   1410000   300.23292      84.966881      53845.515     -20317.754      3358.6997     -16959.054      1.0594654    
   1411000   296.57177     -266.33389      53874.784     -20230.176      3317.7425     -16912.433      1.0588898    
   1412000   303.41502      421.8129       54040.601     -20408.006      3394.2978     -17013.708      1.0556407    
   1413000   306.6546       67.327822      53744.024     -20388.9        3430.539      -16958.361      1.0614661    
   1414000   296.77304      624.6222       53810.45      -20337.023      3319.9941     -17017.029      1.0601558    
   1415000   300.63959     -467.12272      53582.153     -20385.775      3363.2491     -17022.526      1.0646727    
   1416000   299.554       -305.456        54034.832     -20301.281      3351.1047     -16950.176      1.0557534    
   1417000   305.55556     -410.34126      53947.92      -20384.191      3418.244      -16965.947      1.0574543    
   1418000   297.87584     -969.45299      53691.501     -20442.606      3332.331      -17110.275      1.0625044    
   1419000   303.94738     -161.35027      53663.67      -20413.982      3400.2533     -17013.729      1.0630555    
   1420000   305.58258     -102.65359      54193.782     -20376.384      3418.5463     -16957.837      1.0526569    
   1421000   300.322       -152.76141      53775.681     -20419.208      3359.6963     -17059.512      1.0608412    
   1422000   306.13643     -413.90813      54265.843     -20403.067      3424.7421     -16978.325      1.051259     
   1423000   293.66661      119.98376      54107.289     -20359.247      3285.2425     -17074.004      1.0543396    
   1424000   301.70349     -572.30595      54060.443     -20410.541      3375.151      -17035.39       1.0552532    
   1425000   301.19365      227.96572      53618.721     -20319.068      3369.4474     -16949.62       1.0639466    
   1426000   293.9888      -215.72824      54106.001     -20386.426      3288.8469     -17097.579      1.0543647    
   1427000   301.49868      64.29364       53812.137     -20391.178      3372.8597     -17018.318      1.0601225    
   1428000   304.89937     -537.19686      53826.678     -20301.601      3410.9031     -16890.698      1.0598361    
   1429000   296.80461      308.91375      53749.198     -20249.38       3320.3473     -16929.033      1.0613639    
   1430000   300.29186      376.6906       53894.725     -20406.731      3359.359      -17047.372      1.058498     
   1431000   293.69195      427.92984      53799.628     -20419.04       3285.526      -17133.514      1.060369     
   1432000   300.1564       267.09504      53360.485     -20288.692      3357.8437     -16930.849      1.0690956    
   1433000   298.1079       1527.6577      53654.319     -20417.875      3334.9272     -17082.948      1.0632407    
   1434000   308.89447     -279.52001      53721.686     -20332.174      3455.5963     -16876.578      1.0619074    
   1435000   297.90605     -292.154        53802.873     -20230.774      3332.669      -16898.105      1.060305     
   1436000   296.00609      628.78429      53631.177     -20405.526      3311.4142     -17094.112      1.0636995    
   1437000   299.19009      744.44558      54066.873     -20405.208      3347.0336     -17058.174      1.0551277    
   1438000   301.28401      110.87081      53976.492     -20427.739      3370.4582     -17057.281      1.0568945    
   1439000   296.45147     -110.18409      53969.054     -20318.948      3316.3967     -17002.551      1.0570402    
   1440000   299.09232      99.029755      54312.544     -20302.02       3345.9399     -16956.08       1.0503551    
   1441000   301.12901     -824.66111      54077.251     -20499.449      3368.7242     -17130.725      1.0549253    
   1442000   298.61882     -327.79715      53722.683     -20440.826      3340.6428     -17100.184      1.0618877    
   1443000   304.42243     -1022.172       53548.226     -20299.996      3405.5677     -16894.429      1.0653473    
   1444000   298.84145     -155.81704      53658.494     -20315.159      3343.1334     -16972.026      1.063158     
   1445000   298.25609     -544.12738      54181.632     -20429.927      3336.585      -17093.342      1.0528929    
   1446000   306.50845      434.13195      53286.515     -20308.099      3428.9039     -16879.195      1.0705796    
   1447000   301.2161       57.258019      53937.714     -20306.369      3369.6986     -16936.67       1.0576543    
   1448000   299.12948     -201.36311      54395.208     -20317.92       3346.3556     -16971.565      1.0487589    
   1449000   299.83565      549.64288      54021.05      -20436.069      3354.2555     -17081.813      1.0560228    
   1450000   298.4683       635.87784      54099.824     -20519.277      3338.9589     -17180.318      1.0544851    
   1451000   293.42896      81.408302      53639.789     -20329.185      3282.5839     -17046.602      1.0635287    
   1452000   296.71167      367.47726      53861.995     -20378.721      3319.3076     -17059.414      1.0591412    
   1453000   299.37169     -459.9175       53802.562     -20363.047      3349.0652     -17013.982      1.0603112    
   1454000   299.5148       1218.9838      53496.575     -20347.176      3350.6662     -16996.51       1.0663759    
   1455000   303.77566     -186.32582      54700.291     -20365.382      3398.3323     -16967.05       1.0429096    
   1456000   297.66254      486.55909      54229.617     -20341.154      3329.945      -17011.209      1.0519613    
   1457000   298.67531      988.12627      53937.29      -20372.881      3341.2747     -17031.606      1.0576627    
   1458000   289.72447     -432.98926      54173.999     -20430.141      3241.1418     -17188.999      1.0530413    
   1459000   299.53739     -364.8483       54209.884     -20344.537      3350.9188     -16993.618      1.0523442    
   1460000   296.88329      344.13582      53789.413     -20344.916      3321.2274     -17023.689      1.0605704    
   1461000   303.38147      122.68663      53876.815     -20399.215      3393.9225     -17005.292      1.0588499    
   1462000   300.49877      1002.6498      53839.867     -20241.519      3361.6738     -16879.845      1.0595765    
   1463000   306.08326      173.2439       54157.78      -20331.397      3424.1473     -16907.25       1.0533567    
   1464000   302.02153     -371.55268      53962.035     -20310.813      3378.7088     -16932.104      1.0571777    
   1465000   299.66352     -331.44881      53551.926     -20401.371      3352.3298     -17049.041      1.0652737    
   1466000   298.86245     -364.64582      54364.172     -20409.698      3343.3683     -17066.329      1.0493576    
   1467000   299.94596      203.40147      54189.527     -20495.852      3355.4895     -17140.362      1.0527395    
   1468000   296.215        509.08927      54016.75      -20296.355      3313.7513     -16982.603      1.0561068    
   1469000   302.20928      238.3093       54447.468     -20304.212      3380.8092     -16923.402      1.0477523    
   1470000   305.6925       309.98169      53848.683     -20378.08       3419.776      -16958.304      1.059403     
   1471000   290.47326      320.50622      53730.219     -20353.79       3249.5186     -17104.271      1.0617388    
   1472000   304.75469      361.18156      53384.32      -20435.368      3409.2847     -17026.084      1.0686182    
   1473000   299.49108     -378.15268      54209.312     -20516.269      3350.4008     -17165.868      1.0523553    
   1474000   301.46726     -157.18749      54220.984     -20377.853      3372.5082     -17005.345      1.0521288    
   1475000   301.51579      193.51095      53764.923     -20383.778      3373.0512     -17010.727      1.0610535    
   1476000   303.74589     -220.97486      53750.6       -20268.397      3397.9992     -16870.398      1.0613362    
   1477000   295.25155     -623.98242      54384.403     -20321.288      3302.9732     -17018.314      1.0489673    
   1478000   302.70931     -259.20117      53991.04      -20467.273      3386.4031     -17080.87       1.0566097    
   1479000   305.78795      1354.6645      53760.234     -20311.749      3420.8438     -16890.906      1.061146     
   1480000   297.49166      156.44633      54012.683     -20236.158      3328.0333     -16908.124      1.0561863    
   1481000   305.54021      465.17902      53431.491     -20449.93       3418.0723     -17031.858      1.0676748    
   1482000   304.5518       425.4158       53897.813     -20310.966      3407.0149     -16903.951      1.0584373    
   1483000   304.46451     -40.309081      53454.43      -20273.599      3406.0384     -16867.56       1.0672166    
   1484000   295.20991     -1025.033       54124.267     -20315.671      3302.5074     -17013.164      1.0540089    
   1485000   294.70912      1370.0143      53744.401     -20329.092      3296.905      -17032.187      1.0614586    
   1486000   299.48679      296.03905      53873.355     -20374.617      3350.3528     -17024.264      1.0589179    
   1487000   300.57025     -201.97861      54494.59      -20330.561      3362.4734     -16968.088      1.0468463    
   1488000   298.79852     -221.32604      54116.661     -20386.022      3342.6531     -17043.369      1.054157     
   1489000   297.01883     -256.69816      53746.164     -20381.555      3322.7438     -17058.811      1.0614238    
   1490000   300.38413     -546.88169      54235.779     -20328.745      3360.3913     -16968.353      1.0518418    
   1491000   292.78892     -897.7665       54487.773     -20260.673      3275.4238     -16985.249      1.0469772    
   1492000   304.67516     -103.72676      54083.28      -20344.468      3408.395      -16936.073      1.0548076    
   1493000   304.13462      971.86611      53571.019     -20346.814      3402.3479     -16944.466      1.064894     
   1494000   300.55187      596.5188       53782.154     -20364.7        3362.2678     -17002.432      1.0607135    
   1495000   301.98689     -627.72876      53991.865     -20320.236      3378.3213     -16941.915      1.0565936    
   1496000   298.37763     -43.384905      53602.383     -20246.113      3337.9446     -16908.169      1.0642709    
   1497000   301.91543      11.74156       54040.945     -20250.922      3377.5219     -16873.4        1.055634     
   1498000   298.13586      32.526336      54192.2       -20239.888      3335.24       -16904.648      1.0526876    
   1499000   300.20456     -331.00861      53829.127     -20333.189      3358.3825     -16974.807      1.0597879    
   1500000   303.14959     -601.06269      53719.245     -20356.603      3391.3284     -16965.275      1.0619557    
   1501000   300.61452      222.09328      54386.48      -20313.185      3362.9687     -16950.217      1.0489272    
   1502000   302.70856     -399.06203      53994.735     -20444.396      3386.3947     -17058.002      1.0565374    
   1503000   304.76745      786.79878      53409.895     -20307.964      3409.4274     -16898.536      1.0681065    
   1504000   304.53794     -438.94333      53521.452     -20207.722      3406.8599     -16800.862      1.0658802    
   1505000   296.07933      708.2235       53677.53      -20323.511      3312.2335     -17011.277      1.062781     
   1506000   300.54167     -332.33591      53684.063     -20354.144      3362.1537     -16991.99       1.0626516    
   1507000   302.87771      493.037        53999.029     -20348.024      3388.2869     -16959.737      1.0564534    
   1508000   302.72028      249.3181       53801.142     -20403.563      3386.5258     -17017.037      1.0603392    
   1509000   300.66156      305.62076      53329.848     -20404.652      3363.4948     -17041.157      1.0697097    
   1510000   302.14864      136.32591      53738.568     -20335.226      3380.1309     -16955.095      1.0615738    
   1511000   292.59254      493.64113      54219.139     -20336.618      3273.2269     -17063.391      1.0521646    
   1512000   302.77667      666.00766      53437.159     -20383.901      3387.1566     -16996.745      1.0675616    
   1513000   293.41486     -1124.108       54073.786     -20376.475      3282.4262     -17094.049      1.0549928    
   1514000   293.17071      164.33753      53786.133     -20321.403      3279.6949     -17041.708      1.060635     
   1515000   305.52032     -31.033345      54364.884     -20160.879      3417.8498     -16743.029      1.0493439    
   1516000   304.03189     -644.79075      53662.262     -20383.109      3401.1987     -16981.91       1.0630834    
   1517000   299.82005     -276.25305      54018.315     -20365.827      3354.081      -17011.746      1.0560762    
   1518000   297.50951      195.05217      53744.222     -20248.167      3328.233      -16919.934      1.0614622    
   1519000   303.42573      209.33277      54163.487     -20232.394      3394.4176     -16837.977      1.0532457    
   1520000   300.62849      789.0192       53522.602     -20235.704      3363.1249     -16872.579      1.0658573    
   1521000   301.0116      -616.6006       53577.618     -20404.071      3367.4108     -17036.66       1.0647629    
   1522000   295.192       -665.6364       53489.598     -20346.291      3302.3071     -17043.984      1.066515     
   1523000   296.58969      399.97512      53816.553     -20306.325      3317.9429     -16988.382      1.0600355    
   1524000   302.08988     -6.2446446      53624.408     -20365.86       3379.4735     -16986.387      1.0638338    
   1525000   298.52305      35.765043      53941.755     -20309.715      3339.5714     -16970.144      1.0575751    
   1526000   304.11532      537.33762      53315.643     -20447.213      3402.1321     -17045.081      1.0699947    
   1527000   299.63344     -47.39851       53483.514     -20453.543      3351.9933     -17101.55       1.0666363    
   1528000   301.99332      512.07785      53180.131     -20372.573      3378.3932     -16994.18       1.0727213    
   1529000   299.80608     -418.66575      54026.426     -20421.613      3353.9246     -17067.689      1.0559177    
   1530000   304.15575     -326.93129      54166.724     -20388.718      3402.5843     -16986.134      1.0531827    
   1531000   299.78284      270.77913      53698.174     -20330.302      3353.6647     -16976.638      1.0623724    
   1532000   302.30011      254.8079       53667.06      -20399.63       3381.8253     -17017.805      1.0629883    
   1533000   301.72583     -252.79555      53619.863     -20406.236      3375.4009     -17030.835      1.063924     
   1534000   294.9991      -112.73386      53709.325     -20464.61       3300.149      -17164.461      1.0621518    
   1535000   305.85592     -858.76343      54464.911     -20344.994      3421.6041     -16923.39       1.0474167    
   1536000   299.25739     -959.87083      54475.328     -20317.457      3347.7864     -16969.671      1.0472164    
   1537000   300.70468      3.9871316      53711.571     -20351.207      3363.9773     -16987.23       1.0621074    
   1538000   304.94458      112.80879      53674.57      -20393.767      3411.4089     -16982.358      1.0628396    
   1539000   299.82302      782.6314       54139.674     -20336.481      3354.1142     -16982.366      1.0537089    
   1540000   300.02381      188.40763      54063.322     -20233.42       3356.3604     -16877.06       1.0551971    
   1541000   296.34822      353.8946       54251.224     -20389.126      3315.2417     -17073.884      1.0515423    
   1542000   299.35881     -557.83967      54331.094     -20345.719      3348.921      -16996.798      1.0499965    
   1543000   293.4081      -749.00553      53634.333     -20254.302      3282.3505     -16971.951      1.0636369    
   1544000   301.76832      476.08084      53654.754     -20451.516      3375.8762     -17075.639      1.0632321    
   1545000   301.27503      755.52735      53476.936     -20379.772      3370.3578     -17009.414      1.0667675    
   1546000   299.17982     -1269.0525      53604.648     -20311.149      3346.9187     -16964.23       1.064226     
   1547000   300.33694     -5.6000588      53563.384     -20432.291      3359.8634     -17072.428      1.0650458    
   1548000   296.85269      172.18676      52998.986     -20435.064      3320.8852     -17114.179      1.0763877    
   1549000   298.07767     -44.841235      53639.402     -20381.993      3334.5889     -17047.404      1.0635364    
   1550000   303.53165     -907.13189      53934.188     -20298.158      3395.6025     -16902.555      1.0577235    
   1551000   304.12918      320.77938      53713.048     -20376.379      3402.2871     -16974.092      1.0620782    
   1552000   308.40237      419.02961      53760.52      -20286.607      3450.0912     -16836.515      1.0611404    
   1553000   298.9062      -621.39332      53642.986     -20238.878      3343.8578     -16895.02       1.0634654    
   1554000   295.18233      17.226508      53374.818     -20325.218      3302.1989     -17023.019      1.0688085    
   1555000   297.35679      53.962231      54077.923     -20375.535      3326.5244     -17049.01       1.0549121    
   1556000   302.97639      347.35618      54233.68      -20312.308      3389.3908     -16922.917      1.0518825    
   1557000   304.3682      -642.90915      54105.862     -20392.828      3404.961      -16987.867      1.0543674    
   1558000   303.49946      293.25156      54144.215     -20430.618      3395.2424     -17035.376      1.0536205    
   1559000   297.23291     -346.87436      54390.369     -20330.686      3325.1386     -17005.548      1.0488522    
   1560000   293.52721      136.78216      53697.34      -20376.228      3283.6831     -17092.545      1.0623889    
   1561000   299.53627     -762.69752      53786.429     -20340.766      3350.9063     -16989.86       1.0606292    
   1562000   303.28094     -400.96901      54112.114     -20428.298      3392.7978     -17035.501      1.0542456    
   1563000   289.688       -244.87332      53793.688     -20298.925      3240.7339     -17058.191      1.0604861    
   1564000   299.11256      388.47686      53961.102     -20177.622      3346.1663     -16831.456      1.0571959    
   1565000   303.40907     -165.51291      53839.204     -20249.517      3394.2312     -16855.286      1.0595895    
   1566000   295.81153      651.89611      53968.132     -20293.928      3309.2377     -16984.69       1.0570582    
   1567000   293.83725      840.19978      53325.891     -20341.919      3287.1514     -17054.767      1.0697891    
   1568000   300.21022     -803.25165      53877.446     -20201.874      3358.4457     -16843.428      1.0588374    
   1569000   295.3828      -120.20386      53721.033     -20437.148      3304.4415     -17132.707      1.0619203    
   1570000   299.62701     -146.1206       54392.382     -20376.918      3351.9214     -17024.997      1.0488134    
   1571000   293.72889     -251.65498      53352.352     -20332.224      3285.9393     -17046.284      1.0692585    
   1572000   311.77286      57.146293      54049.153     -20411.388      3487.7968     -16923.591      1.0554737    
   1573000   299.34025     -9.8859143      54384.719     -20410.768      3348.7134     -17062.055      1.0489612    
   1574000   302.87604      131.51246      53416.301     -20433.709      3388.2682     -17045.441      1.0679784    
   1575000   298.24646      947.97219      53826.178     -20379.838      3336.4773     -17043.361      1.059846     
   1576000   295.72539      317.47363      53770.928     -20335.923      3308.2741     -17027.649      1.060935     
   1577000   294.37154     -1085.8413      53636.103     -20318.084      3293.1285     -17024.955      1.0636018    
   1578000   305.31891     -219.85564      54101.585     -20232.57       3415.5966     -16816.974      1.0544508    
   1579000   299.76835      155.21212      54340.256     -20394.451      3353.5025     -17040.949      1.0498195    
   1580000   294.41309     -255.96877      53637.124     -20380.921      3293.5934     -17087.328      1.0635816    
   1581000   299.51093     -191.64431      53905.168     -20369.26       3350.6229     -17018.637      1.0582929    
   1582000   292.60199      265.64377      54296.781     -20405.347      3273.3326     -17132.014      1.05066      
   1583000   297.55134     -250.70344      53735.043     -20419.29       3328.7009     -17090.589      1.0616435    
   1584000   300.37444     -653.40953      53376.137     -20462.571      3360.2829     -17102.288      1.0687821    
   1585000   305.6901       436.01367      54321.429     -20279.565      3419.7491     -16859.815      1.0501833    
   1586000   300.9004       1068.9478      53818.015     -20290.883      3366.1667     -16924.716      1.0600067    
   1587000   296.7998      -173.28742      54016.701     -20261.155      3320.2934     -16940.861      1.0561078    
   1588000   305.145       -188.76346      54248.32      -20351.673      3413.6511     -16938.022      1.0515986    
   1589000   302.76972      77.258938      53946.649     -20287.837      3387.0789     -16900.758      1.0574792    
   1590000   290.32432     -1001.5262      53899.832     -20427.459      3247.8524     -17179.606      1.0583977    
   1591000   304.95641     -761.92555      54461.553     -20332.487      3411.5413     -16920.946      1.0474813    
   1592000   298.91417      562.79053      53895.5       -20367.267      3343.9469     -17023.32       1.0584828    
   1593000   299.4015       535.01482      53649.411     -20423.525      3349.3986     -17074.126      1.063338     
   1594000   298.8189       29.762715      54603.637     -20224.263      3342.881      -16881.382      1.0447556    
   1595000   292.62729      212.77384      53599.157     -20343.318      3273.6156     -17069.702      1.064335     
   1596000   303.67786      21.674137      53764.885     -20346.825      3397.2382     -16949.587      1.0610542    
   1597000   309.39818      211.76586      53504.297     -20377.424      3461.2312     -16916.193      1.066222     
   1598000   292.56435     -267.02061      54335.446     -20250.242      3272.9116     -16977.33       1.0499124    
   1599000   300.81285     -148.1269       53734.979     -20353.63       3365.1874     -16988.443      1.0616447    
   1600000   297.42837      9.9276038      53533.423     -20344.481      3327.3252     -17017.156      1.0656419    
   1601000   299.11896     -555.98371      54103.1       -20293.455      3346.2378     -16947.217      1.0544212    
   1602000   294.30469     -524.55754      53974.298     -20315.778      3292.3807     -17023.397      1.0569375    
   1603000   298.99861      117.17049      54039.373     -20408.236      3344.8915     -17063.344      1.0556647    
   1604000   304.0616       305.2088       53927.113     -20322.14       3401.5311     -16920.609      1.0578623    
   1605000   298.09305      497.67257      53881.068     -20211.573      3334.7611     -16876.812      1.0587663    
   1606000   306.04018      252.50464      54237.554     -20309.751      3423.6655     -16886.086      1.0518073    
   1607000   297.70025      785.52262      53915.063     -20266.955      3330.3667     -16936.589      1.0580987    
   1608000   302.06902     -391.03943      53837.88      -20196.768      3379.2401     -16817.528      1.0596156    
   1609000   304.09368      590.81605      53690.109     -20363.682      3401.8899     -16961.792      1.062532     
   1610000   300.90896      561.57924      53438.091     -20362.754      3366.2626     -16996.491      1.067543     
   1611000   301.40315     -78.662433      54125.863     -20295.04       3371.791      -16923.249      1.0539778    
   1612000   300.24279      47.834781      54198.483     -20271.311      3358.8102     -16912.5        1.0525656    
   1613000   300.59339      992.43013      53993.818     -20422.246      3362.7322     -17059.513      1.0565554    
   1614000   300.88857      76.390386      53961.491     -20333.848      3366.0345     -16967.814      1.0571883    
   1615000   305.35144      105.40721      53536.716     -20429.5        3415.9605     -17013.539      1.0655763    
   1616000   299.7792      -517.19968      53856.652     -20381.997      3353.6239     -17028.373      1.0592463    
   1617000   295.1349       626.00195      53737.185     -20301.957      3301.6683     -17000.289      1.0616012    
   1618000   293.24434     -725.00254      53964.331     -20228.785      3280.5186     -16948.267      1.0571327    
   1619000   300.66641     -242.46199      54194.952     -20414.681      3363.5492     -17051.132      1.0526342    
   1620000   303.70916      178.20694      53504.045     -20456.042      3397.5883     -17058.454      1.066227     
   1621000   302.90282      73.618061      54065.566     -20369.627      3388.5679     -16981.059      1.0551533    
   1622000   303.31734      139.39784      54206.161     -20276.173      3393.205      -16882.968      1.0524165    
   1623000   297.46559      272.68969      53958.678     -20335.729      3327.7416     -17007.988      1.0572434    
   1624000   292.88207      26.38746       53543.983     -20363.954      3276.4659     -17087.488      1.0654317    
   1625000   292.24338      11.618384      54224.722     -20318.591      3269.3209     -17049.27       1.0520563    
   1626000   302.44157     -336.87593      53927.089     -20372.934      3383.4078     -16989.526      1.0578627    
   1627000   304.40991     -256.96237      53627.115     -20444.492      3405.4276     -17039.064      1.0637801    
   1628000   306.12869     -213.28423      53980.55      -20281.676      3424.6556     -16857.02       1.056815     
   1629000   298.36246      87.543549      53792.953     -20353.584      3337.775      -17015.809      1.0605006    
   1630000   301.29639     -191.8642       53887.934     -20371.496      3370.5968     -17000.899      1.0586314    
   1631000   295.16995     -35.201736      54174.999     -20318.829      3302.0604     -17016.769      1.0530219    
   1632000   297.09806      462.45187      53774.218     -20356.989      3323.6301     -17033.358      1.0608701    
   1633000   294.54934      395.37695      53827.044     -20338.717      3295.1176     -17043.599      1.0598289    
   1634000   299.45263     -686.12581      53767.018     -20363.437      3349.9707     -17013.467      1.0610121    
   1635000   298.9376       60.272664      53934.355     -20284.676      3344.209      -16940.467      1.0577202    
   1636000   304.26269     -32.771044      54057.287     -20278.026      3403.7807     -16874.246      1.0553148    
   1637000   306.8932      -696.74669      53756.919     -20374.969      3433.2082     -16941.761      1.0612114    
   1638000   299.91593      519.80197      53486.981     -20302.879      3355.1536     -16947.726      1.0665672    
   1639000   297.48412      223.23301      53446.534     -20428.849      3327.949      -17100.9        1.0673743    
   1640000   304.48889      1053.3335      53445.596     -20306.803      3406.3112     -16900.492      1.0673931    
   1641000   300.71682      318.20126      53722.736     -20395.187      3364.1131     -17031.073      1.0618867    
   1642000   294.64857      49.154744      53984.792     -20299.899      3296.2277     -17003.671      1.056732     
   1643000   300.53768      114.87802      54195.572     -20320.606      3362.109      -16958.497      1.0526221    
   1644000   291.13783      449.74667      54134.712     -20322.201      3256.9531     -17065.248      1.0538055    
   1645000   297.75274     -424.15776      54320.852     -20381.723      3330.954      -17050.769      1.0501945    
   1646000   300.38298     -701.76224      54436.963     -20394.561      3360.3784     -17034.183      1.0479545    
   1647000   298.2036      -181.76044      53779.724     -20346.849      3335.9977     -17010.851      1.0607614    
   1648000   297.26646     -182.11007      53987.94      -20187.207      3325.514      -16861.693      1.0566704    
   1649000   304.09995     -62.928288      54189.038     -20308.381      3401.9601     -16906.421      1.052749     
   1650000   299.84605     -669.64023      54352.129     -20364.526      3354.3718     -17010.154      1.0495901    
   1651000   294.06612     -1.7456066      54049.086     -20321.678      3289.7119     -17031.966      1.055475     
   1652000   301.69353     -481.37335      54362.236     -20237.172      3375.0395     -16862.132      1.049395     
   1653000   298.72064     -62.941542      54246.799     -20300.542      3341.7818     -16958.76       1.0516281    
   1654000   300.15431     -482.24509      54385.115     -20374.382      3357.8203     -17016.562      1.0489535    
   1655000   305.05091      717.72068      53764.134     -20345.454      3412.5985     -16932.855      1.061069     
   1656000   292.78122      161.70944      53974.244     -20304.59       3275.3377     -17029.253      1.0569385    
   1657000   298.90546      458.07321      53375.35      -20297.767      3343.8494     -16953.917      1.0687978    
   1658000   299.90798      455.10764      53615.382     -20396.871      3355.0646     -17041.806      1.0640129    
   1659000   291.456        227.535        53589.19      -20325.116      3260.5125     -17064.604      1.0645329    
   1660000   307.0271      -245.43882      54038.847     -20311.666      3434.7061     -16876.96       1.055675     
   1661000   293.97434     -248.74744      53791.582     -20281.196      3288.6851     -16992.511      1.0605276    
   1662000   300.93937     -588.44995      54298.836     -20339.218      3366.6027     -16972.616      1.0506203    
   1663000   298.35144     -791.27355      54068.598     -20205.032      3337.6516     -16867.38       1.0550941    
   1664000   293.12962     -706.76177      53333.828     -20256.822      3279.2352     -16977.587      1.0696299    
   1665000   296.3994       88.913378      53902.883     -20395.866      3315.8142     -17080.051      1.0583378    
   1666000   301.57302      33.981146      53994.713     -20377.597      3373.6914     -17003.906      1.0565378    
   1667000   307.86627     -121.2878       53783.75      -20397.551      3444.0939     -16953.457      1.060682     
   1668000   300.49567     -557.44503      54096.757     -20283.114      3361.6391     -16921.475      1.0545449    
   1669000   303.81167     -80.212592      53752.744     -20326.207      3398.7351     -16927.472      1.0612939    
   1670000   295.1404      -605.32085      54215.688     -20374.493      3301.7298     -17072.763      1.0522315    
   1671000   299.91497     -868.18515      53797.557     -20387.471      3355.1429     -17032.328      1.0604098    
   1672000   300.62576     -14.471371      53710.969     -20394.064      3363.0944     -17030.97       1.0621193    
   1673000   297.18931      47.412541      53902.584     -20346.758      3324.6509     -17022.107      1.0583436    
   1674000   297.27924      447.93219      53851.48      -20278.401      3325.657      -16952.744      1.059348     
   1675000   295.19805      92.430624      53517.645     -20392.622      3302.3747     -17090.248      1.0659561    
   1676000   304.69526      159.48967      54030.104     -20246.677      3408.6199     -16838.057      1.0558458    
   1677000   296.79514     -680.23357      53297.495     -20324.4        3320.2413     -17004.159      1.0703591    
   1678000   309.69443      714.12853      53266.281     -20363.74       3464.5454     -16899.194      1.0709863    
   1679000   290.65728     -649.48788      53374.387     -20255.768      3251.5772     -17004.19       1.0688171    
   1680000   292.30341     -985.36531      53398.672     -20280.127      3269.9924     -17010.135      1.068331     
   1681000   305.41472     -137.16342      53458.64      -20340.217      3416.6684     -16923.549      1.0671326    
   1682000   297.18506      672.04474      53621.488     -20321.643      3324.6034     -16997.04       1.0638917    
   1683000   303.2226      -175.23422      53852.981     -20349.341      3392.1452     -16957.195      1.0593185    
   1684000   294.22722     -769.3897       53747.746     -20383.345      3291.5141     -17091.831      1.0613926    
   1685000   298.59123     -1159.8142      54544.749     -20412.657      3340.3342     -17072.322      1.0458836    
   1686000   296.31243      1.9096355      54499.511     -20249.525      3314.8412     -16934.684      1.0467517    
   1687000   302.42714     -316.99731      53781.155     -20368.421      3383.2464     -16985.174      1.0607332    
   1688000   303.10984     -526.36725      53938.034     -20314.502      3390.8838     -16923.618      1.0576481    
   1689000   297.0697      -368.82374      54025.168     -20424.22       3323.3128     -17100.907      1.0559423    
   1690000   300.89014     -72.857056      54251.111     -20302.073      3366.0521     -16936.021      1.0515445    
   1691000   299.61893     -669.77586      53787.982     -20331.925      3351.8311     -16980.094      1.0605986    
   1692000   299.82652     -252.62376      54256.509     -20307.264      3354.1534     -16953.111      1.0514399    
   1693000   306.34816     -622.0122       53559.072     -20374.981      3427.1108     -16947.87       1.0651316    
   1694000   308.6484      -1223.1732      53861.257     -20289.246      3452.8435     -16836.403      1.0591557    
   1695000   293.73357      171.03334      53833.886     -20351.834      3285.9916     -17065.842      1.0596942    
   1696000   297.27389      196.70528      54092.548     -20526.258      3325.5971     -17200.661      1.0546269    
   1697000   302.04126     -872.36338      53697.499     -20447.273      3378.9296     -17068.344      1.0623857    
   1698000   301.48665      7.0222776      53646.568     -20397.055      3372.7252     -17024.329      1.0633943    
   1699000   299.07378      195.05807      53611.83      -20348.387      3345.7325     -17002.655      1.0640834    
   1700000   304.98665      465.80873      53448.019     -20358.249      3411.8796     -16946.369      1.0673447    
   1701000   299.7053       1496.5542      53717.956     -20362.076      3352.7972     -17009.278      1.0619812    
   1702000   293.57428     -874.14115      54463.646     -20336.756      3284.2096     -17052.546      1.047441     
   1703000   303.36688      80.231702      54442.47      -20414.483      3393.7593     -17020.724      1.0478484    
   1704000   303.10918      546.14594      53831.758     -20312.194      3390.8764     -16921.317      1.0597361    
   1705000   294.54159     -258.70487      54027.533     -20423.224      3295.0309     -17128.194      1.055896     
   1706000   302.69553     -583.24079      53512.08      -20417.903      3386.2489     -17031.655      1.0660669    
   1707000   300.68328      896.51671      53728.83      -20390.312      3363.7378     -17026.574      1.0617662    
   1708000   298.02549      37.917951      53423.573     -20440.32       3334.0052     -17106.315      1.0678331    
   1709000   297.26557      216.74887      53606.262     -20408.49       3325.504      -17082.986      1.0641939    
   1710000   299.54694      464.63039      53713.781     -20330.407      3351.0257     -16979.381      1.0620637    
   1711000   293.68668     -428.61888      54034.555     -20292.318      3285.467      -17006.851      1.0557588    
   1712000   296.28694      652.71783      53253.555     -20294.142      3314.5562     -16979.585      1.0712422    
   1713000   299.54105      331.26291      53310.538     -20346.219      3350.9598     -16995.259      1.0700972    
   1714000   293.74193     -298.65045      54204.753     -20299.622      3286.0851     -17013.537      1.0524438    
   1715000   306.32218      106.01012      53725.93      -20367.34       3426.8201     -16940.52       1.0618235    
   1716000   299.52769      226.81249      53882.052     -20350.544      3350.8103     -16999.734      1.0587469    
   1717000   299.26222     -740.4349       54057.177     -20397.197      3347.8405     -17049.356      1.055317     
   1718000   308.67271     -98.777707      54320.775     -20317.269      3453.1155     -16864.153      1.0501959    
   1719000   298.78108     -36.141586      54074.365     -20318.883      3342.4581     -16976.425      1.0549816    
   1720000   299.9197       243.83232      53544.517     -20361.849      3355.1957     -17006.653      1.0654211    
   1721000   300.73417     -212.63946      53871.378     -20321.984      3364.3071     -16957.677      1.0589567    
   1722000   303.76294      182.95235      53383.373     -20359.807      3398.1899     -16961.618      1.0686372    
   1723000   295.47264     -474.14388      53671.028     -20395.186      3305.4466     -17089.74       1.0629097    
   1724000   298.159       -62.990984      54098.494     -20264.3        3335.4988     -16928.801      1.054511     
   1725000   305.76958      400.48768      53939.411     -20350.489      3420.6383     -16929.851      1.0576211    
   1726000   305.8654      -313.51642      54351.454     -20326.065      3421.7101     -16904.355      1.0496032    
   1727000   305.74834     -275.08423      54140.158     -20437.507      3420.4006     -17017.106      1.0536995    
   1728000   298.14527      467.5743       53963.8       -20336.086      3335.3452     -17000.741      1.0571431    
   1729000   300.23611      133.45404      54222.026     -20517.844      3358.7354     -17159.109      1.0521086    
   1730000   297.43343      60.068335      53885.059     -20421.865      3327.3819     -17094.483      1.0586879    
   1731000   294.03747      382.63055      53831.716     -20345.424      3289.3913     -17056.033      1.0597369    
   1732000   299.55521     -492.04981      53373.88      -20433.321      3351.1182     -17082.203      1.0688272    
   1733000   296.91388      270.38465      53746.296     -20308.851      3321.5697     -16987.281      1.0614212    
   1734000   308.87886      215.4428       53518.758     -20277.028      3455.4216     -16821.607      1.0659339    
   1735000   304.76434      70.645627      53538.837     -20327.299      3409.3926     -16917.907      1.0655341    
   1736000   298.70605     -499.16126      54591.001     -20367.967      3341.6187     -17026.349      1.0449975    
   1737000   307.56792     -693.41103      54498.404     -20476.704      3440.7563     -17035.948      1.046773     
   1738000   301.88837     -538.71001      53998.879     -20308.833      3377.2192     -16931.614      1.0564563    
   1739000   297.88527      1077.6386      53802.803     -20349.431      3332.4366     -17016.994      1.0603064    
   1740000   298.96073      103.47639      53827.268     -20344.821      3344.4678     -17000.353      1.0598245    
   1741000   303.80033     -698.37906      53816.938     -20296.864      3398.6083     -16898.256      1.0600279    
   1742000   291.38308      355.61985      53431.918     -20380.523      3259.6967     -17120.827      1.0676663    
   1743000   299.35519      1092.1659      53238.575     -20342.696      3348.8805     -16993.815      1.0715437    
   1744000   300.78035      223.33524      53939.123     -20257.044      3364.8238     -16892.22       1.0576267    
   1745000   297.93437     -494.67117      54091.861     -20503.582      3332.9859     -17170.596      1.0546403    
   1746000   299.67507     -410.17719      53805.52      -20418.481      3352.4591     -17066.022      1.0602529    
   1747000   301.8167       792.97442      53422.403     -20489.266      3376.4174     -17112.848      1.0678564    
   1748000   296.74478     -537.25505      54227.317     -20301.604      3319.678      -16981.926      1.0520059    
   1749000   296.70406     -437.662        54108.148     -20408.182      3319.2224     -17088.959      1.0543229    
   1750000   300.85772     -106.52278      54182.619     -20418.943      3365.6893     -17053.254      1.0528738    
   1751000   302.11856     -640.99474      53743.327     -20336.2        3379.7943     -16956.406      1.0614798    
   1752000   301.8659       523.42125      53544.49      -20290.05       3376.9678     -16913.082      1.0654216    
   1753000   299.15661     -634.48975      54175.343     -20213.217      3346.6591     -16866.558      1.0530152    
   1754000   299.15022     -651.5801       54140.532     -20367.714      3346.5876     -17021.126      1.0536922    
   1755000   302.36844     -813.48677      54267.782     -20263.584      3382.5898     -16880.994      1.0512215    
   1756000   298.40778      819.23361      54058.873     -20426.424      3338.2818     -17088.142      1.0552839    
   1757000   302.63891      776.42561      54240.556     -20407.629      3385.6155     -17022.013      1.0517491    
   1758000   297.05205     -203.4726       53807.481     -20328.9        3323.1153     -17005.785      1.0602142    
   1759000   299.13233      767.59968      53347.197     -20332.234      3346.3875     -16985.846      1.0693619    
   1760000   297.86025      640.25355      53202.817     -20344.105      3332.1567     -17011.948      1.0722639    
   1761000   294.12384     -1089.9281      53369.369     -20396.916      3290.3576     -17106.559      1.0689176    
   1762000   302.25112      256.086        53429.665     -20232.25       3381.2773     -16850.973      1.0677113    
   1763000   303.22642     -1242.0117      54055.4       -20414.76       3392.1879     -17022.572      1.0553517    
   1764000   298.82252     -322.32326      53749.907     -20300.107      3342.9216     -16957.186      1.0613499    
   1765000   294.84035      475.52621      54296.159     -20378.329      3298.3732     -17079.956      1.0506721    
   1766000   297.35512      660.57393      53845.726     -20326.36       3326.5058     -16999.854      1.0594612    
   1767000   296.23025      43.796253      53852.983     -20338.889      3313.9219     -17024.967      1.0593184    
   1768000   309.8394       396.32711      53828.444     -20288.639      3466.1672     -16822.472      1.0598013    
   1769000   302.6994      -460.01449      53844.884     -20300.098      3386.2922     -16913.806      1.0594778    
   1770000   299.39783      120.99196      53675.73      -20361.617      3349.3575     -17012.259      1.0628166    
   1771000   300.77803      281.92214      54326.246     -20356.55       3364.7978     -16991.752      1.0500902    
   1772000   301.22758     -849.21083      53792.374     -20375.635      3369.8269     -17005.808      1.060512     
   1773000   305.26624     -120.33793      53347.566     -20425.052      3415.0074     -17010.045      1.0693545    
   1774000   294.81886      773.46821      53840.43      -20344.346      3298.1327     -17046.213      1.0595654    
   1775000   299.85547     -839.44847      54265.856     -20272.942      3354.4772     -16918.465      1.0512588    
   1776000   294.9277       12.570597      53402.687     -20466.953      3299.3503     -17167.603      1.0682507    
   1777000   304.76826      7.385334       53505.929     -20289.403      3409.4364     -16879.966      1.0661895    
   1778000   300.66599     -45.114455      53521.224     -20418.048      3363.5444     -17054.503      1.0658848    
   1779000   300.32661     -407.02199      53408.493     -20352.161      3359.7478     -16992.413      1.0681346    
   1780000   301.73571      591.69641      53612.957     -20247.751      3375.5114     -16872.24       1.064061     
   1781000   305.78216      886.13939      53887.065     -20259.811      3420.7789     -16839.033      1.0586484    
   1782000   303.51049      394.931        53465.048     -20340.259      3395.3658     -16944.893      1.0670047    
   1783000   297.84848      186.29845      53238.599     -20385.771      3332.0251     -17053.746      1.0715432    
   1784000   296.55294     -648.75351      54049.139     -20337.479      3317.5319     -17019.947      1.0554739    
   1785000   302.59686     -130.95345      53623.889     -20337.745      3385.145      -16952.6        1.0638441    
   1786000   306.86153      95.448169      53987.883     -20342.327      3432.8538     -16909.473      1.0566715    
   1787000   300.44011      749.93082      53453.056     -20559.988      3361.0175     -17198.971      1.0672441    
   1788000   304.55135     -60.635699      53636.581     -20417.329      3407.0099     -17010.319      1.0635924    
   1789000   302.45383      322.22393      53836.417     -20427.604      3383.545      -17044.059      1.0596444    
   1790000   302.40616      291.18978      53435.054     -20353.371      3383.0117     -16970.359      1.0676036    
   1791000   297.97716      186.83945      53424.606     -20397.061      3333.4645     -17063.596      1.0678124    
   1792000   301.12722      311.55221      54215.651     -20389.391      3368.7042     -17020.687      1.0522323    
   1793000   297.90612     -643.8322       53773.455     -20341.981      3332.6699     -17009.311      1.0608851    
   1794000   294.87426      680.21432      53480.568     -20254.182      3298.7525     -16955.43       1.0666951    
   1795000   298.34434     -199.26432      53673.694     -20165.244      3337.5722     -16827.672      1.0628569    
   1796000   306.45964      1212.8042      53830.466     -20374.946      3428.3579     -16946.588      1.0597615    
   1797000   298.52744     -738.92966      53412.531     -20356.465      3339.6205     -17016.845      1.0680538    
   1798000   300.97908      509.40436      53916.965     -20345.338      3367.0469     -16978.291      1.0580614    
   1799000   304.84497      129.33135      53920.439     -20290.356      3410.2946     -16880.062      1.0579932    
   1800000   301.4008      -232.50906      54353.875     -20215.647      3371.7648     -16843.882      1.0495564    
   1801000   302.86052      203.43253      54008.054     -20355.811      3388.0946     -16967.717      1.0562769    
   1802000   303.2393      -873.2277       54469.453     -20368.587      3392.3321     -16976.255      1.0473294    
   1803000   304.30509      214.43402      53670.426     -20316.721      3404.255      -16912.466      1.0629217    
   1804000   301.81103     -232.18242      53798.404     -20387.607      3376.354      -17011.253      1.0603931    
   1805000   306.42395     -639.00565      53952.726     -20328.216      3427.9586     -16900.257      1.0573601    
   1806000   303.12609      1021.4926      54075.99      -20270.612      3391.0656     -16879.546      1.0549499    
   1807000   301.85576      119.58106      53588.391     -20388.886      3376.8543     -17012.031      1.0645488    
   1808000   297.47575     -264.34918      54333.944     -20333.481      3327.8553     -17005.625      1.0499414    
   1809000   299.61485     -863.93069      53926.15      -20378.537      3351.7853     -17026.752      1.0578812    
   1810000   303.39519      604.75907      53833.665     -20247.192      3394.076      -16853.116      1.0596986    
   1811000   291.99185     -42.888589      53829.405     -20222.859      3266.507      -16956.352      1.0597824    
   1812000   304.98755     -39.275212      53616.216     -20393.774      3411.8896     -16981.885      1.0639963    
   1813000   300.88397     -388.60376      53522.854     -20291.848      3365.983      -16925.865      1.0658523    
   1814000   299.26126     -148.73284      53574.613     -20307.345      3347.8298     -16959.516      1.0648226    
   1815000   295.23315     -108.49444      54077.187     -20312.932      3302.7673     -17010.165      1.0549265    
   1816000   305.00382      725.18991      53407.186     -20388.818      3412.0717     -16976.746      1.0681607    
   1817000   300.54985     -20.932663      54057.439     -20402.129      3362.2452     -17039.884      1.0553119    
   1818000   300.79008      605.40259      53902.947     -20362.356      3364.9327     -16997.423      1.0583365    
   1819000   294.12629     -1116.4268      54128.492     -20345.756      3290.3849     -17055.371      1.0539266    
   1820000   303.84611      1.6532274      53790.546     -20418.455      3399.1204     -17019.335      1.060548     
   1821000   300.94522     -835.37965      54318.099     -20402.996      3366.6682     -17036.327      1.0502477    
   1822000   301.1171      -281.74675      54114.253     -20394.262      3368.591      -17025.671      1.0542039    
   1823000   298.20656      939.38406      54102.709     -20259.979      3336.0309     -16923.948      1.0544288    
   1824000   297.65567      27.252583      54039.113     -20364.464      3329.868      -17034.596      1.0556698    
   1825000   292.10395     -782.70184      53875.045     -20256.759      3267.7611     -16988.997      1.0588846    
   1826000   296.15207     -555.71393      53735.119     -20394.451      3313.0473     -17081.403      1.061642     
   1827000   300.16614      26.799038      53873.048     -20275.889      3357.9526     -16917.937      1.0589239    
   1828000   300.70315      242.14025      53690.535     -20345.863      3363.9601     -16981.903      1.0625235    
   1829000   298.02735      157.90564      53671.135     -20327.851      3334.0261     -16993.825      1.0629076    
   1830000   299.07343      249.38519      53806.69      -20383.1        3345.7285     -17037.372      1.0602298    
   1831000   301.77966      292.79495      53263.826     -20232.229      3376.003      -16856.226      1.0710357    
   1832000   301.75648     -298.60324      54078.734     -20339.197      3375.7437     -16963.454      1.0548963    
   1833000   298.99186      209.60183      54266.923     -20285.439      3344.816      -16940.623      1.0512381    
   1834000   302.72093     -373.71832      54025.465     -20475.781      3386.533      -17089.248      1.0559364    
   1835000   293.98641      109.67994      54321.811     -20283.908      3288.8201     -16995.088      1.0501759    
   1836000   306.82275     -261.56837      54161.033     -20226.266      3432.42       -16793.846      1.0532934    
   1837000   304.27257      28.386699      53876.8       -20369.966      3403.8912     -16966.075      1.0588502    
   1838000   300.20266      377.41834      53881.652     -20349.357      3358.3612     -16990.995      1.0587548    
   1839000   307.10191     -394.5513       53907.579     -20320.566      3435.5429     -16885.023      1.0582456    
   1840000   295.22398      661.19566      53897.697     -20251.086      3302.6647     -16948.421      1.0584396    
   1841000   298.4138       591.33987      53748.208     -20362.859      3338.3492     -17024.51       1.0613834    
   1842000   296.59551      73.198054      54237.179     -20320.175      3318.0081     -17002.167      1.0518146    
   1843000   301.27687     -384.56009      54405.228     -20492.827      3370.3784     -17122.449      1.0485657    
   1844000   296.89041      17.951943      54800.72      -20431.862      3321.3072     -17110.554      1.0409983    
   1845000   297.58098     -381.19215      53849.253     -20369.842      3329.0325     -17040.809      1.0593918    
   1846000   298.42754     -443.85117      53649.267     -20449.882      3338.503      -17111.379      1.0633408    
   1847000   299.86464      641.56053      53106.511     -20346.811      3354.5797     -16992.231      1.0742083    
   1848000   295.33671      220.74643      53794.283     -20393.284      3303.9259     -17089.358      1.0604744    
   1849000   303.24721     -737.33136      54105.76      -20353.759      3392.4205     -16961.339      1.0543694    
   1850000   298.18423      161.55489      53716.457     -20367.324      3335.7811     -17031.543      1.0620108    
   1851000   299.16405      252.79042      53976.562     -20327.965      3346.7422     -16981.223      1.0568931    
   1852000   296.71699      411.39052      53708.697     -20279.21       3319.367      -16959.843      1.0621642    
   1853000   305.73157      321.25806      53597.562     -20308.856      3420.213      -16888.643      1.0643667    
   1854000   301.55478     -469.6263       53818.66      -20452.98       3373.4874     -17079.493      1.059994     
   1855000   301.95453     -252.75455      53804.551     -20451.003      3377.9593     -17073.044      1.060272     
   1856000   297.4506       660.01913      54440.017     -20231.61       3327.574      -16904.036      1.0478957    
   1857000   296.52396     -122.07883      54160.51      -20345.162      3317.2077     -17027.954      1.0533036    
   1858000   301.77697     -135.30066      53797.267     -20439.673      3375.9729     -17063.7        1.0604155    
   1859000   298.83501     -1073.8206      53632.507     -20281.796      3343.0614     -16938.735      1.0636731    
   1860000   294.13091      44.013979      53390.1       -20276.144      3290.4367     -16985.707      1.0685025    
   1861000   301.04397     -7.8251159      53718.624     -20350.511      3367.7729     -16982.738      1.061968     
   1862000   305.59388      683.27799      54122.164     -20352.949      3418.6726     -16934.276      1.0540498    
   1863000   294.80972      849.99692      53307.959     -20264.45       3298.0305     -16966.419      1.070149     
   1864000   298.51696     -55.291695      53960.606     -20341.633      3339.5032     -17002.13       1.0572056    
   1865000   297.12576     -532.32738      53693.063     -20254.419      3323.9399     -16930.479      1.0624735    
   1866000   299.12085      826.15678      53338.421     -20411.947      3346.259      -17065.688      1.0695378    
   1867000   298.09065     -97.903594      54058.413     -20236.27       3334.7342     -16901.536      1.0552929    
   1868000   301.22644     -6.2763409      53646.958     -20322.819      3369.8142     -16953.005      1.0633866    
   1869000   303.61841     -371.2582       53619.847     -20315.268      3396.5731     -16918.695      1.0639243    
   1870000   298.2648      -1110.1082      53248.722     -20331.997      3336.6824     -16995.315      1.0713395    
   1871000   297.98324      197.90655      53757.573     -20293.229      3333.5326     -16959.697      1.0611985    
   1872000   296.23844     -276.24499      54218.429     -20367.222      3314.0135     -17053.208      1.0521784    
   1873000   299.53807     -311.58713      53986.121     -20302.023      3350.9264     -16951.097      1.056706     
   1874000   298.32854      1406.7182      53943.128     -20238.569      3337.3955     -16901.174      1.0575482    
   1875000   295.13893     -271.79885      54714.918     -20328.741      3301.7133     -17027.028      1.0426308    
   1876000   309.28248      609.28088      53920.426     -20202.225      3459.937      -16742.288      1.0579935    
   1877000   295.97528     -32.457375      53440.43      -20430.919      3311.0695     -17119.85       1.0674962    
   1878000   296.85492     -449.28408      53623.858     -20346.999      3320.9101     -17026.089      1.0638447    
   1879000   305.9898      -747.17216      53999.096     -20324.14       3423.1018     -16901.038      1.0564521    
   1880000   300.51101      620.73731      53653.848     -20286.935      3361.8107     -16925.125      1.0632501    
   1881000   300.6468      -65.851204      53983.826     -20438.863      3363.3298     -17075.533      1.0567509    
   1882000   298.01632     -566.94094      53715.036     -20348.643      3333.9027     -17014.74       1.0620389    
   1883000   296.67196     -114.60194      53663.639     -20399.204      3318.8633     -17080.341      1.0630561    
   1884000   294.91289      189.92677      53910.071     -20312.434      3299.1847     -17013.249      1.0581967    
   1885000   296.39583      438.41495      53769.412     -20322.021      3315.7743     -17006.247      1.0609649    
   1886000   302.2292      -39.344812      54485.337     -20281.709      3381.032      -16900.677      1.047024     
   1887000   300.28326     -293.79115      53595.945     -20287.616      3359.2629     -16928.353      1.0643988    
   1888000   297.58655      113.44874      53989.639     -20368.025      3329.0949     -17038.931      1.0566371    
   1889000   299.39774      202.2382       54271.721     -20324.054      3349.3566     -16974.698      1.0511452    
   1890000   296.09011      301.49967      54176.224     -20360.673      3312.3542     -17048.319      1.052998     
   1891000   301.25885     -299.30987      54297.119     -20275.084      3370.1768     -16904.907      1.0506535    
   1892000   299.59736     -85.606825      53969.783     -20362.273      3351.5897     -17010.683      1.0570259    
   1893000   307.21219      62.805696      53971.578     -20306.159      3436.7767     -16869.383      1.0569907    
   1894000   301.78271      593.26924      53804.981     -20255.389      3376.0372     -16879.352      1.0602635    
   1895000   299.36189      67.74666       54088.563     -20351.628      3348.9555     -17002.673      1.0547046    
   1896000   298.60598     -569.43528      54337.935     -20186.939      3340.4991     -16846.44       1.0498643    
   1897000   302.85093     -637.92274      53836.819     -20356.321      3387.9874     -16968.334      1.0596365    
   1898000   301.95949      274.52074      53898.637     -20244.982      3378.0148     -16866.967      1.0584212    
   1899000   304.92889      13.962579      54148.925     -20196.467      3411.2334     -16785.233      1.0535289    
   1900000   296.02165     -651.24413      53860.729     -20373.728      3311.5883     -17062.139      1.0591661    
   1901000   298.66543      96.606758      54346.997     -20417.322      3341.1642     -17076.158      1.0496892    
   1902000   305.80782      1055.1572      54094.234     -20273.591      3421.066      -16852.525      1.0545941    
   1903000   304.42151      203.06612      53783.062     -20341.062      3405.5573     -16935.505      1.0606956    
   1904000   296.77849      294.48992      53941.52      -20387.4        3320.0551     -17067.345      1.0575797    
   1905000   298.06707      442.23668      54105.22      -20414.478      3334.4704     -17080.008      1.0543799    
   1906000   305.10781     -96.242063      53701.751     -20197.017      3413.235      -16783.782      1.0623016    
   1907000   298.90494     -683.39068      53520.042     -20208.865      3343.8436     -16865.021      1.0659083    
   1908000   297.00932      1072.0147      53517.962     -20287.769      3322.6373     -16965.132      1.0659497    
   1909000   306.59013     -481.60525      54370.57      -20410.608      3429.8177     -16980.791      1.0492341    
   1910000   298.98027      947.9163       53545.628     -20305.682      3344.6863     -16960.996      1.065399     
   1911000   300.0005       153.1693       53681.158     -20290.342      3356.0996     -16934.242      1.0627092    
   1912000   295.65127     -233.8926       53420.029     -20316.089      3307.4449     -17008.644      1.0679039    
   1913000   301.62835     -989.68394      53639.066     -20439.219      3374.3103     -17064.909      1.0635431    
   1914000   295.7035      -351.00616      54575.003     -20320.452      3308.0292     -17012.423      1.0453038    
   1915000   297.38411     -524.68163      54308.625     -20352.637      3326.8302     -17025.807      1.0504309    
   1916000   297.20515      635.3688       54161.349     -20312.976      3324.8281     -16988.148      1.0532872    
   1917000   298.2868      -106.45429      54915.15      -20186.696      3336.9285     -16849.767      1.0388291    
   1918000   299.024        235.74827      53438.917     -20149.118      3345.1756     -16803.942      1.0675264    
   1919000   298.20493      279.16651      53651.958     -20378.909      3336.0126     -17042.896      1.0632875    
   1920000   300.16368     -11.521566      54283.658     -20338.516      3357.9252     -16980.591      1.050914     
   1921000   298.30017     -528.4606       54704.785     -20253.102      3337.0781     -16916.024      1.0428239    
   1922000   297.44246      29.233526      54110.708     -20455.565      3327.4828     -17128.082      1.054273     
   1923000   294.21016     -407.62341      54303.27      -20418.329      3291.3233     -17127.006      1.0505345    
   1924000   304.66742     -46.166978      53984.944     -20387.356      3408.3083     -16979.048      1.056729     
   1925000   304.17323     -978.37835      54155.958     -20250.923      3402.7799     -16848.144      1.0533921    
   1926000   290.8449      -348.09921      53741.675     -20367.69       3253.6762     -17114.014      1.0615125    
   1927000   298.17334     -72.134629      53962.182     -20419.995      3335.6592     -17084.336      1.0571748    
   1928000   301.49901      328.55763      53668.315     -20310.407      3372.8634     -16937.543      1.0629635    
   1929000   305.48185      433.96218      54137.892     -20217.723      3417.4194     -16800.303      1.0537436    
   1930000   310.68904      98.19608       53552.32      -20369.445      3475.6721     -16893.773      1.0652658    
   1931000   303.80872      997.98757      53576.601     -20280.288      3398.7021     -16881.586      1.0647831    
   1932000   304.80415     -745.8687       54388.354     -20323.679      3409.8379     -16913.841      1.0488911    
   1933000   291.4923      -30.736225      53541.052     -20399.495      3260.9186     -17138.576      1.06549      
   1934000   305.75271      193.44305      54039.833     -20316.994      3420.4495     -16896.545      1.0556557    
   1935000   304.8461      -84.869362      53777.714     -20338.213      3410.3072     -16927.906      1.0608011    
   1936000   299.74031      667.99021      53532.203     -20333.763      3353.1889     -16980.574      1.0656662    
   1937000   292.98033      762.85505      53882.015     -20292.519      3277.5652     -17014.953      1.0587477    
   1938000   299.12588      0.56605781     54049.154     -20404.199      3346.3152     -17057.883      1.0554737    
   1939000   297.7039       7.1745398      53740.891     -20246.442      3330.4076     -16916.034      1.061528     
   1940000   304.22163      497.52475      53741.589     -20399.794      3403.3214     -16996.473      1.0615142    
   1941000   303.73225     -279.05465      53587.835     -20324.285      3397.8466     -16926.438      1.0645599    
   1942000   295.78586      244.80515      53965.23      -20311.313      3308.9505     -17002.362      1.0571151    
   1943000   299.08283     -884.70884      53769.324     -20374.819      3345.8337     -17028.986      1.0609666    
   1944000   302.41144      120.13973      53500.63      -20398.623      3383.0708     -17015.552      1.0662951    
   1945000   298.92422      1071.7007      53651.885     -20291.052      3344.0593     -16946.993      1.063289     
   1946000   300.32016     -479.41517      53717.673     -20373.374      3359.6756     -17013.699      1.0619868    
   1947000   298.36265      1166.6952      53389.321     -20451.699      3337.777      -17113.922      1.0685181    
   1948000   300.54536     -578.25405      53952.192     -20373.789      3362.195      -17011.594      1.0573705    
   1949000   298.68861      91.379302      53840.366     -20341.369      3341.4236     -16999.945      1.0595667    
   1950000   304.80132      169.88405      53598.426     -20345.636      3409.8063     -16935.83       1.0643495    
   1951000   294.84188     -681.0287       54099.031     -20279.003      3298.3902     -16980.612      1.0545005    
   1952000   299.57836     -417.73297      54185.445     -20426.34       3351.3771     -17074.963      1.0528189    
   1953000   298.24541     -530.28706      53452.119     -20319.24       3336.4654     -16982.775      1.0672628    
   1954000   302.78874      120.93212      54050.854     -20321.405      3387.2916     -16934.113      1.0554404    
   1955000   303.63712      639.35919      53801.959     -20338.46       3396.7824     -16941.678      1.060323     
   1956000   295.62891     -445.38172      54016.593     -20532.556      3307.1947     -17225.361      1.0561099    
   1957000   303.37344      347.45377      53800.003     -20374.685      3393.8326     -16980.852      1.0603616    
   1958000   293.87249      396.48204      53824.363     -20312.961      3287.5457     -17025.416      1.0598817    
   1959000   295.93853     -4.4330539      53878.057     -20253.113      3310.6584     -16942.454      1.0588254    
   1960000   305.8124       380.5222       53608.098     -20319.728      3421.1173     -16898.611      1.0641575    
   1961000   298.42751      540.58766      53533.06      -20316.442      3338.5026     -16977.939      1.0656491    
   1962000   300.12242      199.90041      54633.336     -20391.327      3357.4636     -17033.863      1.0441877    
   1963000   298.70022     -505.43182      54341.795     -20393.495      3341.5534     -17051.942      1.0497897    
   1964000   303.4649       828.13042      53692.45      -20266.957      3394.8558     -16872.101      1.0624856    
   1965000   304.13665      211.6898       54116.844     -20360.885      3402.3707     -16958.514      1.0541534    
   1966000   306.54693     -84.595272      54837.52      -20290.32       3429.3344     -16860.986      1.0402997    
   1967000   298.13573     -518.27341      54030.151     -20332.568      3335.2384     -16997.33       1.0558449    
   1968000   297.46045     -523.17602      54217.166     -20574.569      3327.6841     -17246.885      1.0522029    
   1969000   296.06633      198.17051      53578.942     -20459.768      3312.0881     -17147.68       1.0647365    
   1970000   298.8345      -997.48351      53902.849     -20215.852      3343.0556     -16872.797      1.0583384    
   1971000   304.79794     -340.43688      53861.103     -20302.845      3409.7685     -16893.077      1.0591587    
   1972000   295.3079      -177.74627      53955.55      -20355.975      3303.6036     -17052.371      1.0573047    
   1973000   307.39191     -50.268817      54330.877     -20448.689      3438.7872     -17009.902      1.0500007    
   1974000   296.11732     -356.26246      54399.254     -20411.521      3312.6586     -17098.862      1.0486809    
   1975000   301.08157     -1058.8399      54159.932     -20452.906      3368.1935     -17084.713      1.0533148    
   1976000   294.56878     -290.73955      54315.399     -20245.648      3295.335      -16950.313      1.0502999    
   1977000   301.58829     -5.5750246      54362.4       -20204.234      3373.8622     -16830.372      1.0493918    
   1978000   303.54709      441.9015       53867.663     -20341.562      3395.7752     -16945.786      1.0590297    
   1979000   309.28654      61.676327      54065.859     -20308.514      3459.9824     -16848.532      1.0551475    
   1980000   298.71133      312.04884      53881.678     -20383.439      3341.6778     -17041.761      1.0587543    
   1981000   297.37851     -365.41029      53959.201     -20393.355      3326.7675     -17066.587      1.0572332    
   1982000   295.96825      1005.7347      53797.343     -20305.327      3310.9909     -16994.336      1.060414     
   1983000   292.92189     -563.70053      53826.309     -20222.747      3276.9114     -16945.836      1.0598434    
   1984000   308.44433     -284.75975      53792.948     -20164.964      3450.5606     -16714.403      1.0605007    
   1985000   303.4927       195.78872      53475.713     -20292.305      3395.1668     -16897.138      1.0667919    
   1986000   298.84027     -653.0312       54123.819     -20298.85       3343.1202     -16955.73       1.0540176    
   1987000   297.30428     -580.11626      54437.488     -20374.892      3325.9371     -17048.955      1.0479443    
   1988000   302.79593      122.70295      53645.693     -20172.66       3387.3721     -16785.288      1.0634117    
   1989000   298.44916     -237.3806       54556.709     -20328.628      3338.7448     -16989.883      1.0456543    
   1990000   304.1568      -832.8649       53829.477     -20430.325      3402.5961     -17027.729      1.059781     
   1991000   303.19512      640.38371      54162.003     -20329.716      3391.8377     -16937.878      1.0532745    
   1992000   304.55187     -201.17242      53620.208     -20379.568      3407.0157     -16972.552      1.0639171    
   1993000   307.05325     -548.99733      53536.74      -20400.152      3434.9986     -16965.153      1.0655759    
   1994000   303.7632      -101.71317      54033.427     -20331.946      3398.1928     -16933.753      1.0557809    
   1995000   301.72618      287.77574      54146.031     -20372.763      3375.4048     -16997.359      1.0535852    
   1996000   296.01472      78.387516      54359.739     -20229.843      3311.5108     -16918.332      1.0494432    
   1997000   305.95508      185.34259      53888.541     -20323.942      3422.7134     -16901.228      1.0586194    
   1998000   300.80521      638.17376      53664.364     -20311.559      3365.1019     -16946.457      1.0630417    
   1999000   293.33169      865.9921       54271.383     -20440.589      3281.4957     -17159.093      1.0511517    
   2000000   303.95751      258.62361      54112.37      -20372.034      3400.3666     -16971.668      1.0542406    
   2001000   298.41953      128.47997      54131.17      -20225.462      3338.4134     -16887.049      1.0538745    
   2002000   300.11596     -155.40141      54349.807     -20285.578      3357.3912     -16928.187      1.049635     
   2003000   297.87321      222.44672      53747.352     -20352.617      3332.3017     -17020.316      1.0614003    
   2004000   298.83517     -291.16955      53749.324     -20293.797      3343.0631     -16950.734      1.0613614    
   2005000   299.70738      182.25298      53513.001     -20234.914      3352.8205     -16882.094      1.0660486    
   2006000   298.73695     -35.270513      53743.032     -20302.189      3341.9643     -16960.224      1.0614857    
   2007000   299.55202     -427.54874      53681.948     -20286.126      3351.0825     -16935.043      1.0626935    
   2008000   302.88146     -102.28091      54120.22      -20369.993      3388.3289     -16981.664      1.0540877    
   2009000   299.52425      408.76908      53580.454     -20349.071      3350.7719     -16998.299      1.0647065    
   2010000   298.96306     -47.841256      53980.88      -20421.546      3344.4938     -17077.053      1.0568086    
   2011000   295.57228      526.09949      53412.365     -20284.466      3306.5612     -16977.905      1.0680571    
   2012000   298.31508     -845.61093      54101.234     -20411.435      3337.2448     -17074.19       1.0544576    
   2013000   295.97094      928.56266      53969.62      -20341.324      3311.021      -17030.303      1.0570291    
   2014000   299.11225     -574.62288      53770.187     -20398.178      3346.1628     -17052.016      1.0609496    
   2015000   293.63092     -42.634492      53298.023     -20368.968      3284.8432     -17084.124      1.0703485    
   2016000   295.2953      -45.985166      53341.017     -20321.599      3303.4626     -17018.136      1.0694857    
   2017000   296.316        35.142924      53323.444     -20294.407      3314.8812     -16979.526      1.0698382    
   2018000   300.34515      178.84269      53840.668     -20325.495      3359.9552     -16965.54       1.0595607    
   2019000   292.39605      164.36653      53662.461     -20325.048      3271.0288     -17054.019      1.0630794    
   2020000   299.78803     -925.51292      54118.369     -20234.299      3353.7227     -16880.576      1.0541237    
   2021000   292.97792      234.19258      53723.728     -20327.61       3277.5381     -17050.072      1.0618671    
   2022000   295.9931      -48.74135       53539.268     -20463.009      3311.269      -17151.74       1.0655255    
   2023000   302.09732     -448.88229      53992.87      -20251.741      3379.5568     -16872.184      1.0565739    
   2024000   295.63542     -292.71087      54061.404     -20301.802      3307.2675     -16994.535      1.0552345    
   2025000   297.81804     -785.62368      54074.374     -20430.137      3331.6845     -17098.452      1.0549814    
   2026000   304.35645      758.57161      53594.127     -20325.205      3404.8295     -16920.375      1.0644349    
   2027000   301.05184      2.74433        54169.337     -20325.148      3367.8609     -16957.287      1.0531319    
   2028000   301.90066      376.29452      53773.154     -20287.976      3377.3567     -16910.619      1.060891     
   2029000   300.547       -651.02479      53769.927     -20444.129      3362.2133     -17081.916      1.0609547    
   2030000   291.29652      555.8158       53944.518     -20183.768      3258.7284     -16925.04       1.0575209    
   2031000   296.92054     -466.5468       54517.658     -20357.628      3321.6442     -17035.984      1.0464033    
   2032000   298.2863      -117.17205      54052.834     -20370.883      3336.9229     -17033.96       1.0554018    
   2033000   295.2113      -291.59421      53555.642     -20285.503      3302.5229     -16982.98       1.0651998    
   2034000   299.12287     -764.00916      53434.923     -20283.209      3346.2816     -16936.927      1.0676062    
   2035000   298.08713     -650.62579      54092.437     -20230.452      3334.6948     -16895.757      1.0546291    
   2036000   299.13486      242.09817      54416.056     -20311.965      3346.4157     -16965.55       1.0483571    
   2037000   298.41886      278.47996      53963.135     -20240.189      3338.4059     -16901.783      1.0571561    
   2038000   299.33377     -325.64454      54057.772     -20303.194      3348.641      -16954.553      1.0553054    
   2039000   302.51563     -889.6106       54173.948     -20219.131      3384.2364     -16834.895      1.0530423    
   2040000   302.14562     -992.64978      54050.366     -20302.607      3380.0971     -16922.509      1.05545      
   2041000   294.943       -653.86809      54320.976     -20307.468      3299.5215     -17007.946      1.0501921    
   2042000   300.9075       780.97875      53775.652     -20323.052      3366.2463     -16956.806      1.0608418    
   2043000   292.31753      313.31391      54257.772     -20248.166      3270.1504     -16978.016      1.0514154    
   2044000   307.71973      174.33843      54328.003     -20191.038      3442.4545     -16748.583      1.0500562    
   2045000   300.93002      979.15543      53769.754     -20404.154      3366.4982     -17037.656      1.0609581    
   2046000   296.66778      39.994128      53455.825     -20400.842      3318.8165     -17082.025      1.0671888    
   2047000   300.0971       405.94821      53400.267     -20261.077      3357.1803     -16903.897      1.0682991    
   2048000   299.69861     -336.39825      53415.817     -20268.4        3352.7224     -16915.678      1.0679881    
   2049000   299.29699     -949.01904      53787.639     -20400.396      3348.2295     -17052.167      1.0606053    
   2050000   297.95415      304.48032      53724.322     -20490.314      3333.2071     -17157.107      1.0618553    
   2051000   300.20017     -449.12515      53863.168     -20403.378      3358.3333     -17045.044      1.0591181    
   2052000   301.18314     -359.96825      53754.738     -20241.575      3369.3298     -16872.245      1.0612545    
   2053000   300.75432      142.60856      54058.592     -20305.264      3364.5327     -16940.731      1.0552894    
   2054000   297.54595      903.50951      53397.205     -20289.175      3328.6406     -16960.535      1.0683604    
   2055000   292.55423     -48.707009      53894.739     -20400.377      3272.7983     -17127.579      1.0584977    
   2056000   307.27569     -31.738741      53768.373     -20366.98       3437.487      -16929.493      1.0609854    
   2057000   300.7773      -295.53991      54428.403     -20291.886      3364.7896     -16927.096      1.0481193    
   2058000   302.21849     -212.13062      53764.487     -20331.874      3380.9122     -16950.962      1.0610621    
   2059000   302.57337      184.43044      53680.936     -20323.907      3384.8822     -16939.025      1.0627135    
   2060000   301.19063     -527.00196      53857.904     -20324.654      3369.4136     -16955.241      1.0592216    
   2061000   300.52991      516.84396      53639.858     -20334.956      3362.0221     -16972.934      1.0635274    
   2062000   297.73849      1104.6695      53566.356     -20335.101      3330.7946     -17004.306      1.0649867    
   2063000   292.81905      199.09765      53721.272     -20316.227      3275.7609     -17040.466      1.0619156    
   2064000   297.18917     -281.00114      54044.084     -20321.436      3324.6494     -16996.787      1.0555727    
   2065000   294.29198     -519.13486      54547.786     -20320.456      3292.2386     -17028.217      1.0458254    
   2066000   296.6347      -597.26904      54132.705     -20300.864      3318.4465     -16982.418      1.0538446    
   2067000   298.50865      1089.166       54236.636     -20331.307      3339.4104     -16991.896      1.0518251    
   2068000   301.1678       573.07464      53796.117     -20323.767      3369.1582     -16954.609      1.0604382    
   2069000   297.52535     -307.53831      54182.961     -20426.11       3328.4102     -17097.7        1.0528671    
   2070000   299.67696      126.27554      54176.977     -20334.145      3352.4802     -16981.664      1.0529834    
   2071000   301.09349     -484.44381      54197.24      -20302.827      3368.3269     -16934.5        1.0525897    
   2072000   290.96916     -241.31291      53792.526     -20310.608      3255.0662     -17055.542      1.060509     
   2073000   298.38298      176.04491      54466.92      -20232.921      3338.0044     -16894.917      1.0473781    
   2074000   293.07809     -476.10265      54004.537     -20327.135      3278.6588     -17048.476      1.0563457    
   2075000   297.28291     -9.9743073      53270.078     -20334.909      3325.698      -17009.211      1.07091      
   2076000   302.08013      495.47762      53945.04      -20271.176      3379.3645     -16891.812      1.0575107    
   2077000   298.10006     -49.347528      53622.076     -20257.4        3334.8395     -16922.56       1.0638801    
   2078000   294.18297      823.47008      53585.003     -20265.042      3291.019      -16974.023      1.0646161    
   2079000   289.64476     -830.55862      53785.615     -20261.676      3240.2501     -17021.426      1.0606453    
   2080000   303.81691     -137.21728      53671.078     -20386.8        3398.7937     -16988.006      1.0629087    
   2081000   295.57136      588.40264      54117.649     -20127.635      3306.5509     -16821.084      1.0541378    
   2082000   304.28926      330.32158      54098.979     -20304.57       3404.078      -16900.492      1.0545016    
   2083000   296.80286      871.53259      53784.023     -20346.716      3320.3277     -17026.388      1.0606767    
   2084000   296.22241     -312.6707       54238.006     -20446.214      3313.8342     -17132.38       1.0517986    
   2085000   298.68113      23.115399      54062.765     -20314.892      3341.3399     -16973.552      1.0552079    
   2086000   302.36553     -172.90745      53714.643     -20357.454      3382.5572     -16974.897      1.0620467    
   2087000   303.92174     -356.8822       53999.976     -20233.325      3399.9665     -16833.358      1.0564349    
   2088000   299.60696     -646.88214      54168.772     -20410.881      3351.6971     -17059.184      1.0531429    
   2089000   300.89231      42.356228      53731.278     -20424.4        3366.0763     -17058.324      1.0617179    
   2090000   298.85657      188.58096      54339.201     -20308.879      3343.3025     -16965.577      1.0498398    
   2091000   297.56284      465.56027      54064.32      -20377.679      3328.8296     -17048.849      1.0551776    
   2092000   296.62817      121.95146      53949.098     -20318.763      3318.3735     -17000.39       1.0574312    
   2093000   304.45125      685.56015      53962.567     -20441.17       3405.8901     -17035.28       1.0571672    
   2094000   298.48127     -621.97279      54343.199     -20334.843      3339.1041     -16995.738      1.0497626    
   2095000   298.11162     -216.74817      54422.714     -20287.357      3334.9688     -16952.389      1.0482288    
   2096000   297.89175      8.1829812      54177.608     -20299.959      3332.5091     -16967.45       1.0529711    
   2097000   300.5585       414.7626       53684.556     -20209.77       3362.3419     -16847.428      1.0626419    
   2098000   295.40665     -526.65332      53522.115     -20363.397      3304.7083     -17058.688      1.065867     
   2099000   300.13273     -85.028187      53528.885     -20285.355      3357.5789     -16927.776      1.0657322    
   2100000   300.29265      373.6751       53883.514     -20235.924      3359.3679     -16876.556      1.0587182    
   2101000   297.43631     -370.26321      53683.117     -20418.742      3327.4141     -17091.327      1.0626704    
   2102000   296.38579     -752.85549      53798.752     -20293.873      3315.662      -16978.211      1.0603863    
   2103000   299.03234      1110.376       54013.973     -20263.125      3345.2689     -16917.857      1.0561611    
   2104000   296.54391      249.3593       54258.546     -20296.047      3317.4309     -16978.616      1.0514004    
   2105000   300.52416     -2.1676541      54102.493     -20320.513      3361.9578     -16958.555      1.0544331    
   2106000   311.38558     -527.27748      54636.946     -20273.542      3483.4643     -16790.078      1.0441187    
   2107000   301.5691      -557.92661      54016.17      -20390.531      3373.6475     -17016.884      1.0561182    
   2108000   304.52339     -190.4334       53976.217     -20351.777      3406.6971     -16945.08       1.0568999    
   2109000   296.01318      116.87663      53884.049     -20485.599      3311.4935     -17174.105      1.0587077    
   2110000   303.70469     -661.24193      54404.143     -20370.17       3397.5383     -16972.632      1.0485866    
   2111000   297.70995     -267.96031      53330.359     -20381.112      3330.4753     -17050.636      1.0696995    
   2112000   295.25885     -695.49528      53732.382     -20332.725      3303.0549     -17029.67       1.061696     
   2113000   297.77629     -91.525108      53596.866     -20424.25       3331.2175     -17093.032      1.0643805    
   2114000   306.58959      187.03402      54146.935     -20336.694      3429.8116     -16906.882      1.0535676    
   2115000   298.1815      -669.67661      53696.334     -20258.126      3335.7505     -16922.376      1.0624088    
   2116000   300.47639      795.17473      54082.455     -20285.864      3361.4234     -16924.44       1.0548237    
   2117000   308.88866      152.49712      53954.678     -20350.533      3455.5313     -16895.002      1.0573218    
   2118000   299.83124     -460.05637      53517.811     -20343.701      3354.2061     -16989.495      1.0659528    
   2119000   301.23538     -136.60002      53715.064     -20353.219      3369.9142     -16983.305      1.0620383    
   2120000   300.91266      758.17979      53861.928     -20375.343      3366.3039     -17009.039      1.0591425    
   2121000   300.97586      80.629379      54164.005     -20262.515      3367.011      -16895.504      1.0532356    
   2122000   297.53879      751.65078      53265.743     -20300.401      3328.5605     -16971.841      1.0709971    
   2123000   294.9643       122.41367      53587.81      -20457.858      3299.7597     -17158.098      1.0645604    
   2124000   312.2451       120.12645      53801.818     -20262.05       3493.0797     -16768.97       1.0603258    
   2125000   298.39213     -404.49868      54097.032     -20245.305      3338.1068     -16907.198      1.0545395    
   2126000   306.12744      739.86809      53661.147     -20345.664      3424.6415     -16921.022      1.0631054    
   2127000   301.1625      -1011.2571      53892.857     -20413.435      3369.0989     -17044.336      1.0585347    
   2128000   303.24928     -17.010337      54245.566     -20152.918      3392.4436     -16760.475      1.051652     
   2129000   295.82996     -440.05388      53925.124     -20196.24       3309.4438     -16886.796      1.0579013    
   2130000   303.83396     -353.70285      54038.636     -20285.214      3398.9845     -16886.23       1.0556791    
   2131000   299.22882     -750.14763      53865.66      -20256.487      3347.4668     -16909.02       1.0590691    
   2132000   298.62635     -596.6946       53875.333     -20365.871      3340.7271     -17025.144      1.058879     
   2133000   307.31007      389.19379      53715.541     -20381.492      3437.8716     -16943.62       1.0620289    
   2134000   302.35932     -293.08789      54115.132     -20288.383      3382.4877     -16905.895      1.0541868    
   2135000   294.802       -687.73371      53620.32      -20402.597      3297.9441     -17104.653      1.0639149    
   2136000   296.2674      -127.86154      53309.362     -20267.109      3314.3375     -16952.772      1.0701208    
   2137000   291.9113      -760.50563      54384.244     -20255.337      3265.6059     -16989.731      1.0489703    
   2138000   293.69617     -451.56853      53924.767     -20279.613      3285.5732     -16994.04       1.0579083    
   2139000   300.60676      273.39974      54281.055     -20376.694      3362.8819     -17013.812      1.0509644    
   2140000   297.20398      150.83238      53922.788     -20385.102      3324.815      -17060.287      1.0579471    
   2141000   305.75801      829.39088      53967.7       -20267.491      3420.5088     -16846.982      1.0570667    
   2142000   299.35193      216.38597      53851.84      -20165.667      3348.8441     -16816.823      1.0593409    
   2143000   300.88927     -418.59963      53622.8       -20367.517      3366.0422     -17001.475      1.0638657    
   2144000   299.23365      155.84277      54122.412     -20357.278      3347.5209     -17009.757      1.054045     
   2145000   305.60612      695.64644      53858.184     -20317.584      3418.8095     -16898.774      1.0592161    
   2146000   297.17726     -23.005534      54026.189     -20317.174      3324.5161     -16992.658      1.0559223    
   2147000   300.70441      45.979828      53892.843     -20413.478      3363.9742     -17049.503      1.058535     
   2148000   301.01337      897.05618      53899.939     -20340.246      3367.4305     -16972.815      1.0583956    
   2149000   300.25083     -237.15523      53776.515     -20332.831      3358.9001     -16973.931      1.0608247    
   2150000   301.05437      604.14669      54245.75      -20281.427      3367.8892     -16913.538      1.0516484    
   2151000   297.14018      518.56627      54099.685     -20279.564      3324.1012     -16955.463      1.0544878    
   2152000   295.48785      104.99953      53995.653     -20326.098      3305.6167     -17020.481      1.0565195    
   2153000   301.52103      479.20374      54534.506     -20281.132      3373.1098     -16908.022      1.04608      
   2154000   299.14583     -137.48817      53963.895     -20309.102      3346.5385     -16962.564      1.0571412    
   2155000   298.9597      -519.57781      54185.239     -20271.278      3344.4563     -16926.821      1.0528228    
   2156000   296.31537     -355.13042      53777.559     -20301.948      3314.8742     -16987.074      1.0608042    
   2157000   292.29031     -8.3970384      53555.905     -20334.657      3269.8459     -17064.811      1.0651945    
   2158000   303.36284      220.0792       53497.789     -20237.888      3393.7141     -16844.174      1.0663517    
   2159000   298.0908      -436.85001      53497.073     -20326.576      3334.7358     -16991.84       1.066366     
   2160000   298.17783      9.154228       53952.95      -20230.217      3335.7095     -16894.507      1.0573557    
   2161000   303.4378       398.8558       53926.007     -20249.389      3394.5527     -16854.837      1.057884     
   2162000   301.63258     -660.24962      53658.262     -20399.895      3374.3576     -17025.538      1.0631626    
   2163000   299.22622      503.15694      53578.684     -20400.329      3347.4377     -17052.891      1.0647417    
   2164000   295.28598     -171.44646      53885.549     -20397.757      3303.3584     -17094.398      1.0586782    
   2165000   296.48808     -1132.9858      54050.165     -20439.349      3316.8063     -17122.543      1.0554539    
   2166000   294.0066       172.91348      54140.7       -20371.614      3289.046      -17082.568      1.053689     
   2167000   300.08983     -1171.8144      54081.447     -20283.102      3357.099      -16926.003      1.0548434    
   2168000   288.6302      -445.11508      53592.984     -20438.081      3228.9003     -17209.18       1.0644576    
   2169000   309.55071     -130.39728      53941.336     -20300.299      3462.9376     -16837.362      1.0575833    
   2170000   298.10071     -634.5463       54083.671     -20089.515      3334.8467     -16754.668      1.0548       
   2171000   298.56539      896.10734      53511.974     -20145.254      3340.0451     -16805.209      1.066069     
   2172000   305.98533     -468.29701      53808.675     -20245.054      3423.0519     -16822.003      1.0601907    
   2173000   295.40019     -37.351609      53487.503     -20229.492      3304.6361     -16924.856      1.0665568    
   2174000   292.55247     -562.88057      53958.148     -20330.155      3272.7786     -17057.377      1.0572538    
   2175000   294.79351      144.42666      54382.731     -20340.191      3297.8492     -17042.342      1.0489995    
   2176000   303.91776      164.1323       54241.715     -20373.418      3399.9219     -16973.496      1.0517266    
   2177000   302.43618      675.44859      53999.58      -20371.18       3383.3476     -16987.832      1.0564426    
   2178000   298.85438     -54.610366      54091.382     -20279.774      3343.278      -16936.496      1.0546497    
   2179000   300.18981     -18.592945      53904.932     -20323.347      3358.2175     -16965.129      1.0582976    
   2180000   302.35705     -382.49846      53640.512     -20255.016      3382.4624     -16872.554      1.0635144    
   2181000   297.3824       597.84919      53604.359     -20406.553      3326.811      -17079.742      1.0642317    
   2182000   292.11501      38.407964      53362.784     -20334.57       3267.8849     -17066.685      1.0690495    
   2183000   294.10291     -129.68178      54169.475     -20399.525      3290.1234     -17109.402      1.0531292    
   2184000   294.77225      271.46743      53922.669     -20348.994      3297.6113     -17051.383      1.0579494    
   2185000   300.9155       254.66426      53719.183     -20244.412      3366.3358     -16878.076      1.0619569    
   2186000   296.95387     -40.134179      53854.404     -20369.714      3322.0171     -17047.697      1.0592905    
   2187000   296.94577      344.46136      53649.541     -20307.564      3321.9265     -16985.637      1.0633354    
   2188000   299.46423     -365.88897      53685.617     -20330.598      3350.1004     -16980.498      1.0626209    
   2189000   301.90475      121.98204      53583.92      -20454.056      3377.4024     -17076.654      1.0646376    
   2190000   296.37412      578.44768      53649.449     -20360.062      3315.5314     -17044.531      1.0633373    
   2191000   299.25222     -41.971796      53987.049     -20239.029      3347.7286     -16891.3        1.0566878    
   2192000   307.46886     -24.733641      53954.002     -20411.315      3439.648      -16971.667      1.057335     
   2193000   300.17034     -40.542009      53773.971     -20383.687      3357.9996     -17025.687      1.0608749    
   2194000   299.38431      280.86423      53853.663     -20323.827      3349.2064     -16974.621      1.0593051    
   2195000   300.78872     -437.66195      54615.659     -20270.701      3364.9174     -16905.784      1.0445257    
   2196000   301.13922     -382.13795      54774.394     -20338.036      3368.8385     -16969.197      1.0414987    
   2197000   302.47746      791.74131      54007.673     -20322.049      3383.8093     -16938.239      1.0562843    
   2198000   296.48992     -314.92749      53541.694     -20298.852      3316.8269     -16982.025      1.0654773    
   2199000   303.06213      915.03987      53956.261     -20420.709      3390.35       -17030.359      1.0572908    
   2200000   301.30705     -233.39522      53948.062     -20359.442      3370.716      -16988.726      1.0574515    
   2201000   309.19132     -624.33522      53974.323     -20371.449      3458.9172     -16912.532      1.056937     
   2202000   296.18447      337.11972      53624.377     -20362.889      3313.4098     -17049.479      1.0638344    
   2203000   299.21591      634.63032      53648.65      -20454.722      3347.3224     -17107.399      1.0633531    
   2204000   300.38915      546.70639      53658.877     -20439.543      3360.4475     -17079.096      1.0631504    
   2205000   295.82888     -669.85634      54317.478     -20234.938      3309.4318     -16925.506      1.0502597    
   2206000   296.29759     -277.24397      53580.093     -20347.448      3314.6752     -17032.773      1.0647137    
   2207000   294.50652     -171.97781      53355.712     -20286.324      3294.6386     -16991.686      1.0691912    
   2208000   295.78297      82.169816      53171.787     -20356.001      3308.9182     -17047.083      1.0728896    
   2209000   300.93483     -34.293942      53923.587     -20253.141      3366.552      -16886.589      1.0579314    
   2210000   298.23027      11.792453      54002.086     -20360.508      3336.2961     -17024.212      1.0563936    
   2211000   298.78595      695.5019       53844.819     -20334.109      3342.5125     -16991.596      1.059479     
   2212000   302.21921      445.00164      53004.79      -20316.973      3380.9203     -16936.053      1.0762699    
   2213000   297.78091      445.90814      54027.22      -20265.893      3331.2692     -16934.624      1.0559021    
   2214000   302.36804      242.88957      53915.737     -20304.073      3382.5852     -16921.487      1.0580855    
   2215000   301.89957     -232.77764      54172.259     -20311.832      3377.3445     -16934.487      1.0530751    
   2216000   300.50043     -740.59312      53984.843     -20319.523      3361.6924     -16957.831      1.056731     
   2217000   299.6668      -169.95756      54383.547     -20363.235      3352.3665     -17010.869      1.0489838    
   2218000   297.32092     -551.30107      54139.553     -20408.063      3326.1233     -17081.94       1.0537113    
   2219000   297.47679      277.43052      53870.187     -20329.625      3327.867      -17001.758      1.0589801    
   2220000   301.19113     -187.51896      53831.292     -20352.27       3369.4191     -16982.851      1.0597453    
   2221000   301.21854      521.11033      53817.277     -20481.272      3369.7258     -17111.546      1.0600213    
   2222000   303.02003     -16.078247      53702.77      -20450.592      3389.8791     -17060.713      1.0622815    
   2223000   302.36605     -220.33651      53530.752     -20298.616      3382.5629     -16916.054      1.065695     
   2224000   301.39133      370.89108      53832.103     -20379.17       3371.6588     -17007.511      1.0597293    
   2225000   297.58163     -14.266386      54003.16      -20322.198      3329.0398     -16993.159      1.0563726    
   2226000   304.46969      258.4347       54260.106     -20300.067      3406.0963     -16893.971      1.0513702    
   2227000   298.94902     -176.16246      53904.792     -20258.612      3344.3367     -16914.276      1.0583003    
   2228000   301.70895     -925.1626       53881.558     -20270.714      3375.2121     -16895.502      1.0587566    
   2229000   299.36627     -684.30004      54037.839     -20361.888      3349.0045     -17012.884      1.0556946    
   2230000   302.3841      -315.41446      54308.506     -20241.143      3382.7649     -16858.378      1.0504332    
   2231000   300.0851       1724.2183      54054.75      -20246.247      3357.0461     -16889.201      1.0553644    
   2232000   300.48735      146.20557      54345.642     -20296.76       3361.546      -16935.214      1.0497154    
   2233000   299.56851      19.168478      54101.479     -20244.499      3351.267      -16893.232      1.0544528    
   2234000   293.10911      901.09819      53284.483     -20416.367      3279.0058     -17137.361      1.0706205    
   2235000   300.72326      132.7025       54086.322     -20219.774      3364.1851     -16855.589      1.0547483    
   2236000   295.22701      103.78997      53754.874     -20307.447      3302.6987     -17004.749      1.0612518    
   2237000   303.07294      436.79875      53346.564     -20300.072      3390.471      -16909.601      1.0693745    
   2238000   299.91931     -726.91703      53285.742     -20243.558      3355.1914     -16888.367      1.0705952    
   2239000   302.56551     -256.47163      53404.656     -20339.382      3384.7943     -16954.588      1.0682113    
   2240000   295.42031      563.05113      53949.859     -20215.555      3304.8611     -16910.694      1.0574162    
   2241000   300.93014      641.04545      53694.153     -20345.551      3366.4995     -16979.051      1.0624519    
   2242000   302.48946      920.57716      53925.239     -20285.181      3383.9436     -16901.237      1.057899     
   2243000   303.55931     -225.54823      54378.02      -20321.722      3395.912      -16925.81       1.0490904    
   2244000   301.93034     -171.27279      53641.471     -20280.714      3377.6887     -16903.025      1.0634954    
   2245000   296.44978     -540.87714      53836.116     -20303.517      3316.3778     -16987.139      1.0596503    
   2246000   292.02382     -455.88336      53654.983     -20312.16       3266.8646     -17045.295      1.0632276    
   2247000   299.94437      474.22909      53208.993     -20376.357      3355.4717     -17020.885      1.0721394    
   2248000   303.60152     -331.25135      53745.387     -20310.215      3396.3841     -16913.831      1.0614391    
   2249000   299.74227     -752.7709       53973.402     -20412.296      3353.2108     -17059.085      1.056955     
   2250000   298.42819      642.8508       53313.523     -20462.644      3338.5102     -17124.133      1.0700373    
   2251000   297.91529      497.12943      53615.108     -20393.316      3332.7724     -17060.543      1.0640183    
   2252000   300.70532     -932.91181      54184.132     -20283.646      3363.9844     -16919.662      1.0528443    
   2253000   296.03286     -855.87405      54572.685     -20285.271      3311.7137     -16973.557      1.0453482    
   2254000   302.59863     -21.805787      54001.491     -20355.24       3385.1648     -16970.075      1.0564052    
   2255000   296.43484      497.66336      53813.666     -20289.764      3316.2107     -16973.553      1.0600924    
   2256000   301.00573     -140.89792      54055.958     -20291.779      3367.3451     -16924.434      1.0553408    
   2257000   301.45832      218.11788      53562.197     -20308.671      3372.4083     -16936.263      1.0650694    
   2258000   307.78121      203.6968       52939.855     -20301.125      3443.1422     -16857.983      1.07759      
   2259000   307.75815      323.24786      53908.076     -20226.534      3442.8843     -16783.649      1.0582358    
   2260000   299.25968      289.94501      53606.856     -20255.857      3347.812      -16908.045      1.0641821    
   2261000   303.01677      277.82362      53884.655     -20328.177      3389.8426     -16938.334      1.0586958    
   2262000   298.00453      100.32403      53687.373     -20336.298      3333.7708     -17002.527      1.0625861    
   2263000   298.45092     -367.88125      54150.502     -20478.657      3338.7645     -17139.893      1.0534982    
   2264000   300.98502      51.973175      54001.842     -20405.14       3367.1134     -17038.027      1.0563984    
   2265000   298.28728     -26.487322      54027.362     -20175.374      3336.9339     -16838.441      1.0558994    
   2266000   290.68262     -512.05534      54223.931     -20237.925      3251.8607     -16986.065      1.0520716    
   2267000   295.00598     -391.43802      53591.945     -20357.602      3300.226      -17057.376      1.0644782    
   2268000   304.98814      115.09631      53738.934     -20347.662      3411.8962     -16935.766      1.0615666    
   2269000   296.85605      323.9237       53865.103     -20215.635      3320.9228     -16894.712      1.0590801    
   2270000   302.38725      185.30225      53515.741     -20300.941      3382.8002     -16918.14       1.065994     
   2271000   293.2075       108.33485      53652.24      -20361.344      3280.1064     -17081.237      1.0632819    
   2272000   303.80075     -723.9149       53836.604     -20334.156      3398.613      -16935.543      1.0596407    
   2273000   297.00432      282.17356      54081.486     -20306.396      3322.5814     -16983.815      1.0548426    
   2274000   296.52977     -611.14178      54689.399     -20403.589      3317.2726     -17086.316      1.0431173    
   2275000   291.82742     -478.49361      54509.839     -20379.505      3264.6675     -17114.838      1.0465534    
   2276000   301.93787      231.3253       54035.13      -20385.444      3377.773      -17007.671      1.0557476    
   2277000   298.30079     -430.65978      53692.778     -20290.294      3337.085      -16953.209      1.0624792    
   2278000   309.35986     -269.07671      53848.454     -20378.824      3460.8026     -16918.022      1.0594075    
   2279000   304.23723      420.29684      53714.212     -20343.617      3403.4959     -16940.121      1.0620552    
   2280000   302.8224      -1174.8744      54235.444     -20366.312      3387.6682     -16978.644      1.0518483    
   2281000   300.31628      39.261109      54092.499     -20365.228      3359.6322     -17005.596      1.0546279    
   2282000   303.84584      310.84948      53597.519     -20224.028      3399.1174     -16824.91       1.0643675    
   2283000   302.12925      305.14009      53481.797     -20361.487      3379.9139     -16981.573      1.0666706    
   2284000   295.2021       579.81663      53414.84      -20359.448      3302.42       -17057.028      1.0680076    
   2285000   302.65413      552.91845      53690.987     -20195.384      3385.7857     -16809.599      1.0625146    
   2286000   296.89765     -466.18308      54338.948     -20305.305      3321.3881     -16983.917      1.0498447    
   2287000   299.20982      894.30177      53684.449     -20417.958      3347.2543     -17070.704      1.062644     
   2288000   298.37262     -806.98616      53971.647     -20379.472      3337.8886     -17041.583      1.0569894    
   2289000   308.20871      528.49449      53879.563     -20518.584      3447.9248     -17070.66       1.0587959    
   2290000   311.04425     -323.16743      54139.622     -20356.376      3479.6459     -16876.73       1.0537099    
   2291000   306.6528      -149.27776      54545.636     -20233.917      3430.5187     -16803.398      1.0458666    
   2292000   294.53939      209.54542      54227.335     -20306.678      3295.0063     -17011.672      1.0520056    
   2293000   296.67432     -435.53587      53841.946     -20452.566      3318.8897     -17133.677      1.0595356    
   2294000   301.78293      16.082822      53978.412     -20312.147      3376.0396     -16936.107      1.0568569    
   2295000   299.68002      1041.5298      53678.323     -20373.856      3352.5144     -17021.342      1.0627653    
   2296000   309.92605      0.29076533     54161.821     -20344.13       3467.1365     -16876.994      1.0532781    
   2297000   297.54843      199.38623      53819.815     -20394.724      3328.6684     -17066.055      1.0599713    
   2298000   304.63337      896.17175      53858.732     -20442.733      3407.9275     -17034.805      1.0592054    
   2299000   299.58323     -25.38077       54377.856     -20377.62       3351.4316     -17026.188      1.0490935    
   2300000   302.19738     -808.2143       54340.157     -20352.333      3380.6761     -16971.657      1.0498214    
   2301000   300.14509      1342.964       53749.718     -20467.235      3357.7172     -17109.518      1.0613536    
   2302000   305.03508     -463.5036       53758.684     -20429.096      3412.4213     -17016.674      1.0611766    
   2303000   302.01978      194.75336      53288.471     -20393.967      3378.6892     -17015.278      1.0705403    
   2304000   297.32784     -100.89865      54048.687     -20345.508      3326.2006     -17019.307      1.0554828    
   2305000   305.06561     -635.83752      53497.759     -20362.287      3412.7629     -16949.524      1.0663523    
   2306000   294.14823      868.22766      54336.132     -20299.013      3290.6304     -17008.382      1.0498991    
   2307000   291.98879      58.56381       54180.17      -20287.5        3266.4728     -17021.028      1.0529214    
   2308000   297.94633      185.60595      53444.651     -20304.586      3333.1197     -16971.466      1.0674119    
   2309000   299.33804     -626.10225      53901.638     -20491.07       3348.6887     -17142.381      1.0583622    
   2310000   296.90985      321.86188      54125.346     -20489.876      3321.5246     -17168.351      1.0539879    
   2311000   298.82919      1065.7599      53544.743     -20408.456      3342.9962     -17065.459      1.0654166    
   2312000   303.21553      1015.0519      54054.395     -20283.622      3392.0661     -16891.556      1.0553713    
   2313000   297.08372     -106.44518      54438.98      -20295.399      3323.4697     -16971.929      1.0479156    
   2314000   297.87409     -135.24023      54437.784     -20286.583      3332.3115     -16954.271      1.0479386    
   2315000   297.28692      76.1981        53886.678     -20344.246      3325.7429     -17018.503      1.058656     
   2316000   292.79709      142.10287      53895.733     -20348.356      3275.5153     -17072.841      1.0584782    
   2317000   308.35973      744.13451      53663.155     -20436.094      3449.6142     -16986.48       1.0630657    
   2318000   296.70226      243.87354      53410.841     -20379.31       3319.2022     -17060.108      1.0680876    
   2319000   306.6538      -29.940616      53525.072     -20420.072      3430.53       -16989.542      1.0658082    
   2320000   303.11775      585.01719      54084.924     -20363.137      3390.9723     -16972.165      1.0547756    
   2321000   297.63929     -485.3753       54066.417     -20413.775      3329.6848     -17084.09       1.0551366    
   2322000   306.87969      483.95852      54136.86      -20302.686      3433.057      -16869.629      1.0537637    
   2323000   299.04624     -741.14356      54283.537     -20346.225      3345.4243     -17000.801      1.0509164    
   2324000   301.88949     -222.42122      53788.191     -20341.812      3377.2317     -16964.581      1.0605945    
   2325000   302.6703      -505.73498      54032.681     -20390.042      3385.9666     -17004.075      1.0557954    
   2326000   300.41429     -25.838844      54231.781     -20268.543      3360.7287     -16907.814      1.0519193    
   2327000   301.25426      111.77304      53584.289     -20364.586      3370.1255     -16994.461      1.0646303    
   2328000   301.95283     -9.5876559      53273.364     -20341.771      3377.9403     -16963.831      1.0708439    
   2329000   304.8126      -902.16545      53808.079     -20339.773      3409.9325     -16929.84       1.0602025    
   2330000   296.53024      344.07267      54061.707     -20300.087      3317.2779     -16982.809      1.0552286    
   2331000   297.29366     -319.18715      54315.098     -20456.066      3325.8183     -17130.248      1.0503057    
   2332000   293.87834     -529.71717      54238.543     -20362.374      3287.6112     -17074.763      1.0517882    
   2333000   303.58084      489.05752      54045.783     -20260.912      3396.1528     -16864.759      1.0555395    
   2334000   295.77647      296.68085      54424.504     -20436.17       3308.8454     -17127.325      1.0481944    
   2335000   297.21464      1164.5043      53969.883     -20398.721      3324.9343     -17073.786      1.0570239    
   2336000   304.39301     -271.02108      54010.609     -20374.081      3405.2385     -16968.843      1.0562269    
   2337000   301.75693     -710.3973       53965.308     -20215.511      3375.7488     -16839.763      1.0571135    
   2338000   298.78509      490.52836      53493.08      -20327.507      3342.5028     -16985.004      1.0664456    
   2339000   293.86002     -263.70465      54185.186     -20240.533      3287.4062     -16953.126      1.0528239    
   2340000   301.10026      251.00053      53489.321     -20299.868      3368.4027     -16931.465      1.0665205    
   2341000   302.20093     -648.12675      53552.116     -20355.912      3380.7158     -16975.196      1.0652699    
   2342000   295.38199      984.09565      53647.616     -20371.339      3304.4325     -17066.906      1.0633736    
   2343000   298.18388     -516.20553      54246.438     -20340.336      3335.7771     -17004.559      1.0516351    
   2344000   297.7275      -453.75332      54459.368     -20349.22       3330.6716     -17018.548      1.0475233    
   2345000   303.51464      58.10439       53676.876     -20318.245      3395.4122     -16922.833      1.0627939    
   2346000   297.81399     -478.8268       53834.314     -20331.184      3331.6392     -16999.545      1.0596858    
   2347000   294.88283      335.79605      53677.101     -20275.743      3298.8483     -16976.895      1.0627895    
   2348000   301.42158      547.96594      54195.938     -20413.083      3371.9972     -17041.086      1.052615     
   2349000   300.11057      620.98524      54409.918     -20324.999      3357.3309     -16967.668      1.0484754    
   2350000   298.5691       448.76828      53416.596     -20377.66       3340.0866     -17037.573      1.0679725    
   2351000   303.40372      8.1693792      53484.721     -20359.066      3394.1714     -16964.894      1.0666122    
   2352000   299.48345     -82.590847      53412.555     -20287.404      3350.3154     -16937.088      1.0680533    
   2353000   299.29432      638.02646      53603.161     -20367.601      3348.1996     -17019.402      1.0642555    
   2354000   303.01361     -140.30102      54430.326     -20234.494      3389.8073     -16844.687      1.0480822    
   2355000   304.59147      73.55424       54200.661     -20421.019      3407.4587     -17013.56       1.0525233    
   2356000   299.19291     -288.44318      53813.753     -20360.503      3347.0652     -17013.438      1.0600907    
   2357000   302.45926      100.10045      53982.652     -20237.826      3383.6057     -16854.22       1.0567739    
   2358000   299.36507     -995.23625      53901.011     -20313.309      3348.9911     -16964.318      1.0583745    
   2359000   292.89027      1130.1051      54058.899     -20348.955      3276.5577     -17072.398      1.0552834    
   2360000   305.05902     -481.06055      54062.9       -20370.385      3412.6892     -16957.696      1.0552053    
   2361000   305.91047     -431.71084      54104.536     -20284.196      3422.2143     -16861.982      1.0543933    
   2362000   300.39849     -1721.7146      54339.49      -20350.106      3360.552      -16989.554      1.0498342    
   2363000   304.03756      574.83992      53203.713     -20315.542      3401.2621     -16914.28       1.0722458    
   2364000   293.8877       510.29126      52935.727     -20359.472      3287.7158     -17071.756      1.077674     
   2365000   298.14665     -629.37987      53496.269     -20389.625      3335.3606     -17054.265      1.066382     
   2366000   296.76051      22.125868      53503.137     -20245.298      3319.8539     -16925.444      1.0662451    
   2367000   298.9805       293.949        53752.189     -20299.974      3344.6889     -16955.285      1.0613048    
   2368000   309.14952      27.555845      53269.34      -20311.63       3458.4495     -16853.181      1.0709248    
   2369000   306.11176     -225.04302      53963.179     -20265.295      3424.4661     -16840.829      1.0571552    
   2370000   296.08862     -516.17179      54321.871     -20414.19       3312.3376     -17101.853      1.0501748    
   2371000   298.06629      395.25084      53923.913     -20393.229      3334.4617     -17058.767      1.057925     
   2372000   294.33003      187.89058      54552.392     -20277.121      3292.6642     -16984.456      1.0457371    
   2373000   306.17174      654.98316      53801.339     -20313.081      3425.1372     -16887.944      1.0603353    
   2374000   299.19598     -381.2574       54416.215     -20330.658      3347.0995     -16983.558      1.048354     
   2375000   300.45107      200.85736      53993.836     -20351.175      3361.1401     -16990.034      1.056555     
   2376000   304.39524     -3.3009667      53639.099     -20428.56       3405.2635     -17023.296      1.0635424    
   2377000   293.61227     -613.23488      54086.45      -20229.253      3284.6346     -16944.618      1.0547458    
   2378000   304.03328     -1004.9587      53924.715     -20321.655      3401.2143     -16920.441      1.0579093    
   2379000   304.74517     -131.31878      53654.761     -20358.881      3409.1782     -16949.703      1.063232     
   2380000   292.40671      112.5597       53381.422     -20353.796      3271.148      -17082.648      1.0686762    
   2381000   303.59382     -664.83949      54060.163     -20307.559      3396.298      -16911.261      1.0552587    
   2382000   303.81377      476.48067      54342.14      -20345.385      3398.7586     -16946.626      1.0497831    
   2383000   298.10764     -77.965592      54266.759     -20271.446      3334.9242     -16936.521      1.0512413    
   2384000   297.39123     -85.678179      54066.235     -20370.786      3326.9097     -17043.876      1.0551402    
   2385000   306.75868      410.7987       54037.182     -20285.02       3431.7032     -16853.316      1.0557075    
   2386000   305.42833     -93.468641      54217.208     -20214.881      3416.8207     -16798.06       1.0522021    
   2387000   301.67403     -154.65289      54024.417     -20316.458      3374.8214     -16941.637      1.0559569    
   2388000   304.28758      121.81848      53904.818     -20209.88       3404.0591     -16805.821      1.0582998    
   2389000   307.14854     -271.58594      53999.702     -20408.991      3436.0646     -16972.926      1.0564402    
   2390000   292.1548       1144.0479      53707.883     -20246.764      3268.33       -16978.434      1.0621804    
   2391000   302.75943      580.48437      53907.068     -20259.689      3386.9638     -16872.725      1.0582556    
   2392000   312.03277     -244.20863      54321.578     -20258.2        3490.7044     -16767.496      1.0501804    
   2393000   299.03084      451.25394      53984.124     -20166.035      3345.2521     -16820.782      1.0567451    
   2394000   302.35795     -530.07696      55122.425     -20325.298      3382.4724     -16942.826      1.0349229    
   2395000   301.32073     -941.46432      54025.677     -20390.659      3370.8691     -17019.79       1.0559323    
   2396000   303.25611     -141.09069      54552.966     -20233.586      3392.52       -16841.066      1.045726     
   2397000   299.19033     -356.82681      54630.274     -20410.194      3347.0362     -17063.158      1.0442462    
   2398000   298.77476      214.89837      54051.352     -20340.338      3342.3873     -16997.951      1.0554307    
   2399000   295.0204       601.52015      54255.121     -20271.815      3300.3873     -16971.428      1.0514668    
   2400000   300.1613      -871.43263      54836.701     -20332.944      3357.8985     -16975.046      1.0403153    
   2401000   300.11147      111.53722      54013.271     -20247.439      3357.341      -16890.098      1.0561748    
   2402000   298.64577     -151.4611       53706.103     -20273.361      3340.9443     -16932.416      1.0622155    
   2403000   302.64084      289.86255      53775.776     -20325.442      3385.637      -16939.805      1.0608393    
   2404000   296.95496      196.72524      53825.402     -20344.616      3322.0292     -17022.587      1.0598613    
   2405000   302.32966      236.02938      53840.032     -20391.057      3382.1559     -17008.901      1.0595732    
   2406000   300.78795      823.59348      53913.778     -20322.342      3364.9088     -16957.433      1.0581239    
   2407000   292.96346      30.093044      54196.14      -20429.978      3277.3764     -17152.602      1.0526111    
   2408000   296.86983     -146.89781      54049.279     -20293.507      3321.0769     -16972.43       1.0554712    
   2409000   298.21509      142.23888      53929.554     -20400.84       3336.1262     -17064.714      1.0578144    
   2410000   296.49265     -6.6264953      53887.192     -20435.475      3316.8574     -17118.617      1.0586459    
   2411000   303.89626      362.519        53267.27      -20361.505      3399.6814     -16961.824      1.0709664    
   2412000   305.35875      408.61229      54112.438     -20465.388      3416.0423     -17049.346      1.0542393    
   2413000   305.61878     -354.64365      54494.957     -20451.228      3418.9513     -17032.276      1.0468392    
   2414000   300.02557     -231.11497      54400.146     -20224.194      3356.3801     -16867.813      1.0486637    
   2415000   301.46722      209.59478      54037.332     -20249.92       3372.5078     -16877.412      1.0557046    
   2416000   294.05243      828.38608      54100.961     -20283.166      3289.5587     -16993.607      1.0544629    
   2417000   303.04321      129.27066      54078.482     -20381.824      3390.1384     -16991.686      1.0549012    
   2418000   297.74274      760.58382      53726.434     -20431.311      3330.8421     -17100.469      1.0618136    
   2419000   303.57786      263.69187      54185.769     -20356.251      3396.1195     -16960.131      1.0528125    
   2420000   308.0335      -394.60674      54100.489     -20328.683      3445.9647     -16882.718      1.0544721    
   2421000   298.97755     -459.90922      53419.986     -20312.51       3344.6559     -16967.855      1.0679048    
   2422000   300.35554     -384.66926      54306.706     -20278.857      3360.0714     -16918.786      1.050468     
   2423000   298.78173      921.61943      53621.771     -20455.673      3342.4653     -17113.208      1.0638861    
   2424000   298.01722     -464.89548      53852.392     -20278.471      3333.9127     -16944.558      1.0593301    
   2425000   305.69287      655.82823      53599.725     -20219.713      3419.7801     -16799.933      1.0643237    
   2426000   296.34904      343.2564       53853.697     -20341.669      3315.2508     -17026.418      1.0593044    
   2427000   297.35314     -268.30462      53821.686     -20426.49       3326.4837     -17100.006      1.0599344    
   2428000   302.54655      410.01327      53987.742     -20298.204      3384.5822     -16913.622      1.0566743    
   2429000   290.67248      26.848712      53956.177     -20404.254      3251.7472     -17152.507      1.0572924    
   2430000   299.38763     -764.30094      53813.619     -20294.866      3349.2434     -16945.622      1.0600933    
   2431000   299.37067      1442.0665      53621.119     -20328.955      3349.0538     -16979.901      1.0638991    
   2432000   303.7637       116.44975      53721.174     -20282.639      3398.1985     -16884.441      1.0619176    
   2433000   296.52806      72.373882      54018.955     -20294.083      3317.2536     -16976.829      1.0560637    
   2434000   305.66649      370.80881      53990.001     -20313.728      3419.485      -16894.243      1.0566301    
   2435000   300.55962      152.6054       53519.433     -20399.506      3362.3545     -17037.152      1.0659204    
   2436000   296.57777      13.853827      53576.699     -20368.262      3317.8096     -17050.452      1.0647811    
   2437000   298.18414     -309.94848      54279.229     -20377.091      3335.7801     -17041.311      1.0509998    
   2438000   300.13915     -310.33778      53867.117     -20389.002      3357.6507     -17031.351      1.0590405    
   2439000   309.74373     -697.43571      53554.786     -20523.059      3465.097      -17057.962      1.0652168    
   2440000   300.31757     -680.83676      54292.139     -20248.786      3359.6466     -16889.14       1.0507499    
   2441000   299.63261      18.185187      53688.3       -20360.742      3351.9841     -17008.758      1.0625678    
   2442000   302.6777       158.29049      53764.943     -20329.587      3386.0494     -16943.537      1.0610531    
   2443000   302.25286     -364.4214       53778.719     -20365.897      3381.2968     -16984.601      1.0607813    
   2444000   307.59185      435.10717      53844.015     -20320.742      3441.0239     -16879.718      1.0594949    
   2445000   298.99801     -281.35753      54283.67      -20472.602      3344.8848     -17127.717      1.0509138    
   2446000   291.38266      580.58328      53754.496     -20416.072      3259.692      -17156.38       1.0612593    
   2447000   297.50605      956.31682      53577.732     -20336.883      3328.1942     -17008.688      1.0647606    
   2448000   301.20637      459.30007      53934.809     -20373.487      3369.5897     -17003.898      1.0577113    
   2449000   298.44161      182.59238      53840.848     -20410.147      3338.6604     -17071.487      1.0595572    
   2450000   298.64354      371.62747      54050.484     -20379.879      3340.9194     -17038.959      1.0554477    
   2451000   302.70433      85.589052      53681.01      -20302.111      3386.3473     -16915.764      1.0627121    
   2452000   297.92339     -306.55957      53966.244     -20393.577      3332.863      -17060.714      1.0570952    
   2453000   300.02526     -22.418087      54385.794     -20361.643      3356.3766     -17005.267      1.0489404    
   2454000   295.26743     -57.784881      53706.053     -20376.966      3303.1509     -17073.815      1.0622165    
   2455000   301.56314      232.42225      53833.572     -20311.212      3373.5809     -16937.631      1.0597004    
   2456000   301.19867      255.51711      54109.713     -20465.001      3369.5035     -17095.498      1.0542924    
   2457000   297.97904      868.78413      53687.628     -20355.327      3333.4856     -17021.842      1.0625811    
   2458000   300.3595       757.66828      53861.14      -20358.53       3360.1157     -16998.414      1.059158     
   2459000   301.05974      772.76392      53850.433     -20319.017      3367.9493     -16951.067      1.0593686    
   2460000   300.28875     -608.97964      54353.123     -20352.218      3359.3242     -16992.894      1.0495709    
   2461000   306.74518     -122.93627      53878.747     -20298.852      3431.5523     -16867.299      1.0588119    
   2462000   305.34827      559.88951      54558.009     -20355.449      3415.9251     -16939.523      1.0456294    
   2463000   301.45504      514.88448      53817.703     -20377.208      3372.3715     -17004.837      1.0600129    
   2464000   299.25911     -519.88145      54442.138     -20362.789      3347.8057     -17014.983      1.0478548    
   2465000   304.63243      496.12636      53775.632     -20425.7        3407.9169     -17017.783      1.0608422    
   2466000   298.8348       69.475604      53812.687     -20266.297      3343.0589     -16923.238      1.0601117    
   2467000   297.56015      69.962025      54183.919     -20305.208      3328.7995     -16976.409      1.0528485    
   2468000   296.77668     -40.542667      54223.519     -20267.668      3320.0349     -16947.633      1.0520796    
   2469000   301.20937     -80.360884      54224.56      -20312.617      3369.6232     -16942.994      1.0520594    
   2470000   305.5131       326.72511      54277.471     -20217.511      3417.769      -16799.742      1.0510338    
   2471000   301.83434      101.99212      53463.854     -20310.509      3376.6147     -16933.894      1.0670285    
   2472000   294.86494      281.40174      53494.807     -20379.771      3298.6483     -17081.122      1.0664111    
   2473000   302.14301      230.02103      53905.082     -20375.274      3380.0678     -16995.206      1.0582946    
   2474000   293.6732      -230.53817      53757.532     -20195.007      3285.3163     -16909.69       1.0611993    
   2475000   299.34013      107.93975      54089.968     -20326.928      3348.7121     -16978.216      1.0546772    
   2476000   295.0416      -517.22956      53933         -20262.394      3300.6245     -16961.77       1.0577468    
   2477000   298.14341      193.24615      54941.49      -20311.747      3335.3244     -16976.423      1.0383311    
   2478000   299.56439     -596.77436      53928.476     -20323.678      3351.2209     -16972.457      1.0578355    
   2479000   304.22645      218.2341       53952.68      -20360.918      3403.3752     -16957.543      1.057361     
   2480000   302.06413      675.18196      53819.867     -20345.943      3379.1854     -16966.758      1.0599702    
   2481000   297.31506     -217.97489      53610.741     -20353.059      3326.0576     -17027.002      1.064105     
   2482000   303.17011     -222.78441      53797.065     -20270.529      3391.5579     -16878.971      1.0604195    
   2483000   300.09728      754.68         54061.444     -20237.792      3357.1823     -16880.61       1.0552337    
   2484000   293.22053      265.637        54033.368     -20344.952      3280.2523     -17064.7        1.055782     
   2485000   303.61066      9.7527108      54185.683     -20369.153      3396.4864     -16972.666      1.0528142    
   2486000   301.66599      157.16134      54356.709     -20326.85       3374.7315     -16952.118      1.0495017    
   2487000   298.58118      570.91145      53934.475     -20262.199      3340.2217     -16921.977      1.0577179    
   2488000   305.95827     -757.4643       53814.427     -20397.972      3422.7491     -16975.223      1.0600774    
   2489000   293.73948     -167.87418      53782.067     -20385.851      3286.0577     -17099.794      1.0607152    
   2490000   295.55158     -100.84041      53849.313     -20303.715      3306.3297     -16997.385      1.0593906    
   2491000   307.2333      -476.91243      54118.409     -20331.512      3437.0128     -16894.499      1.054123     
   2492000   300.21922     -131.64479      54052.879     -20338.512      3358.5465     -16979.965      1.0554009    
   2493000   298.58027      331.84073      53720.626     -20331.432      3340.2116     -16991.221      1.0619284    
   2494000   300.58518     -1396.2269      54407.545     -20241.191      3362.6404     -16878.551      1.0485211    
   2495000   303.03746     -502.48998      54387.193     -20318.275      3390.0741     -16928.201      1.0489134    
   2496000   293.87784      203.2693       53917.589     -20408.208      3287.6055     -17120.602      1.0580491    
   2497000   299.02109      771.15125      54097.514     -20497.068      3345.143      -17151.925      1.0545301    
   2498000   294.99913      1218.0169      54237.099     -20366.564      3300.1494     -17066.415      1.0518162    
   2499000   302.77647     -34.719878      53941.117     -20424.681      3387.1544     -17037.527      1.0575876    
   2500000   292.84708      199.79271      53516.971     -20390.75       3276.0745     -17114.675      1.0659695    
   2501000   303.28216     -345.64195      53520.567     -20346.565      3392.8115     -16953.754      1.0658979    
   2502000   297.37157     -752.80983      54113.047     -20271.358      3326.6899     -16944.669      1.0542274    
   2503000   297.06681      9.9800998      53571.119     -20318.541      3323.2805     -16995.261      1.064892     
   2504000   301.19446      810.37863      53366.484     -20410.937      3369.4565     -17041.481      1.0689754    
   2505000   302.66984     -1014.9839      53883.175     -20281.994      3385.9614     -16896.033      1.0587249    
   2506000   297.53634     -88.921139      53874.973     -20318.409      3328.5332     -16989.876      1.0588861    
   2507000   296.01631     -373.61426      53880.43      -20328.278      3311.5286     -17016.749      1.0587788    
   2508000   300.65775      128.73816      53780.365     -20269.079      3363.4522     -16905.627      1.0607488    
   2509000   298.6899       34.784589      53463.28      -20340.449      3341.438      -16999.011      1.06704      
   2510000   301.82245     -382.20316      54255.313     -20334.709      3376.4817     -16958.227      1.0514631    
   2511000   302.04236     -549.17256      53680.04      -20292.199      3378.9419     -16913.257      1.0627313    
   2512000   303.33545      420.04376      53147.23      -20262.654      3393.4076     -16869.246      1.0733854    
   2513000   298.76436     -706.18527      53849.469     -20333.725      3342.2709     -16991.454      1.0593876    
   2514000   301.42591     -85.135319      54218.86      -20278.074      3372.0457     -16906.028      1.05217      
   2515000   309.34478      88.510178      54094.711     -20338.044      3460.634      -16877.41       1.0545848    
   2516000   303.79264     -475.5358       54154.142     -20308.611      3398.5222     -16910.089      1.0534274    
   2517000   294.55028     -687.85856      53878.228     -20206.67       3295.1281     -16911.542      1.0588221    
   2518000   296.88272      136.68654      53436.824     -20544.627      3321.2211     -17223.406      1.0675683    
   2519000   300.02556     -567.28074      54037.174     -20304.66       3356.38       -16948.28       1.0557076    
   2520000   302.10716      597.68999      53756.26      -20409.65       3379.6668     -17029.983      1.0612245    
   2521000   294.37612     -163.33935      53758.159     -20365.576      3293.1798     -17072.397      1.061187     
   2522000   301.67356     -118.79387      54219.446     -20508.295      3374.8161     -17133.479      1.0521586    
   2523000   306.10383     -655.68159      53375.783     -20406.944      3424.3774     -16982.566      1.0687892    
   2524000   299.66086      346.10292      54078.686     -20265.797      3352.3001     -16913.496      1.0548973    
   2525000   296.53641     -210.37323      53818.203     -20281.76       3317.347      -16964.413      1.060003     
   2526000   297.11674      633.14904      53755.787     -20368.345      3323.8391     -17044.506      1.0612338    
   2527000   302.11387      281.47208      53612.751     -20444.377      3379.7418     -17064.635      1.0640651    
   2528000   301.3517       475.32745      53591.435     -20432.702      3371.2154     -17061.487      1.0644883    
   2529000   307.46152      31.084415      53759.455     -20355.369      3439.566      -16915.803      1.0611614    
   2530000   298.19941     -912.46591      54741.141     -20340.04       3335.9509     -17004.089      1.0421313    
   2531000   297.64325     -263.17199      53989.137     -20388.92       3329.7291     -17059.191      1.056647     
   2532000   302.10422      571.22662      54421.502     -20336.114      3379.634      -16956.48       1.0482522    
   2533000   299.23211     -1273.7513      54238.185     -20265.008      3347.5037     -16917.504      1.0517951    
   2534000   292.63278     -117.90769      53997.981     -20375.439      3273.6771     -17101.762      1.0564739    
   2535000   294.80284      437.12848      53692.169     -20435.399      3297.9535     -17137.446      1.0624912    
   2536000   298.59212      527.50751      53456.596     -20346.834      3340.3441     -17006.49       1.0671734    
   2537000   302.57502     -69.365878      53492.504     -20334.041      3384.9007     -16949.14       1.066457     
   2538000   301.08972      239.91191      53687.917     -20333.561      3368.2847     -16965.276      1.0625754    
   2539000   298.54647     -212.61808      54158.514     -20219.118      3339.8334     -16879.285      1.0533424    
   2540000   298.77533     -840.41395      53966.351     -20456.183      3342.3937     -17113.789      1.0570931    
   2541000   306.79749     -20.043409      53859.11      -20269.649      3432.1374     -16837.512      1.0591979    
   2542000   301.86739      185.20786      54424.394     -20349.78       3376.9845     -16972.795      1.0481965    
   2543000   293.46611     -136.38131      54046.326     -20272.797      3282.9995     -16989.797      1.0555289    
   2544000   294.28377     -795.56163      54209.648     -20533.263      3292.1467     -17241.117      1.0523488    
   2545000   293.53094     -203.92518      53915.343     -20511.652      3283.7248     -17227.927      1.0580932    
   2546000   298.70328     -194.60177      53901.858     -20465.121      3341.5876     -17123.534      1.0583579    
   2547000   299.00445      152.20095      54247.767     -20377.895      3344.9568     -17032.938      1.0516093    
   2548000   299.17451     -997.35073      53687.679     -20336.642      3346.8592     -16989.783      1.0625801    
   2549000   306.24897     -301.13146      53270.481     -20321.02       3426.0011     -16895.019      1.0709019    
   2550000   295.99086     -458.51386      53721.04      -20452.223      3311.2439     -17140.98       1.0619202    
   2551000   294.27685      169.4663       53614.964     -20332.568      3292.0693     -17040.498      1.0640212    
   2552000   295.82302     -95.153215      53314.657     -20311.19       3309.3662     -17001.824      1.0700145    
   2553000   303.06986     -280.61164      53516.499     -20380.027      3390.4365     -16989.591      1.0659789    
   2554000   307.73097      389.29889      53484.928     -20380.284      3442.5803     -16937.704      1.0666081    
   2555000   307.55217     -113.0445       53742.029     -20280.768      3440.58       -16840.188      1.0615055    
   2556000   309.85007     -274.77666      54141.964     -20307.233      3466.2865     -16840.947      1.0536644    
   2557000   302.22426      108.25278      54588.914     -20390.208      3380.9767     -17009.232      1.0450374    
   2558000   296.69135      588.8798       53848.607     -20346.478      3319.0803     -17027.398      1.0594045    
   2559000   297.31189      841.72715      53937.198     -20324.575      3326.0222     -16998.553      1.0576645    
   2560000   300.04044     -490.67086      53514.618     -20321.642      3356.5465     -16965.095      1.0660164    
   2561000   301.79142     -94.480111      53632.052     -20219.675      3376.1346     -16843.54       1.0636822    
   2562000   305.3141      -82.734255      53993.659     -20264.364      3415.5427     -16848.821      1.0565585    
   2563000   297.30943     -277.40217      53293.685     -20399.372      3325.9947     -17073.377      1.0704356    
   2564000   296.38469      5.261083       54315.935     -20228.875      3315.6497     -16913.226      1.0502895    
   2565000   297.16852     -15.56865       53724.026     -20282.456      3324.4184     -16958.038      1.0618612    
   2566000   304.72045     -30.64955       53463.242     -20331.162      3408.9017     -16922.261      1.0670407    
   2567000   298.46129     -173.67598      53764.92      -20276.218      3338.8806     -16937.338      1.0610535    
   2568000   301.30263     -833.45176      54174.345     -20349.5        3370.6666     -16978.834      1.0530346    
   2569000   301.78243     -57.267965      53827.461     -20255.676      3376.034      -16879.642      1.0598207    
   2570000   299.52298      120.1166       53274.49      -20207.845      3350.7576     -16857.088      1.0708213    
   2571000   302.05891      147.77586      54236.875     -20447.6        3379.127      -17068.473      1.0518205    
   2572000   307.60546     -612.34322      54064.415     -20402.442      3441.1762     -16961.266      1.0551757    
   2573000   309.02117      621.65822      53730.643     -20380.665      3457.0137     -16923.651      1.0617304    
   2574000   301.83333     -122.17947      53485.022     -20298.079      3376.6035     -16921.476      1.0666062    
   2575000   307.39323      114.15513      53513.67      -20295.77       3438.8019     -16856.968      1.0660352    
   2576000   290.3585      -458.69717      53540.892     -20289.684      3248.2347     -17041.449      1.0654932    
   2577000   302.51052     -565.24733      53742.682     -20272.706      3384.1792     -16888.527      1.0614926    
   2578000   305.25157      613.11769      53619.012     -20428.583      3414.8432     -17013.74       1.0639409    
   2579000   300.16022      399.25688      53557.65      -20415.077      3357.8864     -17057.191      1.0651598    
   2580000   302.28097     -256.37174      53864.879     -20398.78       3381.6112     -17017.169      1.0590845    
   2581000   301.81008      312.32321      53754.344     -20212.262      3376.3434     -16835.918      1.0612623    
   2582000   301.58172     -310.37772      54026.758     -20424.385      3373.7887     -17050.596      1.0559112    
   2583000   297.59803     -89.023529      53742.217     -20383.456      3329.2232     -17054.233      1.0615018    
   2584000   297.49726      112.34049      53357.842     -20478.757      3328.096      -17150.661      1.0691485    
   2585000   299.85675      713.43336      54087.733     -20303.729      3354.4915     -16949.238      1.0547208    
   2586000   298.66708      464.0549       53730.157     -20358.956      3341.1826     -17017.773      1.06174      
   2587000   290.9462       134.8855       54209.16      -20420.851      3254.8094     -17166.042      1.0523583    
   2588000   296.46167      1131.0789      53659.148     -20560.433      3316.5108     -17243.923      1.0631451    
   2589000   305.06567     -134.62779      54447.934     -20256.241      3412.7636     -16843.478      1.0477433    
   2590000   301.25967      678.23151      53891.76      -20477.291      3370.186      -17107.105      1.0585562    
   2591000   297.71694      18.855383      54052.199     -20396.127      3330.5535     -17065.574      1.0554142    
   2592000   302.8954      -473.65815      54269.979     -20374.053      3388.4849     -16985.568      1.0511789    
   2593000   298.51338     -463.08536      54329.899     -20266.615      3339.4633     -16927.152      1.0500196    
   2594000   302.748       -78.965828      53498.568     -20503.438      3386.8358     -17116.602      1.0663362    
   2595000   300.89977      61.120847      54383.845     -20309.959      3366.1598     -16943.8        1.048978     
   2596000   302.02101      33.817468      53558.601     -20535.492      3378.7031     -17156.789      1.0651409    
   2597000   300.50164      277.88288      54005.242     -20471.978      3361.7059     -17110.273      1.0563319    
   2598000   302.74938      648.87107      54143.886     -20346.653      3386.8513     -16959.802      1.0536269    
   2599000   299.20216      262.22996      54008.856     -20454.788      3347.1687     -17107.619      1.0562612    
   2600000   300.64759     -349.66622      54372.88      -20241.83       3363.3387     -16878.492      1.0491896    
   2600010   301.57913     -249.88625      54368.541     -20228.246      3373.7598     -16854.486      1.0492733    
Loop time of 59253.2 on 4 procs for 2000000 steps with 5541 atoms

Performance: 5.833 ns/day, 4.115 hours/ns, 33.753 timesteps/s, 187.028 katom-step/s
306.5% CPU use with 1 MPI tasks x 4 OpenMP threads

MPI task timing breakdown:
Section |  min time  |  avg time  |  max time  |%varavg| %total
---------------------------------------------------------------
Pair    | 1344.8     | 1344.8     | 1344.8     |   0.0 |  2.27
Bond    | 21.317     | 21.317     | 21.317     |   0.0 |  0.04
Kspace  | 27395      | 27395      | 27395      |   0.0 | 46.23
Neigh   | 71.258     | 71.258     | 71.258     |   0.0 |  0.12
Comm    | 617.19     | 617.19     | 617.19     |   0.0 |  1.04
Output  | 27.239     | 27.239     | 27.239     |   0.0 |  0.05
Modify  | 29555      | 29555      | 29555      |   0.0 | 49.88
Other   |            | 221.7      |            |       |  0.37

Nlocal:           5541 ave        5541 max        5541 min
Histogram: 1 0 0 0 0 0 0 0 0 0
Nghost:          35803 ave       35803 max       35803 min
Histogram: 1 0 0 0 0 0 0 0 0 0
Neighs:    4.84598e+06 ave 4.84598e+06 max 4.84598e+06 min
Histogram: 1 0 0 0 0 0 0 0 0 0

Total # of neighbors = 4845982
Ave neighs/atom = 874.56813
Ave special neighs/atom = 2.4872767
Neighbor list builds = 184650
Dangerous builds = 0

unfix mynpt
undump prod_traj
undump prod_dcd
undump prod_img
unfix thermo_avg
unfix thermo_detailed
unfix rdf_CO_avg
unfix rdf_CC_avg
unfix rdf_OO_avg
unfix msd_avg
uncompute rdf_CO
uncompute rdf_CC
uncompute rdf_OO
uncompute msd_water

#==============================================================================
# FINAL OUTPUT AND VERIFICATION
#==============================================================================
print ""

print "===== Saving Final Configuration ====="
===== Saving Final Configuration =====

write_data equilibrated_system.data
System init for write_data ...
PPPM initialization ...
  extracting TIP4P info from pair style
  using 12-bit tables for long-range coulomb
  G vector (1/distance) = 0.28829373
  grid = 50 50 50
  stencil order = 5
  estimated absolute RMS force accuracy = 0.00033031538
  estimated relative force accuracy = 9.9473496e-07
  using double precision FFTW3
  3d grid and FFT values/proc = 205379 125000
Generated 0 of 3 mixed pair_coeff terms from geometric mixing rule
WARNING: Not all mixed pair coeffs generated from mixing. Use write_data with 'pair ij' option to store all pair coeffs. (src/write_data.cpp:364)
write_restart equilibrated_system.restart
System init for write_restart ...
PPPM initialization ...
  extracting TIP4P info from pair style
  using 12-bit tables for long-range coulomb
  G vector (1/distance) = 0.28829373
  grid = 50 50 50
  stencil order = 5
  estimated absolute RMS force accuracy = 0.00033031538
  estimated relative force accuracy = 9.9473496e-07
  using double precision FFTW3
  3d grid and FFT values/proc = 205379 125000
Generated 0 of 3 mixed pair_coeff terms from geometric mixing rule

print ""

print "â•â•â•â•â•â•â•â•â•â•â•â•â•â•â•â•â•â•â•â•â•â•â•â•â•â•â•â•â•â•â•â•â•â•â•â•â•â•â•â•â•â•â•â•â•â•â•â•â•â•â•â•â•â•â•â•â•â•â•â•â•â•â•â•â•â•â•â•â•â•â•â•â•â•â•â•"
••••••••••••••••••••••••••••••••••••••••••••••••••••••••••••••••••••••••••••
print "                     EQUILIBRATION COMPLETE - SUCCESS!"
                     EQUILIBRATION COMPLETE - SUCCESS!
print "â•â•â•â•â•â•â•â•â•â•â•â•â•â•â•â•â•â•â•â•â•â•â•â•â•â•â•â•â•â•â•â•â•â•â•â•â•â•â•â•â•â•â•â•â•â•â•â•â•â•â•â•â•â•â•â•â•â•â•â•â•â•â•â•â•â•â•â•â•â•â•â•â•â•â•â•"
••••••••••••••••••••••••••••••••••••••••••••••••••••••••••••••••••••••••••••
print ""

print "Simulation Summary:"
Simulation Summary:
print "  Total simulation time: 5.22 ns"
  Total simulation time: 5.22 ns
print "    - NVT thermalization:     50 ps"
    - NVT thermalization:     50 ps
print "    - Pre-equilibration:      50 ps  (NEW - prevents PPPM artifacts)"
    - Pre-equilibration:      50 ps  (NEW - prevents PPPM artifacts)
print "    - Pressure ramp:         100 ps  (EXTENDED and with drag damping)"
    - Pressure ramp:         100 ps  (EXTENDED and with drag damping)
print "    - NPT equilibration:    1000 ps"
    - NPT equilibration:    1000 ps
print "    - Production run:       4000 ps (4 ns)"
    - Production run:       4000 ps (4 ns)
print ""


# Final measurements
variable final_temp equal temp
variable final_press equal press
variable final_dens equal density
variable final_vol equal vol
variable final_boxsize equal vol^(1.0/3.0)
variable final_pe equal pe
variable final_ke equal ke
variable final_etotal equal etotal

print "Final Thermodynamic State:"
Final Thermodynamic State:
print "  Temperature:    ${final_temp} K      (target: 300K)"
  Temperature:    301.57913401759 K      (target: 300K)
print "  Pressure:       ${final_press} atm   (target: 1 atm)"
  Pressure:       -249.886251649587 atm   (target: 1 atm)
print "  Density:        ${final_dens} g/cmÂ³  (target: 0.95-1.05)"
  Density:        1.04927328601536 g/cm³  (target: 0.95-1.05)
print "  Volume:         ${final_vol} Ã…Â³"
  Volume:         54368.5409478361 …³
print "  Box size:       ${final_boxsize} Ã…    (expected: 58-63)"
  Box size:       37.8834241180429 …    (expected: 58-63)
print ""

print "Final Energies:"
Final Energies:
print "  Potential:      ${final_pe} kcal/mol"
  Potential:      -20228.2461336793 kcal/mol
print "  Kinetic:        ${final_ke} kcal/mol"
  Kinetic:        3373.75977615289 kcal/mol
print "  Total:          ${final_etotal} kcal/mol"
  Total:          -16854.4863575264 kcal/mol
print ""


# Comprehensive validation
if "${final_dens} >= 0.85 && ${final_dens} <= 1.15" then     "print 'âœ… SUCCESS: System equilibrated to LIQUID PHASE!'"     "print ''"     "print 'Quality Indicators:'"     "if '${final_dens} >= 0.95 && ${final_dens} <= 1.05' then 'print \"  âœ“ Density: EXCELLENT (within 5% of water)\"' else 'print \"  âš  Density: ACCEPTABLE (but check TIP4P/2005 reference)\"'"     "if '${final_press} >= -50.0 && ${final_press} <= 50.0' then 'print \"  âœ“ Pressure: EXCELLENT (normal fluctuations)\"' else 'print \"  âš  Pressure: CHECK (may need longer equilibration)\"'"     "if '${final_temp} >= 295.0 && ${final_temp} <= 305.0' then 'print \"  âœ“ Temperature: EXCELLENT\"' else 'print \"  âš  Temperature: CHECK (thermostat may need tuning)\"'" else     "print 'âš ï¸  WARNING: Density ${final_dens} g/cmÂ³ outside normal range'"     "print 'Expected: 0.95-1.05 g/cmÂ³ for TIP4P/2005 water at 300K, 1 atm'"     "print ''"     "print 'Possible explanations:'"     "print '  - System still equilibrating (try longer NPT)'"     "print '  - Force field parameters incorrect'"     "print '  - Nanoparticle affecting bulk water density'"
ERROR: Input line quote not followed by white-space (src/input.cpp:556)
Last input line: if "${final_dens} >= 0.85 && ${final_dens} <= 1.15" then "print 'âœ… SUCCESS: System equilibrated to LIQUID PHASE!'" "print ''" "print 'Quality Indicators:'" "if '${final_dens} >= 0.95 && ${final_dens} <= 1.05' then 'print \" âœ“ Density: EXCELLENT (within 5% of water)\"' else 'print \" âš  Density: ACCEPTABLE (but check TIP4P/2005 reference)\"'" "if '${final_press} >= -50.0 && ${final_press} <= 50.0' then 'print \" âœ“ Pressure: EXCELLENT (normal fluctuations)\"' else 'print \" âš  Pressure: CHECK (may need longer equilibration)\"'" "if '${final_temp} >= 295.0 && ${final_temp} <= 305.0' then 'print \" âœ“ Temperature: EXCELLENT\"' else 'print \" âš  Temperature: CHECK (thermostat may need tuning)\"'" else "print 'âš ï¸ WARNING: Density ${final_dens} g/cmÂ³ outside normal range'" "print 'Expected: 0.95-1.05 g/cmÂ³ for TIP4P/2005 water at 300K, 1 atm'" "print ''" "print 'Possible explanations:'" "print ' - System still equilibrating (try longer NPT)'" "print ' - Force field parameters incorrect'" "print ' - Nanoparticle affecting bulk water density'"
