LAMMPS (10 Sep 2025)
  using 5 OpenMP thread(s) per MPI task
package gpu 1 neigh yes newton off binsize 2.8 split 1.0
# LAMMPS Input Script: FULLY CORRECTED NPT Equilibration
# Purpose: Equilibrate solvated nanoparticle system at 300K, 1 bar
# Water Model: TIP4P/2005 (implicit M-site)
# GPU acceleration: Enabled for MD stages
#
# COMPLETE FIXES APPLIED (2024-11-13):
# 1. âœ… CRITICAL FIX: PPPM grid locked to prevent recalculation artifacts
# 2. âœ… CRITICAL FIX: Pre-equilibration stage to reduce initial pressure
# 3. âœ… FIXED: Gentler pressure ramp (100 atm â†’ 1 atm) with drag damping
# 4. âœ… FIXED: SHAKE verification and proper constraint application
# 5. âœ… EXTENDED: Longer equilibration (1000 ps) and production (4000 ps)
# 6. âœ… ENHANCED: Multiple density checkpoints to catch failures early
# 7. âœ… OPTIMIZED: 2 fs timestep (SHAKE allows this, 2Ã— speedup)
#
# Total time: 5.22 ns (50ps NVT + 50ps pre-equil + 100ps ramp + 1000ps NPT + 4000ps prod)
#
# ROOT CAUSE OF PREVIOUS FAILURE:
# - PPPM grid recalculation at step 51,000 caused 169,712 atm pressure spike
# - Barostat overreacted â†’ box expanded 63Ã— â†’ gas phase (Ï=0.025 g/cmÂ³)
# - All epsilon values failed identically (proves it's numerical, not physical)
#
# SOLUTION: Lock PPPM grid + reduce initial pressure + add checkpoints

# ===== INITIALIZATION =====
units real
atom_style full
boundary p p p
atom_modify map array

# ===== COMMUNICATION =====
# Increased cutoff to handle potential box fluctuations safely
comm_modify cutoff 18.0

# ===== FORCE FIELD (FULLY GPU-accelerated) =====
# CORRECTED: O=type2, H=type3 (C60 carbon is type1)
pair_style lj/cut/tip4p/long/gpu 2 3 2 1 0.1546 12.0

# ğŸ”§ CRITICAL: Use pppm/gpu for FULL GPU acceleration of Coulomb forces
# pppm/tip4p is CPU-based bottleneck (~90% CPU, ~10% GPU)
# pppm/gpu runs Coulomb solver on GPU â†’ 5-10Ã— speedup for long-range forces
kspace_style pppm/gpu 1.0e-4

# ğŸ”§ CRITICAL FIX #1: Lock PPPM grid to prevent recalculation
# This prevents the 169,712 atm pressure spike that caused gas-phase failure
kspace_modify mesh 50 50 50    # Fixed grid (handles boxes up to ~125 Ã…, increased from 40)
kspace_modify order 5           # Higher interpolation order for accuracy
kspace_modify force/disp/real 0.8  # Balance real/k-space work

bond_style harmonic
angle_style harmonic

read_data large_C60_solvated.data
Reading data file ...
  orthogonal box = (-20 -20 -20) to (20 20 20)
  1 by 1 by 1 MPI processor grid
  reading atoms ...
  5541 atoms
  reading velocities ...
  5541 velocities
  scanning bonds ...
  3 = max bonds/atom
  scanning angles ...
  1 = max angles/atom
  orthogonal box = (-20 -20 -20) to (20 20 20)
  1 by 1 by 1 MPI processor grid
  reading bonds ...
  3844 bonds
  reading angles ...
  1787 angles
Finding 1-2 1-3 1-4 neighbors ...
  special bond factors lj:    0        0        0       
  special bond factors coul:  0        0        0       
     3 = max # of 1-2 neighbors
     6 = max # of 1-3 neighbors
    18 = max # of 1-4 neighbors
    17 = max # of special neighbors
  special bonds CPU = 0.002 seconds
  read_data CPU = 0.073 seconds

# ===== PAIR COEFFICIENTS (CORRECTED ATOM TYPE MAPPING) =====
# Type 1: C60 carbon (180 atoms from 3 C60 particles)
# Type 2: Water oxygen (~2000 molecules)
# Type 3: Water hydrogen (~4000 atoms)
# TIP4P/2005 parameters (verified against literature)
pair_coeff 2 2 0.1852 3.1589    # O-O (type 2, Îµ=0.1852 kcal/mol, Ïƒ=3.1589 Ã…)
pair_coeff 3 3 0.0 0.0          # H-H (type 3, no interaction)

# C60 fullerene parameters
pair_coeff 1 1 0.07 3.4         # C-C (type 1, Îµ=0.07 kcal/mol, Ïƒ=3.4 Ã…)

# C60-water cross interactions
# Tunable parameter (passed from bash script via -var)
variable epsilon_co equal ${EPSILON_CO}
variable epsilon_co equal 0.90
pair_coeff 1 2 ${epsilon_co} 3.2   # C-O (hydrophobicity parameter)
pair_coeff 1 2 0.9 3.2   
pair_coeff 1 3 0.0 0.0             # C-H (no interaction)
pair_coeff 2 3 0.0 0.0             # O-H (no LJ, only Coulombic)

# Bond and angle coefficients
bond_coeff 1 938.0 1.42         # C-C bonds in C60 (bond type 1)
bond_coeff 2 0.0 0.9572         # O-H bonds in water (bond type 2, SHAKE controlled)
angle_coeff 1 0.0 104.52        # H-O-H angle in water (angle type 1, SHAKE controlled)

# ===== SETTINGS =====
neighbor 2.0 bin                 # Increased skin for safety
neigh_modify delay 5 every 1 check yes

# Define groups (CORRECTED)
group carbon type 1        # C60 atoms (type 1)
180 atoms in group carbon
group water type 2 3       # All water atoms (O=type2, H=type3)
5361 atoms in group water
group oxygen type 2        # Water oxygen atoms (type 2)
1787 atoms in group oxygen
group hydrogen type 3      # Water hydrogen atoms (type 3)
3574 atoms in group hydrogen

# Define individual C60 molecules (60 atoms each)
# Assuming atoms 1-60 = C60_1, 61-120 = C60_2, 121-180 = C60_3
group c60_1 id 1:60
60 atoms in group c60_1
group c60_2 id 61:120
60 atoms in group c60_2
group c60_3 id 121:180
60 atoms in group c60_3

# Define thermodynamic variables
variable temp equal c_thermo_temp
variable press equal c_thermo_press
variable pe equal pe
variable ke equal ke
variable etotal equal etotal
variable vol equal vol
variable dens equal density

thermo_style custom step temp press vol pe ke etotal density
thermo 1000

# ğŸ”§ CRITICAL FIX #2: Use 2 fs timestep (SHAKE allows this, 2Ã— speedup)
timestep 2.0

# Print system info
print "â•â•â•â•â•â•â•â•â•â•â•â•â•â•â•â•â•â•â•â•â•â•â•â•â•â•â•â•â•â•â•â•â•â•â•â•â•â•â•â•â•â•â•â•â•â•â•â•â•â•â•â•â•â•â•â•â•â•â•â•â•â•â•â•â•â•â•â•â•â•â•â•â•â•â•â•"
WARNING: Detected non-ASCII characters in input. Will try to continue by replacing with ASCII equivalents where known. (src/input.cpp:479)
••••••••••••••••••••••••••••••••••••••••••••••••••••••••••••••••••••••••••••
print "SYSTEM INFORMATION:"
SYSTEM INFORMATION:
print "  Epsilon (O-C): ${epsilon_co} kcal/mol"
  Epsilon (O-C): 0.9 kcal/mol
print "  Random seed:   ${RANDOM_SEED}"
  Random seed:   42
print "  Timestep:      2.0 fs (with SHAKE constraints)"
  Timestep:      2.0 fs (with SHAKE constraints)
print "  PPPM grid:     40Ã—40Ã—40 (LOCKED to prevent artifacts)"
  PPPM grid:     40—40—40 (LOCKED to prevent artifacts)
print "â•â•â•â•â•â•â•â•â•â•â•â•â•â•â•â•â•â•â•â•â•â•â•â•â•â•â•â•â•â•â•â•â•â•â•â•â•â•â•â•â•â•â•â•â•â•â•â•â•â•â•â•â•â•â•â•â•â•â•â•â•â•â•â•â•â•â•â•â•â•â•â•â•â•â•â•"
••••••••••••••••••••••••••••••••••••••••••••••••••••••••••••••••••••••••••••
print ""


#==============================================================================
# STAGE 0: Gentle Minimization (CPU pair style for stability)
#==============================================================================
print "===== STAGE 0: Gentle Minimization (removing any overlaps) ====="
===== STAGE 0: Gentle Minimization (removing any overlaps) =====
print "Using CPU pair style for numerical stability during minimization"
Using CPU pair style for numerical stability during minimization
print ""


# Switch to CPU pair style for minimization (GPU can be unstable)
pair_style lj/cut/tip4p/long 2 3 2 1 0.1546 12.0
kspace_style pppm/tip4p 1.0e-4
kspace_modify mesh 50 50 50
kspace_modify order 5

# Re-apply pair coefficients with current epsilon_co
pair_coeff 1 1 0.07 3.4            # C-C
pair_coeff 2 2 0.1852 3.1589       # O-O
pair_coeff 3 3 0.0 0.0             # H-H
pair_coeff 1 2 ${epsilon_co} 3.2   # C-O (variable)
pair_coeff 1 2 0.9 3.2   
pair_coeff 1 3 0.0 0.0             # C-H
pair_coeff 2 3 0.0 0.0             # O-H

# Very gentle minimization (just remove bad contacts, if any)
# Using very relaxed tolerances and limited steps for speed
thermo 100
minimize 0.0 10.0 10 100  # Ultra-gentle: etol=0, ftol=10, max 10 eval, max 100 iter

CITE-CITE-CITE-CITE-CITE-CITE-CITE-CITE-CITE-CITE-CITE-CITE-CITE

Your simulation uses code contributions which should be cited:

- GPU package (short-range, long-range and three-body potentials): doi:10.1016/j.cpc.2010.12.021, doi:10.1016/j.cpc.2011.10.012, doi:10.1016/j.cpc.2013.08.002, doi:10.1016/j.commatsci.2014.10.068, doi:10.1016/j.cpc.2016.10.020, doi:10.3233/APC200086

@Article{Brown11,
 author = {W. M. Brown and P. Wang and S. J. Plimpton and A. N. Tharrington},
 title = {Implementing Molecular Dynamics on Hybrid High Performance Computers---Short Range Forces},
 journal = {Comput.\ Phys.\ Commun.},
 year =    2011,
 volume =  182,
 pages =   {898--911},
 doi =     {10.1016/j.cpc.2010.12.021}
}

@Article{Brown12,
 author = {W. M. Brown and A. Kohlmeyer and S. J. Plimpton and A. N. Tharrington},
 title = {Implementing Molecular Dynamics on Hybrid High Performance Computers - Particle-Particle Particle-Mesh},
 journal = {Comput.\ Phys.\ Commun.},
 year =    2012,
 volume =  183,
 doi =     {10.1016/j.cpc.2011.10.012},
 pages =   {449--459}
}

@Article{Brown13,
 author = {W. M. Brown and Y. Masako},
 title = {Implementing Molecular Dynamics on Hybrid High Performance Computers---Three-Body Potentials},
 journal = {Comput.\ Phys.\ Commun.},
 year =    2013,
 volume =  184,
 pages =   {2785--2793},
 doi =     {10.1016/j.cpc.2013.08.002},
}

@Article{Trung15,
 author = {T. D. Nguyen and S. J. Plimpton},
 title = {Accelerating Dissipative Particle Dynamics Simulations for Soft Matter Systems},
 journal = {Comput.\ Mater.\ Sci.},
 year =    2015,
 doi =     {10.1016/j.commatsci.2014.10.068},
 volume =  100,
 pages =   {173--180}
}

@Article{Trung17,
 author = {T. D. Nguyen},
 title = {{GPU}-Accelerated {T}ersoff Potentials for Massively Parallel
    Molecular Dynamics Simulations},
 journal = {Comput.\ Phys.\ Commun.},
 year =    2017,
 doi =     {10.1016/j.cpc.2016.10.020},
 volume =  212,
 pages =   {113--122}
}

@inproceedings{Nikolskiy19,
 author = {V. Nikolskiy and V. Stegailov},
 title = {{GPU} Acceleration of Four-Site Water Models in {LAMMPS}},
 booktitle = {Proceedings of the International Conference on Parallel
    Computing (ParCo 2019), Prague, Czech Republic},
 doi =     {10.3233/APC200086},
 year =    2019
}

CITE-CITE-CITE-CITE-CITE-CITE-CITE-CITE-CITE-CITE-CITE-CITE-CITE

Switching to 'neigh_modify every 1 delay 0 check yes' setting during minimization
PPPM initialization ...
  extracting TIP4P info from pair style
  using 12-bit tables for long-range coulomb
  G vector (1/distance) = 0.28512662
  grid = 50 50 50
  stencil order = 5
  estimated absolute RMS force accuracy = 0.00038934319
  estimated relative force accuracy = 1.1724955e-06
  using double precision FFTW3
  3d grid and FFT values/proc = 185193 125000
Generated 0 of 3 mixed pair_coeff terms from geometric mixing rule
Per MPI rank memory allocation (min/avg/max) = 51.83 | 51.83 | 51.83 Mbytes
   Step          Temp          Press          Volume         PotEng         KinEng         TotEng        Density    
         0   36.495381      27185.807      64000         -23250.569      602.67332     -22647.896      0.89136653   
        10   36.495381     -19523.376      64000         -142290.98      602.67332     -141688.31      0.89136653   
Loop time of 0.259188 on 5 procs for 10 steps with 5541 atoms

445.4% CPU use with 1 MPI tasks x 5 OpenMP threads

Minimization stats:
  Stopping criterion = max iterations
  Energy initial, next-to-last, final = 
      -23250.569454575  -124683.270520837  -142290.984530392
  Force two-norm initial, final = 2152.6886 6845.8137
  Force max component initial, final = 49.703982 353.73922
  Final line search alpha, max atom move = 0.0003809885 0.13477057
  Iterations, force evaluations = 10 10

MPI task timing breakdown:
Section |  min time  |  avg time  |  max time  |%varavg| %total
---------------------------------------------------------------
Pair    | 0.0079184  | 0.0079184  | 0.0079184  |   0.0 |  3.06
Bond    | 0.002461   | 0.002461   | 0.002461   |   0.0 |  0.95
Kspace  | 0.24166    | 0.24166    | 0.24166    |   0.0 | 93.24
Neigh   | 0          | 0          | 0          |   0.0 |  0.00
Comm    | 0.0037253  | 0.0037253  | 0.0037253  |   0.0 |  1.44
Output  | 9.5279e-05 | 9.5279e-05 | 9.5279e-05 |   0.0 |  0.04
Modify  | 1.242e-06  | 1.242e-06  | 1.242e-06  |   0.0 |  0.00
Other   |            | 0.00333    |            |       |  1.28

Nlocal:           5541 ave        5541 max        5541 min
Histogram: 1 0 0 0 0 0 0 0 0 0
Nghost:          33839 ave       33839 max       33839 min
Histogram: 1 0 0 0 0 0 0 0 0 0
Neighs:              0 ave           0 max           0 min
Histogram: 1 0 0 0 0 0 0 0 0 0

Total # of neighbors = 0
Ave neighs/atom = 0
Ave special neighs/atom = 2.4872767
Neighbor list builds = 0
Dangerous builds = 0

variable pe_minimized equal pe
print "Minimization complete. PE = ${pe_minimized} kcal/mol (was -23,217)"
Minimization complete. PE = -142290.984530392 kcal/mol (was -23,217)

# Switch back to GPU pair style for MD
pair_style lj/cut/tip4p/long/gpu 2 3 2 1 0.1546 12.0
kspace_style pppm/tip4p 1.0e-4
kspace_modify mesh 50 50 50
kspace_modify order 5

# Re-apply pair coefficients again after style change
pair_coeff 1 1 0.07 3.4            # C-C
pair_coeff 2 2 0.1852 3.1589       # O-O
pair_coeff 3 3 0.0 0.0             # H-H
pair_coeff 1 2 ${epsilon_co} 3.2   # C-O (variable)
pair_coeff 1 2 0.9 3.2   
pair_coeff 1 3 0.0 0.0             # C-H
pair_coeff 2 3 0.0 0.0             # O-H

print ""


#==============================================================================
# STAGE 0.5: Apply SHAKE Constraints
#==============================================================================
thermo 1000

# ğŸ”§ CRITICAL FIX #3: Apply SHAKE with proper verification
print "Applying SHAKE constraints..."
Applying SHAKE constraints...
# CORRECTED: bond type 2 = O-H, angle type 1 = H-O-H
fix myshk water shake 0.0001 20 0 b 2 a 1
Finding SHAKE clusters ...
       0 = # of size 2 clusters
       0 = # of size 3 clusters
       0 = # of size 4 clusters
    1787 = # of frozen angles
  find clusters CPU = 0.002 seconds

# Verify SHAKE is working
print "SHAKE constraint verification:"
SHAKE constraint verification:
print "  Expected: ~2000 water molecules with constrained bonds and angles"
  Expected: ~2000 water molecules with constrained bonds and angles
print "  Check minimization output for cluster sizes"
  Check minimization output for cluster sizes
print ""

print "GPU Acceleration Status:"
GPU Acceleration Status:
print "  âœ“ Pair forces (LJ):      GPU (lj/cut/tip4p/long/gpu)"
  œ“ Pair forces (LJ):      GPU (lj/cut/tip4p/long/gpu)
print "  âœ“ Coulomb (PPPM):        CPU (pppm/tip4p) - GPU suffix not available"
  œ“ Coulomb (PPPM):        CPU (pppm/tip4p) - GPU suffix not available
print "  âœ“ Neighbor lists:        GPU (neigh yes)"
  œ“ Neighbor lists:        GPU (neigh yes)
print "  â†’ Expected speedup:      2-3Ã— vs CPU-only version (pair forces only)"
  †’ Expected speedup:      2-3— vs CPU-only version (pair forces only)

#==============================================================================
# STAGE 1: NVT Thermalization (50 ps)
#==============================================================================
print ""

print "===== STAGE 1: NVT Thermalization (50 ps, GPU) ====="
===== STAGE 1: NVT Thermalization (50 ps, GPU) =====
print "Objective: Reach 300K while maintaining initial density"
Objective: Reach 300K while maintaining initial density

velocity all create 300.0 ${RANDOM_SEED} dist gaussian loop geom
velocity all create 300.0 42 dist gaussian loop geom

fix mynvt all nvt temp 300.0 300.0 100.0

# Trajectory output (every 4 ps) - using wrapped coordinates for proper visualization
dump nvt_traj all custom 2000 nvt_thermalization.lammpstrj id type xu yu zu
dump_modify nvt_traj sort id

dump nvt_dcd all dcd 2000 nvt_thermalization.dcd
dump_modify nvt_dcd unwrap yes

run 25000  # 50 ps at 2 fs timestep
PPPM initialization ...
  extracting TIP4P info from pair style
  using 12-bit tables for long-range coulomb
  G vector (1/distance) = 0.28512662
  grid = 50 50 50
  stencil order = 5
  estimated absolute RMS force accuracy = 0.00038934319
  estimated relative force accuracy = 1.1724955e-06
  using double precision FFTW3
  3d grid and FFT values/proc = 185193 125000
Generated 0 of 3 mixed pair_coeff terms from geometric mixing rule
Per MPI rank memory allocation (min/avg/max) = 51.29 | 51.29 | 51.29 Mbytes
   Step          Temp          Press          Volume         PotEng         KinEng         TotEng        Density    
        10   300           -111719.61      64000         -142290.98      3356.094      -138934.89      0.89136653   
      1000   302.36645     -1495.4565      64000         -20891.046      3382.5675     -17508.479      0.89136653   
      2000   301.29969     -1900.7369      64000         -21353.71       3370.6336     -17983.076      0.89136653   
      3000   298.4379      -848.38858      64000         -21380.034      3338.6189     -18041.415      0.89136653   
      4000   294.83718     -1165.8616      64000         -21495.405      3298.3377     -18197.067      0.89136653   
      5000   296.37176     -1295.5005      64000         -21606.53       3315.505      -18291.025      0.89136653   
      6000   293.88054     -1379.8672      64000         -21613.01       3287.6358     -18325.374      0.89136653   
      7000   296.77863     -1507.5872      64000         -21520.157      3320.0567     -18200.101      0.89136653   
      8000   305.98432     -1363.0185      64000         -21517.597      3423.0406     -18094.557      0.89136653   
      9000   302.17732     -1282.6828      64000         -21525.471      3380.4516     -18145.02       0.89136653   
     10000   302.98065     -763.40394      64000         -21480.913      3389.4385     -18091.475      0.89136653   
     11000   299.40853     -1055.095       64000         -21546.834      3349.4773     -18197.357      0.89136653   
     12000   304.2217      -702.94204      64000         -21460.54       3403.3222     -18057.218      0.89136653   
     13000   299.05085     -769.20589      64000         -21406.321      3345.4759     -18060.845      0.89136653   
     14000   301.02419     -741.95112      64000         -21475.276      3367.5516     -18107.724      0.89136653   
     15000   293.7625      -1371.3837      64000         -21430.334      3286.3152     -18144.019      0.89136653   
     16000   299.01268     -1427.5896      64000         -21615.52       3345.0489     -18270.471      0.89136653   
     17000   304.1572      -1377.5428      64000         -21546.92       3402.6006     -18144.319      0.89136653   
     18000   298.20341     -1634.1752      64000         -21550.939      3335.9956     -18214.944      0.89136653   
     19000   300.89973     -1376.4716      64000         -21519.738      3366.1593     -18153.578      0.89136653   
     20000   304.24887     -1685.2285      64000         -21560.265      3403.6261     -18156.639      0.89136653   
     21000   295.06092     -1318.321       64000         -21445.096      3300.8406     -18144.255      0.89136653   
     22000   306.22758     -398.54324      64000         -21530.354      3425.7618     -18104.592      0.89136653   
     23000   298.93974     -1364.5594      64000         -21455.14       3344.233      -18110.907      0.89136653   
     24000   299.3786      -1392.7937      64000         -21484.647      3349.1424     -18135.504      0.89136653   
     25000   299.83853     -265.19638      64000         -21524.764      3354.2877     -18170.476      0.89136653   
     25010   304.20482     -513.53442      64000         -21568.21       3403.1333     -18165.077      0.89136653   
Loop time of 703.469 on 5 procs for 25000 steps with 5541 atoms

Performance: 6.141 ns/day, 3.908 hours/ns, 35.538 timesteps/s, 196.917 katom-step/s
441.7% CPU use with 1 MPI tasks x 5 OpenMP threads

MPI task timing breakdown:
Section |  min time  |  avg time  |  max time  |%varavg| %total
---------------------------------------------------------------
Pair    | 22.2       | 22.2       | 22.2       |   0.0 |  3.16
Bond    | 0.31623    | 0.31623    | 0.31623    |   0.0 |  0.04
Kspace  | 641.45     | 641.45     | 641.45     |   0.0 | 91.18
Neigh   | 0.072375   | 0.072375   | 0.072375   |   0.0 |  0.01
Comm    | 11.687     | 11.687     | 11.687     |   0.0 |  1.66
Output  | 0.11679    | 0.11679    | 0.11679    |   0.0 |  0.02
Modify  | 24.27      | 24.27      | 24.27      |   0.0 |  3.45
Other   |            | 3.36       |            |       |  0.48

Nlocal:           5541 ave        5541 max        5541 min
Histogram: 1 0 0 0 0 0 0 0 0 0
Nghost:          33203 ave       33203 max       33203 min
Histogram: 1 0 0 0 0 0 0 0 0 0
Neighs:              0 ave           0 max           0 min
Histogram: 1 0 0 0 0 0 0 0 0 0

Total # of neighbors = 0
Ave neighs/atom = 0
Ave special neighs/atom = 2.4872767
Neighbor list builds = 2331
Dangerous builds = 1

unfix mynvt
undump nvt_traj
undump nvt_dcd

write_restart nvt_complete.restart
System init for write_restart ...
PPPM initialization ...
  extracting TIP4P info from pair style
  using 12-bit tables for long-range coulomb
  G vector (1/distance) = 0.28512662
  grid = 50 50 50
  stencil order = 5
  estimated absolute RMS force accuracy = 0.00038934319
  estimated relative force accuracy = 1.1724955e-06
  using double precision FFTW3
  3d grid and FFT values/proc = 185193 125000
Generated 0 of 3 mixed pair_coeff terms from geometric mixing rule

# Check temperature
variable current_temp equal temp
print "NVT complete. Temperature: ${current_temp} K (target: 300K)"
NVT complete. Temperature: 304.204823457102 K (target: 300K)

# ğŸ”§ CHECKPOINT #1: Verify we're still at reasonable density
variable current_dens equal density
if "${current_dens} < 0.7" then     "print 'ERROR: Density dropped during NVT! Current: ${current_dens} g/cmÂ³'"     "print 'This should not happen - check initial configuration'"     "quit 1"

print "âœ“ Checkpoint 1 PASSED: Density = ${current_dens} g/cmÂ³"
œ“ Checkpoint 1 PASSED: Density = 0.891366525253092 g/cm³

#==============================================================================
# STAGE 1.5: Pre-Equilibration at 100 atm (50 ps) - NEW STAGE
#==============================================================================
print ""

print "===== STAGE 1.5: Pre-Equilibration at 100 atm (50 ps, GPU) ====="
===== STAGE 1.5: Pre-Equilibration at 100 atm (50 ps, GPU) =====
print "ğŸ”§ CRITICAL FIX: Reducing initial pressure before main ramp"
Ÿ”§ CRITICAL FIX: Reducing initial pressure before main ramp
print "Objective: Equilibrate volume at moderate pressure to prevent PPPM artifacts"
Objective: Equilibrate volume at moderate pressure to prevent PPPM artifacts
print ""

print "Why this is needed:"
Why this is needed:
print "  - NVT creates high pressure (~800 atm) in fixed volume"
  - NVT creates high pressure (~800 atm) in fixed volume
print "  - Direct ramp from 800â†’1 atm caused 169k atm spike (PPPM grid change)"
  - Direct ramp from 800†’1 atm caused 169k atm spike (PPPM grid change)
print "  - Pre-equilibrating at 100 atm reduces initial pressure safely"
  - Pre-equilibrating at 100 atm reduces initial pressure safely
print "  - Main ramp (100â†’1 atm) will then cause only ~5% box expansion"
  - Main ramp (100†’1 atm) will then cause only ~5% box expansion

# Higher barostat damping for this stage (more conservative)
fix mynpt_pre all npt temp 300.0 300.0 100.0 iso 100.0 100.0 5000.0

dump pre_dcd all dcd 2000 pre_equilibration.dcd
dump_modify pre_dcd unwrap yes

run 25000  # 50 ps at 2 fs timestep
PPPM initialization ...
  extracting TIP4P info from pair style
  using 12-bit tables for long-range coulomb
  G vector (1/distance) = 0.28512662
  grid = 50 50 50
  stencil order = 5
  estimated absolute RMS force accuracy = 0.00038934319
  estimated relative force accuracy = 1.1724955e-06
  using double precision FFTW3
  3d grid and FFT values/proc = 185193 125000
Generated 0 of 3 mixed pair_coeff terms from geometric mixing rule
Per MPI rank memory allocation (min/avg/max) = 51.29 | 51.29 | 51.29 Mbytes
   Step          Temp          Press          Volume         PotEng         KinEng         TotEng        Density    
     25010   304.20482     -513.17213      64000         -21568.21       3403.1333     -18165.077      0.89136653   
     26000   304.3896       104.00609      61612.052     -21697.219      3405.2004     -18292.018      0.92591394   
     27000   301.37339     -123.55584      59472.622     -21667.001      3371.4581     -18295.543      0.95922216   
     28000   300.5007      -366.5437       57905.204     -21696.926      3361.6953     -18335.231      0.98518707   
     29000   305.93051      1195.965       56452.438     -21809.607      3422.4385     -18387.169      1.0105402    
     30000   296.8581       108.05988      55670.139     -21812.759      3320.9456     -18491.814      1.0247407    
     31000   310.37072      901.45135      55092.18      -21824.703      3472.1111     -18352.592      1.035491     
     32000   291.17446     -465.34091      54289.987     -21805.695      3257.3629     -18548.332      1.0507915    
     33000   304.81        -140.41634      53586.835     -21943.986      3409.9035     -18534.083      1.0645797    
     34000   298.12748      218.99692      53096.115     -21910.285      3335.1462     -18575.139      1.0744187    
     35000   303.42483      680.31541      53305.316     -21844.567      3394.4076     -18450.16       1.070202     
     36000   307.23873     -54.253419      53743.196     -21849.361      3437.0736     -18412.287      1.0614824    
     37000   301.67889      11.657658      53727.705     -21862.016      3374.8757     -18487.141      1.0617885    
     38000   299.60578      533.66796      53308.757     -21898.265      3351.6839     -18546.581      1.070133     
     39000   298.39738      175.1795       53426.27      -21871.81       3338.1655     -18533.644      1.0677792    
     40000   299.96631     -670.84693      53469.682     -22017.317      3355.7172     -18661.6        1.0669122    
     41000   294.39406      760.62105      53744.744     -21973.229      3293.3805     -18679.849      1.0614519    
     42000   299.63046     -566.92725      53897.672     -22070.512      3351.9599     -18718.552      1.0584401    
     43000   301.10475      106.47139      53450.86      -21961.355      3368.4528     -18592.902      1.0672879    
     44000   295.9243      -69.626742      53740.916     -21731.761      3310.4992     -18421.262      1.0615274    
     45000   290.71384     -489.79154      53768.866     -21784.035      3252.21       -18531.825      1.0609757    
     46000   297.29208      624.18407      53340.55      -21891.373      3325.8006     -18565.572      1.0694951    
     47000   310.395        685.55994      53187.247     -21892.929      3472.3827     -18420.547      1.0725777    
     48000   299.68496     -188.31153      53729.942     -21989.708      3352.5697     -18637.138      1.0617443    
     49000   302.75377     -153.84401      53441.364     -21997.297      3386.9004     -18610.397      1.0674776    
     50000   302.74665     -488.62113      53453.835     -21881.482      3386.8208     -18494.661      1.0672285    
     50010   308.86226     -814.28336      53444.787     -21934.54       3455.236      -18479.304      1.0674092    
Loop time of 1051.09 on 5 procs for 25000 steps with 5541 atoms

Performance: 4.110 ns/day, 5.839 hours/ns, 23.785 timesteps/s, 131.792 katom-step/s
343.0% CPU use with 1 MPI tasks x 5 OpenMP threads

MPI task timing breakdown:
Section |  min time  |  avg time  |  max time  |%varavg| %total
---------------------------------------------------------------
Pair    | 42.877     | 42.877     | 42.877     |   0.0 |  4.08
Bond    | 0.42509    | 0.42509    | 0.42509    |   0.0 |  0.04
Kspace  | 528.58     | 528.58     | 528.58     |   0.0 | 50.29
Neigh   | 0.060449   | 0.060449   | 0.060449   |   0.0 |  0.01
Comm    | 11.268     | 11.268     | 11.268     |   0.0 |  1.07
Output  | 0.015106   | 0.015106   | 0.015106   |   0.0 |  0.00
Modify  | 463.44     | 463.44     | 463.44     |   0.0 | 44.09
Other   |            | 4.428      |            |       |  0.42

Nlocal:           5541 ave        5541 max        5541 min
Histogram: 1 0 0 0 0 0 0 0 0 0
Nghost:          35799 ave       35799 max       35799 min
Histogram: 1 0 0 0 0 0 0 0 0 0
Neighs:              0 ave           0 max           0 min
Histogram: 1 0 0 0 0 0 0 0 0 0

Total # of neighbors = 0
Ave neighs/atom = 0
Ave special neighs/atom = 2.4872767
Neighbor list builds = 2329
Dangerous builds = 0

unfix mynpt_pre
undump pre_dcd

write_restart pre_equilibration_complete.restart
System init for write_restart ...
PPPM initialization ...
  extracting TIP4P info from pair style
  using 12-bit tables for long-range coulomb
  G vector (1/distance) = 0.28859564
  grid = 50 50 50
  stencil order = 5
  estimated absolute RMS force accuracy = 0.00032497479
  estimated relative force accuracy = 9.7865194e-07
  using double precision FFTW3
  3d grid and FFT values/proc = 205379 125000
Generated 0 of 3 mixed pair_coeff terms from geometric mixing rule
write_data pre_equilibration_complete.data
System init for write_data ...
PPPM initialization ...
  extracting TIP4P info from pair style
  using 12-bit tables for long-range coulomb
  G vector (1/distance) = 0.28859564
  grid = 50 50 50
  stencil order = 5
  estimated absolute RMS force accuracy = 0.00032497479
  estimated relative force accuracy = 9.7865194e-07
  using double precision FFTW3
  3d grid and FFT values/proc = 205379 125000
Generated 0 of 3 mixed pair_coeff terms from geometric mixing rule
WARNING: Not all mixed pair coeffs generated from mixing. Use write_data with 'pair ij' option to store all pair coeffs. (src/write_data.cpp:364)

# ğŸ”§ CHECKPOINT #2: Verify still in liquid phase after pre-equilibration
variable current_dens equal density
variable current_press equal press
variable current_vol equal vol

print ""

print "Pre-equilibration complete:"
Pre-equilibration complete:
print "  Density:  ${current_dens} g/cmÂ³"
  Density:  1.06740920711392 g/cm³
print "  Pressure: ${current_press} atm"
  Pressure: -814.283363687639 atm
print "  Volume:   ${current_vol} Ã…Â³"
  Volume:   53444.7869064606 …³

if "${current_dens} < 0.85" then     "print 'ERROR: Density dropped to ${current_dens} during pre-equilibration!'"     "print 'Expected: Still ~0.95 g/cmÂ³ (may increase slightly due to compression)'"     "print 'System failed before main pressure ramp even started!'"     "quit 1"

print "âœ“ Checkpoint 2 PASSED: System stable at 100 atm"
œ“ Checkpoint 2 PASSED: System stable at 100 atm

#==============================================================================
# STAGE 2: GENTLE Pressure Ramp (100 â†’ 1 atm, 100 ps) - CORRECTED
#==============================================================================
print ""

print "===== STAGE 2: Gentle Pressure Ramp (100 ps, GPU) ====="
===== STAGE 2: Gentle Pressure Ramp (100 ps, GPU) =====
print "Ramping pressure from 100 atm â†’ 1 atm with drag damping"
Ramping pressure from 100 atm †’ 1 atm with drag damping
print ""

print "COMPARISON TO FAILED VERSION:"
COMPARISON TO FAILED VERSION:
print "  OLD: 50 atm â†’ 1 atm, no pre-equil â†’ 169,712 atm spike at step 51k"
  OLD: 50 atm †’ 1 atm, no pre-equil †’ 169,712 atm spike at step 51k
print "  NEW: 100 atm â†’ 1 atm, with pre-equil â†’ should be smooth (< 500 atm max)"
  NEW: 100 atm †’ 1 atm, with pre-equil †’ should be smooth (< 500 atm max)

# ğŸ”§ CRITICAL FIX #4: Add drag damping to prevent explosive expansion
fix mynpt_ramp all npt temp 300.0 300.0 100.0 iso 100.0 1.0 2000.0 drag 2.0

dump ramp_dcd all dcd 1000 pressure_ramp.dcd
dump_modify ramp_dcd unwrap yes

# Monitor closely during ramp (every 500 steps = 1 ps)
thermo 500

run 50000  # 100 ps at 2 fs timestep
PPPM initialization ...
  extracting TIP4P info from pair style
  using 12-bit tables for long-range coulomb
  G vector (1/distance) = 0.28859564
  grid = 50 50 50
  stencil order = 5
  estimated absolute RMS force accuracy = 0.00032497479
  estimated relative force accuracy = 9.7865194e-07
  using double precision FFTW3
  3d grid and FFT values/proc = 205379 125000
Generated 0 of 3 mixed pair_coeff terms from geometric mixing rule
Per MPI rank memory allocation (min/avg/max) = 52.14 | 52.14 | 52.14 Mbytes
   Step          Temp          Press          Volume         PotEng         KinEng         TotEng        Density    
     50010   308.86226     -823.03951      53444.787     -21934.473      3455.236      -18479.237      1.0674092    
     50500   302.75604     -855.43826      53378.614     -21927.676      3386.9258     -18540.75       1.0687325    
     51000   302.82841     -488.46926      53206.322     -21918.292      3387.7354     -18530.557      1.0721932    
     51500   298.06604      228.30688      53263.281     -21902.429      3334.4588     -18567.97       1.0710466    
     52000   301.24802     -413.12169      53329.494     -21894.971      3370.0556     -18524.915      1.0697168    
     52500   302.50701     -103.74347      53048.017     -21924.081      3384.1399     -18539.941      1.0753928    
     53000   298.74768      126.31427      53615.255     -21891.713      3342.0844     -18549.628      1.0640154    
     53500   298.99901      552.53733      53392.813     -21929.737      3344.896      -18584.841      1.0684483    
     54000   299.76809      883.48799      53344.355     -21916.678      3353.4997     -18563.179      1.0694188    
     54500   304.14461      88.755702      53358.478     -21927.021      3402.4597     -18524.562      1.0691358    
     55000   298.10019      188.03913      53370.08      -21905.28       3334.8409     -18570.439      1.0689033    
     55500   300.9664       210.52333      53340.991     -21899.346      3366.9052     -18532.441      1.0694863    
     56000   298.42033     -494.84073      53509.366     -21904.079      3338.4222     -18565.657      1.066121     
     56500   299.59298      121.91917      53174.487     -21906.576      3351.5407     -18555.036      1.0728351    
     57000   295.76536     -164.48706      53401.297     -21884          3308.7212     -18575.278      1.0682785    
     57500   303.22399      48.961632      53202.867     -21998.031      3392.1608     -18605.87       1.0722629    
     58000   304.50075     -44.143865      53300.916     -21969.612      3406.4438     -18563.168      1.0702904    
     58500   298.3399      -721.2986       53443.967     -21955.589      3337.5226     -18618.066      1.0674256    
     59000   295.0257      -46.587201      53175.947     -21853.965      3300.4467     -18553.518      1.0728057    
     59500   301.41044      308.28363      53251.149     -21884.487      3371.8727     -18512.615      1.0712906    
     60000   300.03536     -221.29341      53396.879     -21838.763      3356.4896     -18482.273      1.0683669    
     60500   301.49842      1210.6273      53237.152     -21950.988      3372.8568     -18578.131      1.0715723    
     61000   297.82244      193.30184      53373.623     -21869.865      3331.7337     -18538.131      1.0688324    
     61500   306.77539      660.45187      53709.621     -22024.354      3431.8902     -18592.464      1.062146     
     62000   294.817        88.098164      53313.988     -21902.336      3298.1119     -18604.224      1.0700279    
     62500   303.06475      949.81068      53338.948     -22027.552      3390.3794     -18637.173      1.0695272    
     63000   302.38194      407.28118      53692.532     -22023.74       3382.7408     -18641          1.062484     
     63500   296.91405     -12.384599      53744.757     -21940.18       3321.5716     -18618.608      1.0614516    
     64000   302.85699      405.62484      53352.137     -21983.764      3388.0551     -18595.709      1.0692628    
     64500   301.21623      429.08127      53533.296     -21955.236      3369.7        -18585.536      1.0656444    
     65000   301.54377      503.35155      53837.296     -21949.545      3373.3641     -18576.181      1.0596271    
     65500   301.12504     -189.63922      53833.7       -21961.761      3368.6798     -18593.081      1.0596979    
     66000   304.94335     -213.48897      53432.764     -22000.612      3411.3951     -18589.216      1.0676494    
     66500   298.32927      664.06428      53299.174     -21943.99       3337.4036     -18606.587      1.0703254    
     67000   301.54398      216.13166      53241.241     -21912.693      3373.3666     -18539.326      1.07149      
     67500   302.77578      792.52126      53302.614     -21927.457      3387.1466     -18540.311      1.0702563    
     68000   298.88508     -330.80174      53468.494     -21901.138      3343.6214     -18557.517      1.0669359    
     68500   301.47415     -258.71127      53370.642     -21928.457      3372.5853     -18555.872      1.0688921    
     69000   298.79475      542.49845      53503.842     -21935.713      3342.6109     -18593.102      1.066231     
     69500   299.96908      158.72853      53715.936     -21903.632      3355.7482     -18547.884      1.0620211    
     70000   304.5325       273.79117      53214.413     -21995.41       3406.799      -18588.611      1.0720302    
     70500   299.9168       579.14661      53484.738     -21936.591      3355.1633     -18581.428      1.0666119    
     71000   301.79934     -442.05542      53661.53      -21973.67       3376.2232     -18597.447      1.0630979    
     71500   297.05352     -451.37936      53316.43      -21963.849      3323.1318     -18640.717      1.069979     
     72000   297.36294     -79.286857      53940.974     -21982.809      3326.5933     -18656.216      1.0575904    
     72500   302.80535     -790.85107      53682.173     -22009.71       3387.4775     -18622.233      1.0626891    
     73000   299.92319      68.854439      53993.249     -21970.1        3355.2347     -18614.865      1.0565665    
     73500   299.93801      590.9729       53657.75      -21899.472      3355.4005     -18544.071      1.0631728    
     74000   305.07184      126.62019      53671.298     -22023.263      3412.8326     -18610.431      1.0629044    
     74500   297.06763     -301.53567      53557.555     -21912.055      3323.2897     -18588.765      1.0651617    
     75000   296.39994     -457.20924      53332.937     -21871.548      3315.8202     -18555.728      1.0696478    
     75500   304.65745     -66.34117       53464.857     -22013.595      3408.1969     -18605.399      1.0670085    
     76000   299.20711     -411.63828      53602.726     -21933.16       3347.2239     -18585.936      1.0642641    
     76500   298.40836     -328.53109      53713.589     -21971.23       3338.2884     -18632.942      1.0620675    
     77000   299.31239     -1152.2661      53395.159     -21908.559      3348.4018     -18560.157      1.0684013    
     77500   300.71259      337.4333       53182.248     -21955.823      3364.0658     -18591.757      1.0726786    
     78000   299.16027      97.313894      53318.154     -21984.209      3346.7        -18637.509      1.0699444    
     78500   305.0447       343.39927      53024.452     -22026.99       3412.529      -18614.461      1.0758708    
     79000   304.6685       275.63885      53289.593     -21959.008      3408.3205     -18550.687      1.0705178    
     79500   293.1387       5.3015607      53711.669     -21819.899      3279.3369     -18540.562      1.0621055    
     80000   304.6004      -594.86799      53819.765     -21936.508      3407.5586     -18528.949      1.0599722    
     80500   301.37067      95.308529      53852.041     -22011.987      3371.4277     -18640.56       1.059337     
     81000   300.82708     -435.96266      53827.094     -21956.157      3365.3466     -18590.81       1.0598279    
     81500   303.52489      612.28058      53456.127     -21907.602      3395.5269     -18512.075      1.0671828    
     82000   298.14041      609.12876      53522.442     -21884.693      3335.2908     -18549.402      1.0658605    
     82500   299.85846      437.44103      53378.848     -21912.219      3354.5106     -18557.709      1.0687278    
     83000   305.80223      297.00719      53391.825     -22019.013      3421.0034     -18598.01       1.068468     
     83500   301.59252      99.953786      53263.779     -21975.17       3373.9096     -18601.26       1.0710366    
     84000   295.15831     -279.38197      53471.014     -21898.392      3301.9302     -18596.462      1.0668856    
     84500   296.57897     -260.03116      53766.725     -21867.908      3317.823      -18550.085      1.0610179    
     85000   299.80678      8.5455754      53667.274     -21937.255      3353.9325     -18583.322      1.0629841    
     85500   297.88047     -157.57294      53430.338     -21920.42       3332.3829     -18588.038      1.0676979    
     86000   302.18693      550.80312      53360.992     -21927.979      3380.5591     -18547.42       1.0690854    
     86500   298.62075      443.55861      53659.929     -21906.601      3340.6644     -18565.936      1.0631296    
     87000   299.03252      388.83145      53638.843     -21902.008      3345.2709     -18556.737      1.0635475    
     87500   297.89041     -831.16827      53666.502     -21917.588      3332.4941     -18585.094      1.0629994    
     88000   300.6079       132.79413      53955.783     -21978.402      3362.8946     -18615.507      1.0573002    
     88500   294.62819     -1084.2206      53736.728     -21841.559      3295.9997     -18545.559      1.0616102    
     89000   300.48167      126.43794      53680.872     -21925.349      3361.4825     -18563.866      1.0627148    
     89500   297.466       -249.9179       53841.709     -21858.028      3327.7462     -18530.282      1.0595402    
     90000   293.59736      550.00384      53804         -21858.451      3284.4678     -18573.983      1.0602828    
     90500   301.07991      155.03672      53663.1       -21968.47       3368.175      -18600.295      1.0630668    
     91000   298.89344     -155.73084      53618.868     -21948.773      3343.715      -18605.058      1.0639437    
     91500   299.22316      588.07585      53671.026     -21928.374      3347.4035     -18580.971      1.0629098    
     92000   303.21228     -689.18053      53817.277     -21943.339      3392.0298     -18551.309      1.0600213    
     92500   296.81842      75.132962      53320.65      -21889.579      3320.5017     -18569.077      1.0698943    
     93000   298.2536       424.82777      53331.656     -21928.36       3336.5571     -18591.803      1.0696735    
     93500   296.32332     -27.561838      53399.816     -21836.233      3314.9631     -18521.27       1.0683081    
     94000   304.5104       292.73243      53379.208     -21945.971      3406.5518     -18539.42       1.0687206    
     94500   299.48264     -636.78091      53759.304     -21949.139      3350.3063     -18598.833      1.0611644    
     95000   300.25235     -464.73582      53435         -21927.219      3358.9171     -18568.302      1.0676047    
     95500   300.41079     -68.003987      53336.925     -22026.356      3360.6896     -18665.666      1.0695678    
     96000   296.80653     -376.61607      53610.885     -21922.748      3320.3688     -18602.38       1.0641021    
     96500   296.42076     -1044.2166      53715.6       -21869.338      3316.0532     -18553.285      1.0620277    
     97000   300.72818      279.12873      53236.545     -21953.777      3364.2402     -18589.537      1.0715845    
     97500   300.57024      663.27384      53508.272     -21917.184      3362.4733     -18554.71       1.0661428    
     98000   303.20409      210.95046      53310.233     -21942.189      3391.9381     -18550.251      1.0701033    
     98500   304.5583      -272.9755       53158.155     -21893.374      3407.0877     -18486.286      1.0731647    
     99000   298.45343      277.72154      53196.484     -21883.886      3338.7926     -18545.093      1.0723915    
     99500   297.9524      -136.75189      53292.413     -21901.174      3333.1875     -18567.986      1.0704612    
    100000   300.67097     -1304.2827      53543.518     -21999.079      3363.6001     -18635.479      1.065441     
    100010   296.09633     -791.33423      53543.502     -21943.382      3312.4237     -18630.958      1.0654413    
Loop time of 2133.13 on 5 procs for 50000 steps with 5541 atoms

Performance: 4.050 ns/day, 5.925 hours/ns, 23.440 timesteps/s, 129.880 katom-step/s
341.7% CPU use with 1 MPI tasks x 5 OpenMP threads

MPI task timing breakdown:
Section |  min time  |  avg time  |  max time  |%varavg| %total
---------------------------------------------------------------
Pair    | 87.939     | 87.939     | 87.939     |   0.0 |  4.12
Bond    | 0.85662    | 0.85662    | 0.85662    |   0.0 |  0.04
Kspace  | 1092.1     | 1092.1     | 1092.1     |   0.0 | 51.20
Neigh   | 0.12053    | 0.12053    | 0.12053    |   0.0 |  0.01
Comm    | 22.876     | 22.876     | 22.876     |   0.0 |  1.07
Output  | 0.057746   | 0.057746   | 0.057746   |   0.0 |  0.00
Modify  | 920.25     | 920.25     | 920.25     |   0.0 | 43.14
Other   |            | 8.914      |            |       |  0.42

Nlocal:           5541 ave        5541 max        5541 min
Histogram: 1 0 0 0 0 0 0 0 0 0
Nghost:          35629 ave       35629 max       35629 min
Histogram: 1 0 0 0 0 0 0 0 0 0
Neighs:              0 ave           0 max           0 min
Histogram: 1 0 0 0 0 0 0 0 0 0

Total # of neighbors = 0
Ave neighs/atom = 0
Ave special neighs/atom = 2.4872767
Neighbor list builds = 4629
Dangerous builds = 0

thermo 1000  # Return to normal frequency

unfix mynpt_ramp
undump ramp_dcd

write_restart pressure_ramp_complete.restart
System init for write_restart ...
PPPM initialization ...
  extracting TIP4P info from pair style
  using 12-bit tables for long-range coulomb
  G vector (1/distance) = 0.28856315
  grid = 50 50 50
  stencil order = 5
  estimated absolute RMS force accuracy = 0.00032554543
  estimated relative force accuracy = 9.803704e-07
  using double precision FFTW3
  3d grid and FFT values/proc = 205379 125000
Generated 0 of 3 mixed pair_coeff terms from geometric mixing rule
write_data pressure_ramp_complete.data
System init for write_data ...
PPPM initialization ...
  extracting TIP4P info from pair style
  using 12-bit tables for long-range coulomb
  G vector (1/distance) = 0.28856315
  grid = 50 50 50
  stencil order = 5
  estimated absolute RMS force accuracy = 0.00032554543
  estimated relative force accuracy = 9.803704e-07
  using double precision FFTW3
  3d grid and FFT values/proc = 205379 125000
Generated 0 of 3 mixed pair_coeff terms from geometric mixing rule
WARNING: Not all mixed pair coeffs generated from mixing. Use write_data with 'pair ij' option to store all pair coeffs. (src/write_data.cpp:364)

# ğŸ”§ CHECKPOINT #3: Critical check after ramp (most likely failure point)
variable current_dens equal density
variable current_press equal press
variable current_vol equal vol
variable current_boxsize equal vol^(1.0/3.0)

print ""

print "Pressure ramp complete:"
Pressure ramp complete:
print "  Density:  ${current_dens} g/cmÂ³"
  Density:  1.06544128082951 g/cm³
print "  Pressure: ${current_press} atm"
  Pressure: -791.334228857383 atm
print "  Volume:   ${current_vol} Ã…Â³"
  Volume:   53543.5022489303 …³
print "  Box size: ${current_boxsize} Ã…"
  Box size: 37.6908204798673 …

if "${current_dens} < 0.75" then     "print ''"     "print 'ğŸ”´ CRITICAL ERROR: Density collapsed to ${current_dens} g/cmÂ³!'"     "print ''"     "print 'This means the PPPM artifact occurred despite fixes.'"     "print 'Check equilibration.log for pressure spike around step 75,000-85,000'"     "print ''"     "print 'If pressure exceeded 10,000 atm during ramp:'"     "print '  â†’ PPPM grid still recalculating (increase mesh size)'"     "print '  â†’ Try mesh 50 50 50 or mesh 60 60 60'"     "print ''"     "print 'If pressure stayed < 1,000 atm but density still dropped:'"     "print '  â†’ Initial configuration may be problematic'"     "print '  â†’ Check initial_system.data for pre-existing issues'"     "print ''"     "quit 1"

print "âœ“ Checkpoint 3 PASSED: Pressure ramp successful, liquid phase maintained"
œ“ Checkpoint 3 PASSED: Pressure ramp successful, liquid phase maintained

#==============================================================================
# STAGE 3: NPT Equilibration (Complete 1000 ps with 2-phase strategy)
#==============================================================================
print ""

print "===== STAGE 3: NPT Equilibration (1000 ps, GPU) ====="
===== STAGE 3: NPT Equilibration (1000 ps, GPU) =====
print "Equilibrating at 300K, 1 atm with improved pressure control"
Equilibrating at 300K, 1 atm with improved pressure control
print ""

print "Strategy:"
Strategy:
print "  Phase 1 (400 ps): Higher damping for gentle pressure equilibration"
  Phase 1 (400 ps): Higher damping for gentle pressure equilibration
print "  Phase 2 (600 ps): Standard damping for final equilibration"
  Phase 2 (600 ps): Standard damping for final equilibration
print ""


# Phase 1: Gentle NPT with stronger pressure damping (400 ps)
print "Phase 1: Gentle pressure equilibration (400 ps, pdamp=5000)..."
Phase 1: Gentle pressure equilibration (400 ps, pdamp=5000)...
# ğŸ”§ CRITICAL: Using npt/gpu instead of npt for FULL GPU acceleration
fix mynpt_gentle all npt/gpu temp 300.0 300.0 100.0 iso 1.0 1.0 5000.0

dump npt_traj all custom 2000 npt_equilibration.lammpstrj id type xu yu zu
dump_modify npt_traj sort id

dump npt_dcd all dcd 2000 npt_equilibration.dcd
dump_modify npt_dcd unwrap yes

# Thermodynamic averaging during NPT
fix thermo_avg_npt all ave/time 100 10 1000 v_epsilon_co v_temp v_press v_pe v_ke v_etotal v_vol v_dens     file npt_equilibration_thermo.dat

run 200000  # 400 ps at 2 fs timestep
PPPM initialization ...
  extracting TIP4P info from pair style
  using 12-bit tables for long-range coulomb
  G vector (1/distance) = 0.28856315
  grid = 50 50 50
  stencil order = 5
  estimated absolute RMS force accuracy = 0.00032554543
  estimated relative force accuracy = 9.803704e-07
  using double precision FFTW3
  3d grid and FFT values/proc = 205379 125000
Generated 0 of 3 mixed pair_coeff terms from geometric mixing rule
Per MPI rank memory allocation (min/avg/max) = 52.14 | 52.14 | 52.14 Mbytes
   Step          Temp          Press          Volume         PotEng         KinEng         TotEng        Density    
    100010   296.09633     -791.15747      53543.502     -21943.414      3312.4237     -18630.99       1.0654413    
    101000   305.53449     -204.49885      53240.349     -22065.437      3418.0083     -18647.429      1.071508     
    102000   297.06964     -345.99703      53462.007     -21903.23       3323.3122     -18579.918      1.0670654    
    103000   287.52035      415.8729       53968.58      -21908.268      3216.4845     -18691.784      1.0570495    
    104000   305.99884      357.42001      53739.168     -21930.084      3423.2029     -18506.881      1.061562     
    105000   301.88212     -250.23817      53767.962     -21963.588      3377.1493     -18586.439      1.0609935    
    106000   299.19818      590.34159      53664.123     -21987.916      3347.1241     -18640.792      1.0630465    
    107000   304.8814       230.65122      53855.22      -21910.523      3410.7022     -18499.821      1.0592744    
    108000   300.73099     -37.090391      53588.069     -21987.506      3364.2716     -18623.235      1.0645552    
    109000   300.70654      935.2835       53487.529     -21933.127      3363.9981     -18569.129      1.0665562    
    110000   292.8404      -652.61064      53900.772     -21906.618      3275.9997     -18630.618      1.0583792    
    111000   296.70487     -213.65132      53343.738     -21917.717      3319.2315     -18598.486      1.0694312    
    112000   303.77418     -27.820638      53560.289     -21941.672      3398.3157     -18543.356      1.0651074    
    113000   306.41566     -236.29768      54349.984     -21840.161      3427.8659     -18412.295      1.0496315    
    114000   294.74547      179.64942      53814.634     -21992.266      3297.3117     -18694.954      1.0600733    
    115000   297.26183      465.80088      53538.012     -21790.302      3325.4622     -18464.84       1.0655505    
    116000   299.65505     -51.83977       53671.679     -21876.802      3352.235      -18524.567      1.0628968    
    117000   286.9236       186.83397      53665.946     -21847.921      3209.8087     -18638.112      1.0630104    
    118000   298.81555      367.60278      53794.485     -21880.374      3342.8436     -18537.53       1.0604704    
    119000   294.60948      541.09394      53635.225     -21911.978      3295.7904     -18616.188      1.0636193    
    120000   300.4054       149.12041      53776.257     -21986.848      3360.6292     -18626.219      1.0608298    
    121000   304.85549      523.49086      53745.992     -21901.082      3410.4123     -18490.669      1.0614272    
    122000   305.06812     -347.70903      54186.515     -21819.521      3412.791      -18406.73       1.052798     
    123000   304.78454     -1035.5222      54042.159     -21886.838      3409.6186     -18477.219      1.0556103    
    124000   294.30495      539.88334      54000.455     -21860.182      3292.3837     -18567.799      1.0564255    
    125000   295.62144      212.05255      53991.713     -21783.007      3307.1112     -18475.895      1.0565965    
    126000   295.78253      207.94915      53658.572     -21923.531      3308.9133     -18614.618      1.0631565    
    127000   299.39493      288.62631      53554.179     -21880.178      3349.3251     -18530.853      1.0652289    
    128000   306.02496      464.5132       53487.16      -22036.644      3423.4951     -18613.149      1.0665636    
    129000   301.90197     -13.626779      53600.563     -22047.514      3377.3714     -18670.142      1.0643071    
    130000   300.19233     -573.4786       53918.555     -22028.417      3358.2456     -18670.171      1.0580302    
    131000   299.98293      26.442609      53589.063     -22001.807      3355.903      -18645.904      1.0645355    
    132000   300.30829      684.38303      52969.509     -22038.839      3359.5428     -18679.296      1.0769867    
    133000   297.9178      -571.63106      53837.531     -22004.404      3332.8005     -18671.603      1.0596225    
    134000   293.71808      231.20462      54352.369     -21865.917      3285.8183     -18580.099      1.0495855    
    135000   294.60719      183.69332      53524.484     -21953.097      3295.7648     -18657.332      1.0658199    
    136000   300.57539      535.1083       53519.496     -21887.437      3362.5309     -18524.907      1.0659192    
    137000   295.62211     -727.11245      53396.232     -21975.397      3307.1187     -18668.278      1.0683798    
    138000   303.48714      4.3129126      53134.031     -21803.658      3395.1046     -18408.554      1.073652     
    139000   309.91715     -490.41034      54023.867     -21828.947      3467.037      -18361.909      1.0559677    
    140000   307.47404      76.383222      53508.266     -21977.282      3439.706      -18537.576      1.0661429    
    141000   299.81474      129.97493      53139.402     -21896.813      3354.0216     -18542.792      1.0735435    
    142000   294.07546     -373.75054      53292.988     -21972.652      3289.8163     -18682.835      1.0704496    
    143000   299.35833      430.38377      53404.035     -21889.111      3348.9157     -18540.196      1.0682237    
    144000   304.83168     -584.58         53386.164     -21871.447      3410.146      -18461.301      1.0685813    
    145000   300.13668     -375.75873      53386.618     -21854.188      3357.6231     -18496.565      1.0685722    
    146000   300.59365     -17.491665      53752.846     -21897.748      3362.7352     -18535.013      1.0612919    
    147000   300.23954     -330.02886      53388.468     -21991.756      3358.7738     -18632.982      1.0685352    
    148000   304.07129     -240.57506      53422.542     -21893.41       3401.6395     -18491.771      1.0678537    
    149000   302.22588     -567.19638      53963.964     -21887.048      3380.9949     -18506.053      1.0571399    
    150000   299.89983     -397.75651      53638.125     -21942.383      3354.9734     -18587.409      1.0635617    
    151000   299.39553      106.67574      53130.1       -21930.349      3349.3319     -18581.017      1.0737314    
    152000   299.44598     -950.93793      53662.379     -21962.854      3349.8962     -18612.958      1.063081     
    153000   299.99888     -646.91846      53907.754     -21712.471      3356.0815     -18356.389      1.0582422    
    154000   303.60977     -55.161029      53100.906     -21986.601      3396.4764     -18590.124      1.0743217    
    155000   303.39872      62.722494      53303.834     -21938.601      3394.1154     -18544.486      1.0702318    
    156000   305.53482      224.12559      53895.283     -21987.251      3418.0119     -18569.239      1.058487     
    157000   304.77388     -226.21335      53919.662     -22033.949      3409.4994     -18624.45       1.0580084    
    158000   298.31147      8.5048105      53732.995     -21918.557      3337.2045     -18581.352      1.0616839    
    159000   302.20596      105.46588      54077.44      -21905.623      3380.7721     -18524.851      1.0549216    
    160000   298.20423     -241.49124      53879.116     -21814.822      3336.0048     -18478.817      1.0588046    
    161000   301.11123     -130.08714      53449.05      -21998.061      3368.5254     -18629.535      1.0673241    
    162000   298.90677      444.38827      53577.952     -21988.393      3343.8641     -18644.529      1.0647562    
    163000   303.62547      1001.6299      53097.914     -22004.544      3396.6521     -18607.891      1.0743823    
    164000   295.8271       128.37346      54074.948     -21912.871      3309.4119     -18603.459      1.0549702    
    165000   297.22522      219.25513      53794.398     -21897.005      3325.0526     -18571.953      1.0604721    
    166000   297.85791     -303.88606      52999.212     -21954.596      3332.1305     -18622.466      1.0763831    
    167000   300.15422      857.83988      53043.711     -21810.552      3357.8193     -18452.733      1.0754801    
    168000   297.69921      735.26953      53292.883     -21872.226      3330.3552     -18541.871      1.0704517    
    169000   292.83886     -308.66713      53807.222     -21854.837      3275.9825     -18578.855      1.0602193    
    170000   300.54982     -287.35794      54094.189     -21895.564      3362.2449     -18533.32       1.0545949    
    171000   298.42861     -40.079289      53585.046     -21928.997      3338.515      -18590.482      1.0646153    
    172000   302.28538     -290.9616       53924.253     -21941.469      3381.6605     -18559.809      1.0579184    
    173000   298.79941      27.743357      54193.285     -21963.957      3342.6631     -18621.294      1.0526665    
    174000   300.91803     -203.15966      53895.825     -21882.674      3366.364      -18516.31       1.0584764    
    175000   302.62809      333.98538      53943.094     -22051.957      3385.4944     -18666.462      1.0575489    
    176000   308.51738      839.59294      53474.024     -21931.564      3451.3778     -18480.186      1.0668256    
    177000   302.9193      -334.0269       53687.609     -21837.347      3388.7522     -18448.595      1.0625814    
    178000   299.30949      21.008482      53814.922     -21857.708      3348.3694     -18509.339      1.0600676    
    179000   297.20839      213.4595       53197.124     -21828.558      3324.8643     -18503.693      1.0723786    
    180000   310.48479     -252.00484      53710.825     -21784.31       3473.3872     -18310.923      1.0621222    
    181000   305.1812      -148.09825      53670.566     -21934.854      3414.056      -18520.797      1.0629189    
    182000   305.34295      230.91505      53557.455     -21830.59       3415.8655     -18414.724      1.0651637    
    183000   302.08449      287.93701      53453.08      -21871.624      3379.4132     -18492.211      1.0672436    
    184000   294.78937     -80.264048      53698.404     -21998.733      3297.8029     -18700.93       1.0623679    
    185000   306.59656      273.79218      53484.08      -21996.431      3429.8896     -18566.541      1.066625     
    186000   292.35583     -1141.0722      54113.419     -21905.756      3270.5788     -18635.177      1.0542202    
    187000   304.50329      142.04226      53518.721     -21866.376      3406.4723     -18459.904      1.0659346    
    188000   298.53452     -1205.9424      53753.108     -21914.78       3339.6997     -18575.08       1.0612867    
    189000   306.09222     -407.31604      53876.274     -22046.951      3424.2476     -18622.703      1.0588605    
    190000   297.81362      635.03328      53889.54      -22004.699      3331.635      -18673.064      1.0585998    
    191000   297.58448      15.281993      54110.835     -22038.463      3329.0716     -18709.391      1.0542705    
    192000   304.07844     -132.01197      53923.851     -21871.777      3401.7195     -18470.057      1.0579263    
    193000   302.18564     -233.49089      53228.405     -21870.315      3380.5448     -18489.77       1.0717484    
    194000   305.17883     -33.030365      53574.674     -21882.074      3414.0296     -18468.044      1.0648214    
    195000   300.62216      765.8125       53547.058     -21889.814      3363.0542     -18526.76       1.0653705    
    196000   305.07567      822.50106      53160.225     -21974.329      3412.8755     -18561.454      1.073123     
    197000   302.16684     -313.24419      53746.047     -21871.561      3380.3344     -18491.227      1.0614261    
    198000   305.61704     -343.61013      53765.715     -21963.122      3418.9317     -18544.19       1.0610378    
    199000   304.09689      280.45282      53641.477     -21850.259      3401.9259     -18448.333      1.0634953    
    200000   301.71301     -32.671206      53392.464     -21908.665      3375.2574     -18533.408      1.0684552    
    201000   296.79904     -675.61832      53600.267     -21954.102      3320.285      -18633.817      1.0643129    
    202000   297.20234     -65.120874      53616.763     -21824.952      3324.7967     -18500.156      1.0639855    
    203000   308.36805      292.27534      53291.254     -22020.796      3449.7073     -18571.089      1.0704844    
    204000   301.79032     -149.43487      53748.682     -21960.332      3376.1223     -18584.209      1.0613741    
    205000   303.87024     -382.58313      53832.269     -22025.523      3399.3903     -18626.132      1.059726     
    206000   300.15217      243.42888      53537.089     -21907.012      3357.7964     -18549.215      1.0655689    
    207000   293.3704      -154.78505      53371.136     -21946.598      3281.9288     -18664.669      1.0688822    
    208000   295.77315     -443.63924      53583.73      -21839.857      3308.8084     -18531.048      1.0646414    
    209000   304.60231     -443.4656       53883.177     -21998.489      3407.58       -18590.909      1.0587248    
    210000   303.83561     -17.804441      53820.963     -21982.701      3399.0029     -18583.698      1.0599487    
    211000   294.81181     -442.73186      53894.664     -21854.981      3298.0539     -18556.927      1.0584992    
    212000   297.91586     -400.56561      53308.775     -22004.806      3332.7788     -18672.027      1.0701326    
    213000   302.66719      122.41794      53475.467     -21952.226      3385.9318     -18566.294      1.0667968    
    214000   296.93045     -885.9337       53894.57      -21977.23       3321.755      -18655.475      1.058501     
    215000   301.01346     -748.91922      53993.28      -21993.8        3367.4316     -18626.369      1.0565659    
    216000   298.978        249.73898      54116.943     -21780.985      3344.6609     -18436.324      1.0541515    
    217000   301.88306     -433.13148      54031.631     -21902.756      3377.1597     -18525.597      1.0558159    
    218000   302.94761     -471.09362      53234.935     -21910.868      3389.0689     -18521.799      1.0716169    
    219000   295.37827     -284.68211      53321.425     -21916.058      3304.3909     -18611.667      1.0698787    
    220000   302.15557     -571.6903       53559.598     -21983.729      3380.2084     -18603.521      1.0651211    
    221000   296.16867      599.35296      53803.043     -22068.034      3313.233      -18754.801      1.0603017    
    222000   302.4944       540.34646      53446.933     -21906.086      3383.9988     -18522.087      1.0673664    
    223000   301.0517      -679.61678      54011.159     -21936.537      3367.8593     -18568.677      1.0562161    
    224000   294.87299     -196.16768      53801.652     -21909.731      3298.7383     -18610.993      1.0603291    
    225000   301.74812      445.81295      53052.688     -21893.391      3375.6503     -18517.741      1.0752982    
    226000   303.09384      634.42138      53629.175     -21905.124      3390.7048     -18514.42       1.0637392    
    227000   300.09649      49.764846      53791.539     -21825.153      3357.1734     -18467.98       1.0605284    
    228000   307.52936      903.99844      53192.095     -21888.805      3440.3248     -18448.48       1.07248      
    229000   301.88465     -1238.7809      54048.154     -21874.86       3377.1776     -18497.682      1.0554932    
    230000   295.74063      93.019079      53654.948     -21863.367      3308.4446     -18554.922      1.0632283    
    231000   300.45314      528.39156      53362.333     -21969.342      3361.1633     -18608.178      1.0690585    
    232000   304.24678     -277.06993      53928.006     -21820.827      3403.6027     -18417.224      1.0578447    
    233000   308.15617     -560.63218      54062.336     -21931.941      3447.337      -18484.604      1.0552163    
    234000   302.28346     -1027.1287      53285.732     -22013.042      3381.639      -18631.403      1.0705954    
    235000   298.3661       370.8603       52964.082     -21924.271      3337.8156     -18586.456      1.0770971    
    236000   294.94207     -179.38459      53649.438     -21939.521      3299.5111     -18640.01       1.0633375    
    237000   299.17619      311.27334      53689.775     -21920.213      3346.8781     -18573.335      1.0625386    
    238000   301.88521     -0.66247593     53256.948     -21925.212      3377.1838     -18548.028      1.071174     
    239000   300.63164      17.576675      53752.124     -21741.123      3363.1602     -18377.963      1.0613061    
    240000   297.87098     -193.0409       53773.347     -21794.324      3332.2768     -18462.048      1.0608872    
    241000   302.59277      1012.0946      53384.379     -21893.972      3385.0993     -18508.873      1.068617     
    242000   296.89971     -23.593852      53311.229     -21827.495      3321.4112     -18506.083      1.0700833    
    243000   295.38006     -574.32307      53301.983     -21800.546      3304.4109     -18496.135      1.070269     
    244000   292.67306      719.15649      53571.614     -21984.076      3274.1277     -18709.948      1.0648822    
    245000   299.68236      65.683876      53974.396     -21988.713      3352.5406     -18636.172      1.0569355    
    246000   305.25685      346.6247       53939.704     -21917.534      3414.9023     -18502.632      1.0576153    
    247000   301.77943      1024.7045      53540.383     -21887.206      3376.0005     -18511.206      1.0655034    
    248000   297.26537      483.57071      53954.362     -21847.428      3325.5018     -18521.926      1.057328     
    249000   307.56427     -316.03146      53934.445     -21860.295      3440.7154     -18419.579      1.0577184    
    250000   307.52707      99.653303      53725.699     -21880.804      3440.2992     -18440.505      1.0618281    
    251000   305.18043      233.96232      52952.625     -21836.619      3414.0475     -18422.572      1.0773301    
    252000   302.21166     -21.259609      53398.845     -21874.334      3380.8358     -18493.498      1.0683276    
    253000   293.93081      520.1411       53561.369     -21991.06       3288.1982     -18702.861      1.0650859    
    254000   302.44973     -108.88275      53329.452     -22111.89       3383.4991     -18728.391      1.0697177    
    255000   305.35715      541.54878      53807.274     -21890.94       3416.0244     -18474.916      1.0602183    
    256000   297.70794     -44.788862      53812.827     -21970.986      3330.4528     -18640.534      1.0601089    
    257000   298.97156     -517.01169      53174.34      -21938.955      3344.5889     -18594.367      1.0728381    
    258000   301.97151     -19.740298      53729.274     -21828.625      3378.1492     -18450.475      1.0617575    
    259000   302.87639     -586.89737      54014.605     -21915.029      3388.2721     -18526.757      1.0561488    
    260000   295.34584     -56.364128      53703.561     -21899.828      3304.0281     -18595.8        1.0622658    
    261000   300.48095     -1158.7568      53438.691     -21903.613      3361.4744     -18542.139      1.067531     
    262000   300.01614      362.19348      53870.539     -21937.133      3356.2746     -18580.858      1.0589732    
    263000   302.473        269.71404      54101.233     -21898.645      3383.7595     -18514.885      1.0544576    
    264000   311.98296     -370.04343      53436.989     -21998.724      3490.1472     -18508.577      1.067565     
    265000   296.89975     -395.03317      53652.58      -21833.551      3321.4116     -18512.139      1.0632752    
    266000   295.71219     -1110.7052      53763.597     -21862.593      3308.1264     -18554.466      1.0610796    
    267000   301.19787     -28.454622      53621.63      -21844.012      3369.4946     -18474.517      1.0638889    
    268000   294.1793       928.90129      53908.9       -21885.283      3290.978      -18594.305      1.0582197    
    269000   293.51875     -173.27133      53651.451     -22011.442      3283.5884     -18727.854      1.0632976    
    270000   299.3345      -113.25495      53714.086     -21979.808      3348.6492     -18631.159      1.0620577    
    271000   296.55551     -214.55291      53685.782     -21952.942      3317.5606     -18635.382      1.0626176    
    272000   299.91088      435.18224      53620.39      -21979.531      3355.0971     -18624.434      1.0639135    
    273000   300.06432     -336.70831      54138.824     -21966.484      3356.8136     -18609.671      1.0537255    
    274000   293.02126     -236.18372      53831.859     -21975.283      3278.0231     -18697.259      1.0597341    
    275000   299.96321     -549.30058      53439.648     -21921.264      3355.6825     -18565.581      1.0675118    
    276000   306.71762     -346.05236      53823.914     -21820.445      3431.244      -18389.202      1.0598906    
    277000   298.8728      -657.16131      54316.5       -21996.078      3343.4841     -18652.594      1.0502786    
    278000   304.73935     -3.5724819      53711.491     -21907.799      3409.113      -18498.686      1.062109     
    279000   295.69166     -108.99786      53178.257     -21927.777      3307.8968     -18619.88       1.0727591    
    280000   294.76567     -932.23014      53535.738     -21956.327      3297.5377     -18658.789      1.0655958    
    281000   296.62823      665.27624      53938.122     -21888.373      3318.3741     -18569.999      1.0576463    
    282000   289.86296     -208.89981      53799.561     -21932.882      3242.6912     -18690.191      1.0603703    
    283000   295.06859      588.65138      53580.508     -21957.997      3300.9264     -18657.071      1.0647054    
    284000   300.6762       643.32775      53490.946     -21904.056      3363.6587     -18540.397      1.0664881    
    285000   300.54702      911.34361      53661.852     -21965.548      3362.2136     -18603.334      1.0630915    
    286000   297.52134     -44.409069      53854.094     -21858.434      3328.3653     -18530.069      1.0592966    
    287000   294.47226      178.80667      53707.805     -22047.453      3294.2554     -18753.198      1.0621819    
    288000   302.83668     -570.77586      53585.53      -21899.059      3387.8279     -18511.231      1.0646056    
    289000   296.71578     -374.19946      54143.583     -21956.244      3319.3536     -18636.89       1.0536329    
    290000   303.27639      243.95173      54119.071     -21891.759      3392.747      -18499.012      1.0541101    
    291000   307.24323      317.22952      53563.654     -21905.873      3437.1239     -18468.749      1.0650404    
    292000   306.92326      215.09711      53542.52      -21834.908      3433.5445     -18401.364      1.0654608    
    293000   307.32901      412.27224      53536.084     -21941.898      3438.0835     -18503.815      1.0655889    
    294000   297.47361     -344.68362      53789.852     -21872.748      3327.8314     -18544.917      1.0605617    
    295000   301.65609     -1058.3728      53965.053     -21928.391      3374.6207     -18553.77       1.0571185    
    296000   301.80603     -363.93747      54129.579     -21782.005      3376.2981     -18405.707      1.0539054    
    297000   303.07338     -107.94485      53747.481     -21881.304      3390.4759     -18490.829      1.0613978    
    298000   299.6844      -586.88165      54053.174     -21837.343      3352.5635     -18484.78       1.0553951    
    299000   297.49138      394.87219      53516.794     -21927.62       3328.0302     -18599.59       1.065973     
    300000   295.87776     -239.20645      53534.113     -21915.839      3309.9787     -18605.86       1.0656282    
    300010   304.76291      43.057033      53534.033     -22002.114      3409.3766     -18592.737      1.0656297    
Loop time of 8556.32 on 5 procs for 200000 steps with 5541 atoms

Performance: 4.039 ns/day, 5.942 hours/ns, 23.375 timesteps/s, 129.518 katom-step/s
341.3% CPU use with 1 MPI tasks x 5 OpenMP threads

MPI task timing breakdown:
Section |  min time  |  avg time  |  max time  |%varavg| %total
---------------------------------------------------------------
Pair    | 354.96     | 354.96     | 354.96     |   0.0 |  4.15
Bond    | 3.6685     | 3.6685     | 3.6685     |   0.0 |  0.04
Kspace  | 4380.8     | 4380.8     | 4380.8     |   0.0 | 51.20
Neigh   | 0.4854     | 0.4854     | 0.4854     |   0.0 |  0.01
Comm    | 91.952     | 91.952     | 91.952     |   0.0 |  1.07
Output  | 0.89619    | 0.89619    | 0.89619    |   0.0 |  0.01
Modify  | 3688       | 3688       | 3688       |   0.0 | 43.10
Other   |            | 35.58      |            |       |  0.42

Nlocal:           5541 ave        5541 max        5541 min
Histogram: 1 0 0 0 0 0 0 0 0 0
Nghost:          35745 ave       35745 max       35745 min
Histogram: 1 0 0 0 0 0 0 0 0 0
Neighs:              0 ave           0 max           0 min
Histogram: 1 0 0 0 0 0 0 0 0 0

Total # of neighbors = 0
Ave neighs/atom = 0
Ave special neighs/atom = 2.4872767
Neighbor list builds = 18527
Dangerous builds = 0

unfix mynpt_gentle

variable phase1_dens equal density
variable phase1_press equal press
print ""

print "Phase 1 complete:"
Phase 1 complete:
print "  Density:  ${phase1_dens} g/cmÂ³"
  Density:  1.06562973634583 g/cm³
print "  Pressure: ${phase1_press} atm"
  Pressure: 43.0570333169003 atm
print ""


# Phase 2: Standard NPT damping (600 ps)
print "Phase 2: Final equilibration (600 ps, pdamp=2000)..."
Phase 2: Final equilibration (600 ps, pdamp=2000)...
# ğŸ”§ CRITICAL: Using npt/gpu instead of npt for FULL GPU acceleration
fix mynpt_standard all npt/gpu temp 300.0 300.0 100.0 iso 1.0 1.0 2000.0

run 300000  # 600 ps at 2 fs timestep
PPPM initialization ...
  extracting TIP4P info from pair style
  using 12-bit tables for long-range coulomb
  G vector (1/distance) = 0.28856626
  grid = 50 50 50
  stencil order = 5
  estimated absolute RMS force accuracy = 0.00032549069
  estimated relative force accuracy = 9.8020556e-07
  using double precision FFTW3
  3d grid and FFT values/proc = 205379 125000
Generated 0 of 3 mixed pair_coeff terms from geometric mixing rule
Per MPI rank memory allocation (min/avg/max) = 54.69 | 54.69 | 54.69 Mbytes
   Step          Temp          Press          Volume         PotEng         KinEng         TotEng        Density    
    300010   304.76291      43.529959      53534.033     -22002.075      3409.3766     -18592.699      1.0656297    
    301000   294.26242      162.04697      53377.586     -21815.76       3291.9078     -18523.853      1.068753     
    302000   298.63205      496.45007      53301.924     -21910.952      3340.7908     -18570.161      1.0702701    
    303000   296.13025      213.89001      53107.334     -21895.674      3312.8032     -18582.871      1.0741917    
    304000   301.54556     -38.973269      53926.085     -21786.525      3373.3842     -18413.14       1.0578824    
    305000   296.18299     -685.03366      54082.037     -21806.045      3313.3933     -18492.652      1.0548319    
    306000   299.91701     -75.042303      53031.035     -21875.733      3355.1657     -18520.568      1.0757372    
    307000   300.34746     -143.54534      53889.762     -21912.316      3359.9811     -18552.334      1.0585955    
    308000   303.69014     -257.29012      53671.051     -21962.475      3397.3755     -18565.1        1.0629093    
    309000   296.66182     -854.98943      54127.722     -21792.412      3318.7499     -18473.662      1.0539416    
    310000   299.55387      19.016944      53289.199     -21933.241      3351.1032     -18582.138      1.0705257    
    311000   301.81823     -127.35512      53743.44      -21893.121      3376.4346     -18516.687      1.0614776    
    312000   292.02759     -132.9522       53966.161     -21849.683      3266.9069     -18582.776      1.0570968    
    313000   293.62407      100.32567      53666.001     -21914.235      3284.7666     -18629.469      1.0630093    
    314000   295.35308     -856.71209      53579.183     -21933.555      3304.109      -18629.446      1.0647317    
    315000   302.1094      -489.34033      53793.788     -21909.037      3379.6919     -18529.345      1.0604841    
    316000   296.73833      776.26026      53178.525     -21909.18       3319.6058     -18589.575      1.0727537    
    317000   305.36899      542.87885      53051.142     -21882.45       3416.1568     -18466.294      1.0753295    
    318000   301.29784      252.89421      53359.035     -21907.479      3370.613      -18536.866      1.0691246    
    319000   303.71667      1079.0233      53347.315     -22013.075      3397.6723     -18615.403      1.0693595    
    320000   298.04862      432.03338      54015.52      -21975.087      3334.264      -18640.823      1.0561309    
    321000   306.0525       231.80709      53437.978     -21851.627      3423.8033     -18427.824      1.0675452    
    322000   287.15711     -149.13342      53772.874     -21943.513      3212.4209     -18731.092      1.0608966    
    323000   296.78131      30.723681      54206.447     -21848.832      3320.0867     -18528.746      1.0524109    
    324000   302.54618     -789.55649      53437.425     -21951.94       3384.5781     -18567.361      1.0675563    
    325000   298.2108      -134.09185      53730.017     -21950.727      3336.0783     -18614.649      1.0617428    
    326000   296.98997     -131.27418      53891.798     -21964.212      3322.4209     -18641.791      1.0585555    
    327000   296.93298      121.13383      53613.75      -21800.93       3321.7833     -18479.147      1.0640453    
    328000   296.36386      513.95007      53555.751     -21973.704      3315.4166     -18658.287      1.0651976    
    329000   302.38322      165.31629      53764.047     -21900.497      3382.755      -18517.742      1.0610707    
    330000   292.47199      32.959228      53592.994     -21936.934      3271.8783     -18665.055      1.0644574    
    331000   309.23052      59.072783      53062.268     -21871.027      3459.3556     -18411.671      1.075104     
    332000   292.12834      551.59699      53548.754     -21923.548      3268.034      -18655.514      1.0653368    
    333000   300.29914      150.07919      53848.078     -21841.195      3359.4405     -18481.754      1.0594149    
    334000   295.35377      158.76524      53241.545     -21910.222      3304.1168     -18606.106      1.0714839    
    335000   294.36147     -677.40455      53982.243     -21792.19       3293.0159     -18499.174      1.0567819    
    336000   299.55286     -460.42577      53467.542     -21894.574      3351.0919     -18543.482      1.0669549    
    337000   306.2199       28.354355      53527.499     -21949.711      3425.6759     -18524.036      1.0657598    
    338000   300.33924      509.14295      53722.345     -21842.976      3359.8891     -18483.087      1.0618944    
    339000   296.54358     -142.4981       53990.841     -21888.482      3317.4272     -18571.055      1.0566136    
    340000   301.82622     -575.49597      53681.966     -21900.116      3376.5239     -18523.592      1.0626931    
    341000   294.12767     -237.40593      53604.38      -21928.127      3290.4004     -18637.726      1.0642313    
    342000   304.31254     -56.047713      54034.249     -21973.691      3404.3383     -18569.353      1.0557648    
    343000   297.84457      21.07353       54137.98      -21845.669      3331.9813     -18513.687      1.0537419    
    344000   294.32401      147.03054      53622.01      -22111.303      3292.5968     -18818.706      1.0638814    
    345000   293.96962     -491.6373       53010.233     -21973.085      3288.6323     -18684.453      1.0761594    
    346000   294.79284     -65.90109       53734.719     -22026.799      3297.8417     -18728.957      1.0616499    
    347000   294.31686      205.40148      53875.944     -21866.186      3292.5169     -18573.669      1.058867     
    348000   298.37704      307.05065      53390.275     -21912.704      3337.938      -18574.766      1.068499     
    349000   304.80568      631.11677      53338.585     -21922.392      3409.855      -18512.537      1.0695345    
    350000   304.61608      448.80298      53907.712     -21935.062      3407.734      -18527.328      1.058243     
    351000   299.2528       280.14484      53664.145     -21867.724      3347.7351     -18519.989      1.0630461    
    352000   298.85258     -410.80055      53501.472     -21819.06       3343.2578     -18475.802      1.0662783    
    353000   299.81264      94.45504       53483.376     -21807.077      3353.9981     -18453.079      1.066639     
    354000   297.62127     -122.28739      54026.904     -21905.636      3329.4833     -18576.153      1.0559083    
    355000   309.29338      226.62895      53670.415     -21959.647      3460.0589     -18499.588      1.0629219    
    356000   299.95862      224.89072      53986.413     -21902.766      3355.6311     -18547.135      1.0567003    
    357000   296.09843     -218.34192      53937.953     -21939.506      3312.4472     -18627.059      1.0576497    
    358000   300.56615     -342.02279      54445.006     -21831.763      3362.4275     -18469.335      1.0477996    
    359000   299.76043      470.22475      53596.738     -21985.824      3353.414      -18632.41       1.064383     
    360000   299.95026     -457.213        53753.08      -21981.551      3355.5376     -18626.014      1.0612872    
    361000   301.61376     -63.054939      53351.536     -21914.213      3374.1471     -18540.066      1.0692749    
    362000   300.55821     -1304.4993      54007.545     -21959.849      3362.3388     -18597.51       1.0562868    
    363000   301.56158      395.53489      53754.506     -21912.755      3373.5634     -18539.191      1.0612591    
    364000   306.48152      838.81269      53795.281     -21836.712      3428.6027     -18408.109      1.0604547    
    365000   304.73242     -497.4942       53295.631     -22013.335      3409.0355     -18604.3        1.0703965    
    366000   300.91342     -424.53303      53971.069     -21901.204      3366.3125     -18534.891      1.0570007    
    367000   296.10223      165.58646      53863.187     -21863.326      3312.4897     -18550.836      1.0591178    
    368000   302.16275      676.79981      53359.33      -21927.947      3380.2887     -18547.659      1.0691187    
    369000   297.57356     -494.42298      53616.021     -21909.317      3328.9495     -18580.367      1.0640002    
    370000   301.90961     -345.77213      53731.956     -22005.993      3377.4568     -18628.536      1.0617045    
    371000   290.74166      56.942511      53723.273     -21968.997      3252.5211     -18716.476      1.0618761    
    372000   301.5256       52.694161      53484.612     -21986.588      3373.1609     -18613.427      1.0666144    
    373000   301.39177      428.11827      53900.424     -21916.546      3371.6638     -18544.882      1.0583861    
    374000   300.03483     -1079.6674      54409.902     -21844.211      3356.4837     -18487.727      1.0484757    
    375000   293.44502      356.33131      53470.475     -21906.012      3282.7636     -18623.248      1.0668964    
    376000   306.41214      237.0023       53659.83      -22169.579      3427.8265     -18741.753      1.0631315    
    377000   289.44031      825.36083      53572.954     -21918.212      3237.963      -18680.249      1.0648555    
    378000   294.05202     -686.4317       53536.432     -21923.299      3289.5541     -18633.745      1.065582     
    379000   297.94624      174.24477      53782.235     -21876.978      3333.1186     -18543.859      1.0607119    
    380000   301.77015      355.09419      53892.326     -21939.483      3375.8967     -18563.587      1.0585451    
    381000   302.05538      71.258936      53977.993     -21884.988      3379.0876     -18505.901      1.0568651    
    382000   299.73545      63.790122      53731.321     -21898.131      3353.1345     -18544.997      1.061717     
    383000   301.24689      322.8705       53544.96      -21961.068      3370.043      -18591.025      1.0654123    
    384000   308.23592      415.69228      53686.307     -21938.611      3448.2291     -18490.382      1.0626072    
    385000   300.04891      178.34305      53507.144     -21857.702      3356.6412     -18501.061      1.0661653    
    386000   298.97129     -157.01481      53388.748     -22013.873      3344.5858     -18669.287      1.0685296    
    387000   302.0989       11.706424      53542.786     -21951.12       3379.5744     -18571.546      1.0654555    
    388000   290.59461     -426.63576      54097.634     -21863.238      3250.8761     -18612.362      1.0545278    
    389000   290.21247      52.844851      53693.944     -21916.815      3246.6012     -18670.214      1.0624561    
    390000   304.26985      778.37818      53430.609     -21922.939      3403.8608     -18519.078      1.0676924    
    391000   308.2772       1145.1311      53537.483     -21922.229      3448.691      -18473.538      1.0655611    
    392000   301.23301      358.50333      53337.059     -21826.841      3369.8876     -18456.953      1.0695651    
    393000   304.38418      382.93003      53649.653     -21995.36       3405.1397     -18590.221      1.0633332    
    394000   295.38047     -403.08601      53741.363     -22081.104      3304.4154     -18776.688      1.0615186    
    395000   301.71774      339.51316      53995.082     -21895.19       3375.3103     -18519.879      1.0565306    
    396000   301.24219     -163.26589      54089.663     -21860.004      3369.9904     -18490.014      1.0546832    
    397000   295.2268       38.327915      53439.43      -22039.579      3302.6964     -18736.882      1.0675162    
    398000   300.87952      495.89048      53618.38      -21991.782      3365.9332     -18625.849      1.0639534    
    399000   297.46858     -636.81742      52984.644     -21963.128      3327.7751     -18635.353      1.0766791    
    400000   298.789        247.51625      53623.566     -21942.717      3342.5466     -18600.17       1.0638505    
    401000   301.56212      563.38719      53951.707     -21948.539      3373.5694     -18574.969      1.05738      
    402000   293.52327     -198.28819      54029.923     -21913.697      3283.639      -18630.058      1.0558493    
    403000   298.5805      -815.82257      54082.919     -21930.831      3340.2141     -18590.617      1.0548147    
    404000   297.53893     -449.91785      53499.508     -21908.275      3328.5621     -18579.713      1.0663174    
    405000   304.04674      542.35692      53665.772     -22016.975      3401.3648     -18615.61       1.0630138    
    406000   303.15444      55.834812      53997.435     -21889.418      3391.3827     -18498.036      1.0564846    
    407000   298.04247      239.79844      53536.922     -21917.449      3334.1952     -18583.254      1.0655722    
    408000   302.96058     -242.12967      53639.692     -21808.46       3389.2139     -18419.246      1.0635307    
    409000   302.4696      -517.02703      53806.309     -21834.369      3383.7214     -18450.648      1.0602373    
    410000   297.4308      -446.01904      53736.602     -21846.17       3327.3524     -18518.817      1.0616127    
    411000   298.52718      155.07209      53841.864     -21912.26       3339.6176     -18572.643      1.0595372    
    412000   300.61548     -815.789        54126.665     -21929.572      3362.9795     -18566.592      1.0539622    
    413000   299.03805      388.89913      53991.959     -21729.076      3345.3327     -18383.743      1.0565917    
    414000   295.62269      422.59845      53496.934     -22005.725      3307.1251     -18698.6        1.0663687    
    415000   292.73101     -84.437556      53640.578     -22067.089      3274.7759     -18792.313      1.0635131    
    416000   300.92037     -267.25777      53021.647     -21914.991      3366.3902     -18548.601      1.0759277    
    417000   295.40344      319.43153      53576.06      -21920.649      3304.6724     -18615.976      1.0647938    
    418000   296.51154     -312.80598      54153.634     -21866.077      3317.0687     -18549.008      1.0534373    
    419000   297.07775     -651.63596      53763.778     -21939.48       3323.4029     -18616.077      1.0610761    
    420000   298.57002     -349.58521      53738.018     -21684.367      3340.0969     -18344.271      1.0615847    
    421000   306.47365     -859.05246      53903.078     -22006.143      3428.5146     -18577.629      1.058334     
    422000   302.02921     -52.610197      53364.655     -21958.631      3378.7948     -18579.836      1.069012     
    423000   301.18507     -101.44664      53879.416     -21991.232      3369.3514     -18621.88       1.0587987    
    424000   299.84396     -52.316895      53225.287     -21873.325      3354.3485     -18518.977      1.0718112    
    425000   298.93542      627.2991       53339.214     -21921.027      3344.1847     -18576.842      1.0695219    
    426000   299.73789     -240.77721      54162.573     -21905.503      3353.1619     -18552.341      1.0532634    
    427000   307.80481     -553.84859      53565.629     -21883.428      3443.4063     -18440.022      1.0650012    
    428000   294.65826     -328.79067      53886.859     -21939.48       3296.3361     -18643.144      1.0586525    
    429000   296.62978      419.65929      53335.192     -21897.634      3318.3914     -18579.243      1.0696025    
    430000   309.19457      168.71076      53296.645     -21959.483      3458.9535     -18500.529      1.0703762    
    431000   295.61221      310.94365      53849.329     -22037.013      3307.0079     -18730.006      1.0593903    
    432000   305.38997     -244.35193      53759.757     -21868.733      3416.3915     -18452.341      1.0611554    
    433000   296.38572     -913.86885      53966.467     -21881.324      3315.6612     -18565.663      1.0570908    
    434000   296.71548      62.367978      53518.094     -21782.698      3319.3502     -18463.348      1.0659471    
    435000   294.86156     -320.19825      53937.648     -21781.793      3298.6104     -18483.183      1.0576556    
    436000   298.70318      622.50299      53734.345     -21895.436      3341.5866     -18553.85       1.0616573    
    437000   299.25255      54.430486      53600.569     -21943.096      3347.7323     -18595.364      1.0643069    
    438000   299.91036      352.81912      53188.06      -21847.012      3355.0913     -18491.921      1.0725614    
    439000   297.09871      497.70729      53575.392     -21901.896      3323.6373     -18578.259      1.0648071    
    440000   295.94669     -556.7743       53280.394     -21902.195      3310.7497     -18591.445      1.0707026    
    441000   299.54571      165.09763      53443.104     -21881.608      3351.0119     -18530.596      1.0674428    
    442000   299.8999       131.3881       53890.725     -21977.66       3354.9742     -18622.686      1.0585766    
    443000   297.19005     -175.70782      52990.145     -21923.933      3324.6592     -18599.274      1.0765673    
    444000   305.18966     -768.6544       53133.738     -21933.175      3414.1506     -18519.024      1.0736579    
    445000   303.89121     -315.04785      53687.67      -21982.287      3399.6249     -18582.662      1.0625802    
    446000   299.50712      17.06594       54048.784     -21888.386      3350.5802     -18537.806      1.0554809    
    447000   303.44732      682.44497      54022.781     -21843.804      3394.6591     -18449.145      1.0559889    
    448000   294.33083     -119.31635      53663.58      -22039.234      3292.6731     -18746.56       1.0630572    
    449000   301.92403      848.27018      53404.478     -21901.727      3377.6181     -18524.109      1.0682149    
    450000   300.22096     -83.327952      53643.306     -21979.844      3358.5659     -18621.278      1.063459     
    451000   302.61566      315.0453       54204.644     -21939.035      3385.3554     -18553.68       1.0524459    
    452000   297.55333      822.06672      53946.219     -21947.303      3328.7232     -18618.58       1.0574876    
    453000   304.63849     -690.17195      53922.117     -22010.662      3407.9848     -18602.678      1.0579603    
    454000   301.17949     -209.8529       53926.512     -21839.033      3369.289      -18469.744      1.057874     
    455000   305.37114      411.10046      53248.868     -21914.985      3416.1809     -18498.804      1.0713365    
    456000   301.3925       506.81444      53441.793     -21832.04       3371.6719     -18460.368      1.067469     
    457000   298.12782      807.95074      53677.359     -21960.26       3335.15       -18625.11       1.0627844    
    458000   296.56991      1037.1708      53619.043     -21914.602      3317.7217     -18596.881      1.0639402    
    459000   303.62829     -251.96178      53765.688     -21916.114      3396.6836     -18519.43       1.0610384    
    460000   293.25274     -99.747207      53436.887     -21882.568      3280.6125     -18601.956      1.067567     
    461000   297.98735     -966.18769      54051.074     -21902.433      3333.5786     -18568.854      1.0554362    
    462000   296.30921      202.4807       53631.588     -21815.174      3314.8052     -18500.369      1.0636914    
    463000   302.29868      310.28952      53773.706     -21912.597      3381.8093     -18530.788      1.0608802    
    464000   306.71317      132.80107      53423.616     -22008.755      3431.1941     -18577.561      1.0678322    
    465000   297.38012     -226.42617      53584.765     -21863.274      3326.7855     -18536.489      1.0646208    
    466000   305.37028      760.76033      53232.899     -21910.091      3416.1713     -18493.919      1.0716579    
    467000   300.4623       397.04985      53818.19      -21887.387      3361.2657     -18526.122      1.0600033    
    468000   298.48472     -397.61634      53105.721     -21847.193      3339.1427     -18508.051      1.0742243    
    469000   296.13993     -30.189433      53552.798     -21843.921      3312.9115     -18531.01       1.0652563    
    470000   294.5274      -187.07642      53806.175     -22017.195      3294.8722     -18722.323      1.06024      
    471000   305.17607     -125.53767      53667.881     -21981.273      3413.9986     -18567.275      1.0629721    
    472000   299.51736      20.341918      53738.333     -21812.946      3350.6948     -18462.251      1.0615785    
    473000   302.57535     -145.33         53572.309     -21782.429      3384.9044     -18397.525      1.0648684    
    474000   291.45958     -145.63265      53182.943     -21959.479      3260.5526     -18698.926      1.0726646    
    475000   302.22919     -906.85689      53896.233     -21975.412      3381.032      -18594.381      1.0584684    
    476000   305.38409     -187.09874      54041.06      -21936.511      3416.3257     -18520.185      1.0556317    
    477000   298.1135      -600.151        53807.51      -21847.913      3334.9898     -18512.924      1.0602137    
    478000   296.84629      196.21681      53873.805     -21827.706      3320.8136     -18506.892      1.058909     
    479000   295.19157      317.99447      53348.292     -21944.057      3302.3022     -18641.755      1.0693399    
    480000   302.03973     -744.9269       53642.277     -21942.422      3378.9125     -18563.509      1.0634794    
    481000   303.01258     -706.06376      53980.368     -21873.774      3389.7957     -18483.978      1.0568186    
    482000   300.22445     -68.709041      53897.998     -21873.832      3358.6049     -18515.227      1.0584337    
    483000   303.57438      239.72742      53683.686     -21979.789      3396.0805     -18583.708      1.0626591    
    484000   298.81232     -1236.1304      54027.434     -21894.845      3342.8074     -18552.038      1.055898     
    485000   297.64852      149.50499      53269.294     -22044.557      3329.7881     -18714.769      1.0709257    
    486000   296.82549     -349.3241       53380.5       -21881.348      3320.5809     -18560.767      1.0686947    
    487000   306.01868     -371.6479       53626.014     -22017.187      3423.4249     -18593.762      1.0638019    
    488000   298.41098     -155.84118      53308.141     -21854.668      3338.3177     -18516.351      1.0701453    
    489000   296.62656     -328.4653       53800.835     -21916.693      3318.3555     -18598.338      1.0603452    
    490000   298.94687     -88.599598      53832.891     -21927.134      3344.3127     -18582.821      1.0597138    
    491000   299.05005     -87.323422      53479.366     -21907.882      3345.467      -18562.415      1.066719     
    492000   306.11968     -539.30255      53199.811     -21999.779      3424.5547     -18575.225      1.0723244    
    493000   304.09853     -54.397141      53214.475     -21914.037      3401.9442     -18512.093      1.0720289    
    494000   305.34255     -137.7481       53852.768     -21778.517      3415.861      -18362.656      1.0593227    
    495000   296.26508     -324.38722      53777.885     -21912.907      3314.3116     -18598.595      1.0607977    
    496000   306.21697      302.99888      54236.806     -21880.588      3425.6432     -18454.945      1.0518218    
    497000   290.86597      447.88204      53947.652     -21890.108      3253.9119     -18636.196      1.0574595    
    498000   304.54621      305.26872      54166.386     -21874.624      3406.9524     -18467.671      1.0531893    
    499000   303.20724      178.28475      53676.746     -21852.7        3391.9733     -18460.727      1.0627965    
    500000   304.2789      -381.57775      53772.456     -21983.249      3403.962      -18579.286      1.0609048    
    501000   305.93945      281.04568      53851.008     -21954.782      3422.5385     -18532.244      1.0593573    
    502000   300.24768     -64.030389      53365.187     -22019.68       3358.8648     -18660.815      1.0690014    
    503000   299.1097       311.46523      53408.549     -21901.437      3346.1343     -18555.302      1.0681334    
    504000   293.36921     -1150.9582      53534.05      -21985.535      3281.9155     -18703.62       1.0656294    
    505000   302.08879     -1204.8732      54175.127     -21923.391      3379.4613     -18543.929      1.0530194    
    506000   296.89397      268.7989       53365.172     -21980.518      3321.3469     -18659.171      1.0690017    
    507000   296.79795     -312.96248      53978.763     -22018.987      3320.2727     -18698.714      1.05685      
    508000   300.8419      -124.59419      53599.093     -22033.585      3365.5124     -18668.072      1.0643362    
    509000   294.87024      8.5130824      53640.354     -21868.285      3298.7075     -18569.578      1.0635175    
    510000   300.17429     -78.784598      53494.086     -22010.795      3358.0438     -18652.751      1.0664255    
    511000   300.37668      505.10748      53709.604     -21895.205      3360.308      -18534.897      1.0621463    
    512000   300.10129      21.884726      53931.391     -21798.135      3357.2272     -18440.908      1.0577783    
    513000   296.15615     -897.01955      54793.965     -21822.159      3313.0929     -18509.066      1.0411267    
    514000   294.59876     -687.40014      53580.142     -21940.279      3295.6704     -18644.608      1.0647127    
    515000   306.65835      457.11635      53617.985     -21842.93       3430.5808     -18412.349      1.0639612    
    516000   297.22068      454.12588      53422.28      -21904.061      3325.0018     -18579.059      1.0678589    
    517000   297.95663     -766.63536      53798.916     -21834.699      3333.2349     -18501.464      1.060383     
    518000   296.82979      721.84173      53224.21      -21903.799      3320.6289     -18583.17       1.0718329    
    519000   298.18229     -115.47154      53783.799     -21922.299      3335.7593     -18586.54       1.0606811    
    520000   304.61019      142.93926      53955.799     -21890.782      3407.6682     -18483.114      1.0572998    
    521000   298.89961      202.49878      53663.416     -21919.065      3343.7839     -18575.282      1.0630605    
    522000   299.79171     -147.21278      53619.479     -21957.324      3353.7639     -18603.56       1.0639316    
    523000   298.33185      280.75577      53885.466     -21730.906      3337.4324     -18393.473      1.0586799    
    524000   302.91616      486.04325      54162.987     -21903.96       3388.717      -18515.243      1.0532554    
    525000   302.67027     -546.51944      53771.253     -21854.876      3385.9663     -18468.91       1.0609285    
    526000   302.32873     -444.16042      53743.552     -21892.369      3382.1455     -18510.224      1.0614754    
    527000   295.80429      470.82406      53595.796     -21895.862      3309.1567     -18586.705      1.0644017    
    528000   295.50321     -384.41873      53919.993     -21965.018      3305.7885     -18659.23       1.0580019    
    529000   302.5386      -278.80819      53995.386     -21902.937      3384.4933     -18518.444      1.0565247    
    530000   310.54271     -461.77967      53616.217     -21885.301      3474.0351     -18411.266      1.0639963    
    531000   300.2445       432.30373      52877.903     -21934.837      3358.8293     -18576.008      1.0788525    
    532000   304.00514      437.4408       53078.11      -21980.367      3400.8994     -18579.468      1.0747831    
    533000   303.39964     -501.42474      53726.917     -21892.628      3394.1257     -18498.502      1.061804     
    534000   306.74548      235.36276      53368.591     -21936.659      3431.5556     -18505.104      1.0689332    
    535000   296.50519      411.15602      53720.777     -21884.689      3316.9977     -18567.692      1.0619254    
    536000   303.26372     -60.04602       53724         -21985.915      3392.6052     -18593.31       1.0618617    
    537000   306.35441      801.53841      53967.503     -21967.258      3427.1807     -18540.078      1.0570705    
    538000   304.89206      234.59266      53793.204     -21832.264      3410.8214     -18421.443      1.0604956    
    539000   300.77441     -99.63963       53758.961     -21958.526      3364.7573     -18593.769      1.0611711    
    540000   304.44578      371.43101      53490.049     -21952.014      3405.8289     -18546.185      1.066506     
    541000   297.99146      731.89425      53826.887     -21916.316      3333.6246     -18582.692      1.059832     
    542000   294.01116     -417.01738      53606.707     -21958.334      3289.097      -18669.237      1.0641851    
    543000   298.40731     -1051.8396      53415.982     -21931.677      3338.2767     -18593.401      1.0679848    
    544000   297.20679     -87.963372      53677.025     -21783.989      3324.8464     -18459.142      1.062791     
    545000   297.04902      639.42206      53718.765     -21990.12       3323.0815     -18667.038      1.0619652    
    546000   303.03575      628.372        53253.597     -21962.492      3390.0549     -18572.437      1.0712414    
    547000   305.59311      226.82885      54018.031     -21853.385      3418.664      -18434.721      1.0560818    
    548000   298.2689       712.22679      53673.84      -21818.366      3336.7283     -18481.638      1.062854     
    549000   303.9539      -358.91838      53691.709     -21901.542      3400.3262     -18501.215      1.0625003    
    550000   298.1727       315.7628       53871.585     -21941.875      3335.6521     -18606.223      1.0589527    
    551000   300.02677     -474.95223      53562.874     -22014.361      3356.3935     -18657.968      1.065056     
    552000   296.06738      76.749069      53760.946     -22005.623      3312.0999     -18693.524      1.061132     
    553000   297.49256      17.630617      53931.396     -21927.275      3328.0434     -18599.232      1.0577783    
    554000   303.79776     -41.753016      54391.129     -21802.289      3398.5795     -18403.709      1.0488375    
    555000   298.14111     -1.3425496      53470.536     -21865.021      3335.2986     -18529.723      1.0668952    
    556000   299.21456      268.27241      53460.28      -21902.214      3347.3073     -18554.907      1.0670999    
    557000   300.83075      543.24734      52894.385     -22006.788      3365.3876     -18641.4        1.0785163    
    558000   295.52909     -469.74271      53863.823     -21728.032      3306.0781     -18421.954      1.0591052    
    559000   300.47224     -100.80324      53406.889     -22053.127      3361.377      -18691.75       1.0681666    
    560000   304.14155      532.82055      53363.13      -21963.131      3402.4255     -18560.706      1.0690426    
    561000   304.20678     -137.28528      54294.439     -21944.236      3403.1552     -18541.08       1.0507054    
    562000   295.01286      117.2236       53544.713     -22056.161      3300.303      -18755.858      1.0654172    
    563000   297.30822      210.05445      53724.071     -21960.405      3325.9812     -18634.423      1.0618603    
    564000   294.50858      383.29975      53150.944     -21908.998      3294.6616     -18614.336      1.0733103    
    565000   303.3796      -5.6547754      53305.722     -21971.486      3393.9016     -18577.584      1.0701939    
    566000   304.3601       90.191497      53577.686     -21862.426      3404.8704     -18457.555      1.0647615    
    567000   303.78412     -467.33543      53301.524     -21919.504      3398.4269     -18521.077      1.0702782    
    568000   293.95421      414.72665      53298.147     -22014.754      3288.4599     -18726.295      1.070346     
    569000   303.50257      203.91708      53296.803     -21968.433      3395.2772     -18573.156      1.070373     
    570000   291.95596      2.0643032      53384.703     -21924.894      3266.1055     -18658.789      1.0686106    
    571000   297.57883      368.99429      53528.435     -21868.087      3329.0085     -18539.079      1.0657412    
    572000   296.74883      620.74079      53392.735     -21831.399      3319.7233     -18511.676      1.0684498    
    573000   301.01108     -603.72654      53766.255     -21888.424      3367.4049     -18521.019      1.0610272    
    574000   299.43774     -604.7337       53763.782     -21884.679      3349.8041     -18534.875      1.061076     
    575000   295.19665      266.70526      53214.925     -21940.988      3302.3591     -18638.629      1.0720199    
    576000   299.36675      439.00819      53640.174     -21936.57       3349.0099     -18587.56       1.0635211    
    577000   303.41327     -338.87488      53631.926     -21915.767      3394.2782     -18521.489      1.0636847    
    578000   297.65557     -40.064219      53734.074     -21984.66       3329.8669     -18654.793      1.0616626    
    579000   300.17687      424.29727      52966.561     -21926.99       3358.0727     -18568.917      1.0770467    
    580000   303.77607      682.28413      53552.738     -21839.307      3398.3368     -18440.971      1.0652575    
    581000   299.04341      657.0863       53428.688     -21964.174      3345.3927     -18618.782      1.0677308    
    582000   296.4635       23.72048       53874.083     -22004.132      3316.5313     -18687.6        1.0589036    
    583000   296.67392      796.01066      53507.992     -21892.866      3318.8852     -18573.98       1.0661483    
    584000   299.34078      172.47289      53338.107     -21988.278      3348.7193     -18639.559      1.0695441    
    585000   295.19139     -559.86224      54046.606     -21969.445      3302.3003     -18667.145      1.0555234    
    586000   289.31352     -880.50514      53411.358     -21877.888      3236.5446     -18641.343      1.0680773    
    587000   296.94635     -584.58406      53653.04      -21790.2        3321.9329     -18468.267      1.0632661    
    588000   308.29909      202.60917      53340.131     -21881.805      3448.9358     -18432.869      1.0695035    
    589000   297.44746      119.63054      53624.968     -21766.137      3327.5389     -18438.598      1.0638227    
    590000   299.21961     -254.58894      53336.828     -21922.448      3347.3638     -18575.084      1.0695697    
    591000   298.68979     -481.85548      53188.579     -21903.551      3341.4368     -18562.114      1.0725509    
    592000   296.36486      510.21312      53060.019     -21806.071      3315.4278     -18490.644      1.0751496    
    593000   298.96164     -192.88716      53909.335     -21894.189      3344.4779     -18549.711      1.0582111    
    594000   297.03547     -841.10856      53990.749     -21941.349      3322.9299     -18618.419      1.0566154    
    595000   298.09096      414.09645      53779.343     -21915.826      3334.7377     -18581.088      1.060769     
    596000   299.84873      594.55782      54040.647     -21928.58       3354.4018     -18574.178      1.0556398    
    597000   291.08956      27.257485      54106.493     -21900.734      3256.4131     -18644.321      1.0543551    
    598000   300.80415      536.24185      53547.539     -22015.16       3365.0901     -18650.07       1.065361     
    599000   300.20489      149.16541      53564.767     -21931.269      3358.3862     -18572.883      1.0650183    
    600000   300.21937     -187.95555      53677.09      -21968.025      3358.5481     -18609.477      1.0627897    
    600010   299.37388      87.687883      53698.843     -21974.457      3349.0896     -18625.367      1.0623592    
Loop time of 12818.7 on 5 procs for 300000 steps with 5541 atoms

Performance: 4.044 ns/day, 5.935 hours/ns, 23.403 timesteps/s, 129.678 katom-step/s
341.5% CPU use with 1 MPI tasks x 5 OpenMP threads

MPI task timing breakdown:
Section |  min time  |  avg time  |  max time  |%varavg| %total
---------------------------------------------------------------
Pair    | 536.81     | 536.81     | 536.81     |   0.0 |  4.19
Bond    | 5.8235     | 5.8235     | 5.8235     |   0.0 |  0.05
Kspace  | 6551.5     | 6551.5     | 6551.5     |   0.0 | 51.11
Neigh   | 0.73231    | 0.73231    | 0.73231    |   0.0 |  0.01
Comm    | 137.82     | 137.82     | 137.82     |   0.0 |  1.08
Output  | 1.4174     | 1.4174     | 1.4174     |   0.0 |  0.01
Modify  | 5531.3     | 5531.3     | 5531.3     |   0.0 | 43.15
Other   |            | 53.25      |            |       |  0.42

Nlocal:           5541 ave        5541 max        5541 min
Histogram: 1 0 0 0 0 0 0 0 0 0
Nghost:          35689 ave       35689 max       35689 min
Histogram: 1 0 0 0 0 0 0 0 0 0
Neighs:              0 ave           0 max           0 min
Histogram: 1 0 0 0 0 0 0 0 0 0

Total # of neighbors = 0
Ave neighs/atom = 0
Ave special neighs/atom = 2.4872767
Neighbor list builds = 27861
Dangerous builds = 0

undump npt_traj
undump npt_dcd
unfix mynpt_standard
unfix thermo_avg_npt

write_restart npt_complete.restart
System init for write_restart ...
PPPM initialization ...
  extracting TIP4P info from pair style
  using 12-bit tables for long-range coulomb
  G vector (1/distance) = 0.28851213
  grid = 50 50 50
  stencil order = 5
  estimated absolute RMS force accuracy = 0.00032644344
  estimated relative force accuracy = 9.8307472e-07
  using double precision FFTW3
  3d grid and FFT values/proc = 205379 125000
Generated 0 of 3 mixed pair_coeff terms from geometric mixing rule
write_data npt_complete.data
System init for write_data ...
PPPM initialization ...
  extracting TIP4P info from pair style
  using 12-bit tables for long-range coulomb
  G vector (1/distance) = 0.28851213
  grid = 50 50 50
  stencil order = 5
  estimated absolute RMS force accuracy = 0.00032644344
  estimated relative force accuracy = 9.8307472e-07
  using double precision FFTW3
  3d grid and FFT values/proc = 205379 125000
Generated 0 of 3 mixed pair_coeff terms from geometric mixing rule
WARNING: Not all mixed pair coeffs generated from mixing. Use write_data with 'pair ij' option to store all pair coeffs. (src/write_data.cpp:364)

# CRITICAL: Save NPT checkpoint for production restart capability
write_restart npt_equilibration_complete.restart
System init for write_restart ...
PPPM initialization ...
  extracting TIP4P info from pair style
  using 12-bit tables for long-range coulomb
  G vector (1/distance) = 0.28851213
  grid = 50 50 50
  stencil order = 5
  estimated absolute RMS force accuracy = 0.00032644344
  estimated relative force accuracy = 9.8307472e-07
  using double precision FFTW3
  3d grid and FFT values/proc = 205379 125000
Generated 0 of 3 mixed pair_coeff terms from geometric mixing rule
write_data npt_equilibration_complete.data
System init for write_data ...
PPPM initialization ...
  extracting TIP4P info from pair style
  using 12-bit tables for long-range coulomb
  G vector (1/distance) = 0.28851213
  grid = 50 50 50
  stencil order = 5
  estimated absolute RMS force accuracy = 0.00032644344
  estimated relative force accuracy = 9.8307472e-07
  using double precision FFTW3
  3d grid and FFT values/proc = 205379 125000
Generated 0 of 3 mixed pair_coeff terms from geometric mixing rule
WARNING: Not all mixed pair coeffs generated from mixing. Use write_data with 'pair ij' option to store all pair coeffs. (src/write_data.cpp:364)

variable current_dens equal density
variable current_vol equal vol
variable current_press equal press
variable current_temp equal temp
print ""

print "NPT equilibration complete (1000 ps total):"
NPT equilibration complete (1000 ps total):
print "  Temperature: ${current_temp} K"
  Temperature: 299.373876752079 K
print "  Density:     ${current_dens} g/cmÂ³"
  Density:     1.06235916346346 g/cm³
print "  Pressure:    ${current_press} atm"
  Pressure:    87.6878826525458 atm
print "  Volume:      ${current_vol} Ã…Â³"
  Volume:      53698.8427060898 …³
print ""

print "âœ… CHECKPOINT: NPT equilibration complete"
œ… CHECKPOINT: NPT equilibration complete
print "   Files saved:"
   Files saved:
print "     - npt_complete.restart (legacy name)"
     - npt_complete.restart (legacy name)
print "     - npt_equilibration_complete.restart (for production restart)"
     - npt_equilibration_complete.restart (for production restart)
print "     - npt_equilibration_complete.data (structure file)"
     - npt_equilibration_complete.data (structure file)
print "     - npt_equilibration_thermo.dat (thermodynamics)"
     - npt_equilibration_thermo.dat (thermodynamics)
print ""


# Checkpoint: Verify density
if "${current_dens} < 0.85 || ${current_dens} > 1.15" then     "print 'ERROR: Density outside expected range (0.85-1.15 g/cmÂ³)'"     "print 'Current density: ${current_dens} g/cmÂ³'"     "quit 1"

print "âœ“ Density validation PASSED: ${current_dens} g/cmÂ³"
œ“ Density validation PASSED: 1.06235916346346 g/cm³

print ""


# ğŸ”§ CHECKPOINT #4: Final validation before production
variable current_dens equal density
variable current_press equal press
variable current_vol equal vol
variable current_boxsize equal vol^(1.0/3.0)

print ""

print "NPT equilibration complete. FINAL VALIDATION:"
NPT equilibration complete. FINAL VALIDATION:
print "  Density:  ${current_dens} g/cmÂ³"
  Density:  1.06235916346346 g/cm³
print "  Pressure: ${current_press} atm"
  Pressure: 87.6878826525458 atm
print "  Volume:   ${current_vol} Ã…Â³"
  Volume:   53698.8427060898 …³
print "  Box size: ${current_boxsize} Ã…"
  Box size: 37.7272348349084 …
print ""

print "âœ… CHECKPOINT: NPT equilibration complete (1000 ps)"
œ… CHECKPOINT: NPT equilibration complete (1000 ps)
print "   Creating restart file: npt_equilibration_complete.restart"
   Creating restart file: npt_equilibration_complete.restart
print "   This checkpoint allows restarting from production stage if needed"
   This checkpoint allows restarting from production stage if needed
print ""


# Save NPT checkpoint for production restart capability
write_restart npt_equilibration_complete.restart
System init for write_restart ...
PPPM initialization ...
  extracting TIP4P info from pair style
  using 12-bit tables for long-range coulomb
  G vector (1/distance) = 0.28851213
  grid = 50 50 50
  stencil order = 5
  estimated absolute RMS force accuracy = 0.00032644344
  estimated relative force accuracy = 9.8307472e-07
  using double precision FFTW3
  3d grid and FFT values/proc = 205379 125000
Generated 0 of 3 mixed pair_coeff terms from geometric mixing rule
write_data npt_equilibration_complete.data
System init for write_data ...
PPPM initialization ...
  extracting TIP4P info from pair style
  using 12-bit tables for long-range coulomb
  G vector (1/distance) = 0.28851213
  grid = 50 50 50
  stencil order = 5
  estimated absolute RMS force accuracy = 0.00032644344
  estimated relative force accuracy = 9.8307472e-07
  using double precision FFTW3
  3d grid and FFT values/proc = 205379 125000
Generated 0 of 3 mixed pair_coeff terms from geometric mixing rule
WARNING: Not all mixed pair coeffs generated from mixing. Use write_data with 'pair ij' option to store all pair coeffs. (src/write_data.cpp:364)

print "âœ… NPT checkpoint saved successfully"
œ… NPT checkpoint saved successfully
print "   Files created:"
   Files created:
print "     - npt_equilibration_complete.restart (for continuation)"
     - npt_equilibration_complete.restart (for continuation)
print "     - npt_equilibration_complete.data (structure file)"
     - npt_equilibration_complete.data (structure file)
print ""


if "${current_dens} < 0.80" then     "print 'ğŸ”´ ERROR: Density ${current_dens} g/cmÂ³ is TOO LOW (gas phase)!'"     "print 'Expected: 0.95-1.05 g/cmÂ³ for liquid water'"     "print ''"     "print 'Possible causes:'"     "print '  1. System escaped to gas phase during equilibration'"     "print '  2. PPPM grid artifacts occurred later in simulation'"     "print '  3. Initial system was not properly solvated'"     "quit 1"

if "${current_dens} > 1.20" then     "print 'ğŸ”´ ERROR: Density ${current_dens} g/cmÂ³ is TOO HIGH (over-compressed)!'"     "print 'Expected: 0.95-1.05 g/cmÂ³ for liquid water'"     "print ''"     "print 'Possible causes:'"     "print '  1. Barostat not converging properly'"     "print '  2. System trapped in metastable compressed state'"     "quit 1"

print "âœ… Density validation PASSED: ${current_dens} g/cmÂ³"
œ… Density validation PASSED: 1.06235916346346 g/cm³
print "Current density: ${current_dens} g/cmÂ³"
Current density: 1.06235916346346 g/cm³

#==============================================================================
# STAGE 4: Production MD (4000 ps = 4 ns)
#==============================================================================
print ""

print "===== STAGE 4: Production MD (4000 ps = 4 ns, GPU) ====="
===== STAGE 4: Production MD (4000 ps = 4 ns, GPU) =====
print "Main data collection phase - RDF, MSD, trajectories"
Main data collection phase - RDF, MSD, trajectories
print ""

print "Pressure control strategy:"
Pressure control strategy:
print "  â€¢ Using MTK barostat for better ensemble accuracy"
  €¢ Using MTK barostat for better ensemble accuracy
print "  â€¢ Tdamp = 100 fs (standard for NosÃ©-Hoover)"
  €¢ Tdamp = 100 fs (standard for Nos©-Hoover)
print "  â€¢ Pdamp = 1000 fs (tighter control for stable production)"
  €¢ Pdamp = 1000 fs (tighter control for stable production)
print ""


# Production NPT with MTK barostat and tighter pressure control
# Using smaller pdamp (1000 fs vs 2000 fs) for more stable pressure
# ğŸ”§ CRITICAL: Using npt/gpu instead of npt for FULL GPU acceleration
fix mynpt all npt/gpu temp 300.0 300.0 100.0 iso 1.0 1.0 1000.0 mtk yes

# Main trajectory dump (every 1 ps for analysis)
# Trajectory output (every 1 ps) - using wrapped coordinates for proper visualization
dump prod_traj all custom 1000 production.lammpstrj id type xu yu zu
dump_modify prod_traj sort id

# DCD dump (every 0.5 ps for smooth visualization)
dump prod_dcd all dcd 500 production.dcd
dump_modify prod_dcd unwrap yes

# Detailed thermodynamics (every 1 ps)
fix thermo_avg all ave/time 100 10 1000 v_epsilon_co v_temp v_press v_pe v_ke v_etotal v_vol v_dens     file production_thermo.dat

# Very detailed thermodynamics (every 0.1 ps for fluctuation analysis)
fix thermo_detailed all ave/time 10 10 100 v_temp v_press v_pe v_ke v_vol v_dens     file production_detailed_thermo.dat

# Compute RDFs on-the-fly (Global)
# Type 1=C, Type 2=O, Type 3=H
compute rdf_CO all rdf 150 1 2  # Global C-O pairs
compute rdf_CC all rdf 150 1 1  # Global C-C pairs
compute rdf_OO all rdf 150 2 2  # Global O-O pairs

# Individual C60 molecule RDFs with water (CORRECTED)
# "For atoms in group c60_1, find Type 2 (Oxygen) distribution"
compute rdf_C60_1_O c60_1 rdf 150 1 2
compute rdf_C60_2_O c60_2 rdf 150 1 2
compute rdf_C60_3_O c60_3 rdf 150 1 2

# (Deleted impossible Inter-C60 computations - calculate these in Python/OVITO)

# Average Global RDFs
fix rdf_CO_avg all ave/time 1000 10 10000 c_rdf_CO[1] c_rdf_CO[2] c_rdf_CO[3] file rdf_CO.dat mode vector
fix rdf_CC_avg all ave/time 1000 10 10000 c_rdf_CC[1] c_rdf_CC[2] c_rdf_CC[3] file rdf_CC.dat mode vector
fix rdf_OO_avg all ave/time 1000 10 10000 c_rdf_OO[1] c_rdf_OO[2] c_rdf_OO[3] file rdf_OO.dat mode vector

# Average Individual C60-Water RDFs
fix rdf_C60_1_O_avg all ave/time 1000 10 10000 c_rdf_C60_1_O[1] c_rdf_C60_1_O[2] c_rdf_C60_1_O[3] file rdf_C60_1_water.dat mode vector
fix rdf_C60_2_O_avg all ave/time 1000 10 10000 c_rdf_C60_2_O[1] c_rdf_C60_2_O[2] c_rdf_C60_2_O[3] file rdf_C60_2_water.dat mode vector
fix rdf_C60_3_O_avg all ave/time 1000 10 10000 c_rdf_C60_3_O[1] c_rdf_C60_3_O[2] c_rdf_C60_3_O[3] file rdf_C60_3_water.dat mode vector

# Compute MSD for water oxygen (diffusion analysis)
# Need to use the oxygen group defined earlier
compute msd_water oxygen msd
# MSD compute outputs: [1]=dxÂ², [2]=dyÂ², [3]=dzÂ², [4]=total rÂ²
fix msd_avg all ave/time 100 10 1000 c_msd_water[1] c_msd_water[2] c_msd_water[3] c_msd_water[4] file msd_water.dat

# Dump images every 20 ps for visualization
dump prod_img all image 10000 production_*.ppm type type     axes yes 0.8 0.02 view 60 30 zoom 1.5     box no 0.01 shiny 0.5
dump_modify prod_img pad 6 backcolor white

run 1000000  # 2000 ps = 2 ns at 2 fs timestep
PPPM initialization ...
  extracting TIP4P info from pair style
  using 12-bit tables for long-range coulomb
  G vector (1/distance) = 0.28851213
  grid = 50 50 50
  stencil order = 5
  estimated absolute RMS force accuracy = 0.00032644344
  estimated relative force accuracy = 9.8307472e-07
  using double precision FFTW3
  3d grid and FFT values/proc = 205379 125000
Generated 0 of 3 mixed pair_coeff terms from geometric mixing rule
Neighbor list info ...
  update: every = 1 steps, delay = 5 steps, check = yes
  max neighbors/atom: 2000, page size: 100000
  master list distance cutoff = 14.3092
  ghost atom cutoff = 18
  binsize = 7.1546, bins = 6 6 6
  6 neighbor lists, perpetual/occasional/extra = 0 6 0
  (1) compute rdf, occasional
      attributes: half, newton off
      pair build: half/bin/newtoff
      stencil: full/bin/3d
      bin: standard
  (2) compute rdf, occasional
      attributes: half, newton off
      pair build: half/bin/newtoff
      stencil: full/bin/3d
      bin: standard
  (3) compute rdf, occasional
      attributes: half, newton off
      pair build: half/bin/newtoff
      stencil: full/bin/3d
      bin: standard
  (4) compute rdf, occasional
      attributes: half, newton off
      pair build: half/bin/newtoff
      stencil: full/bin/3d
      bin: standard
  (5) compute rdf, occasional
      attributes: half, newton off
      pair build: half/bin/newtoff
      stencil: full/bin/3d
      bin: standard
  (6) compute rdf, occasional
      attributes: half, newton off
      pair build: half/bin/newtoff
      stencil: full/bin/3d
      bin: standard
Per MPI rank memory allocation (min/avg/max) = 69.53 | 69.53 | 69.53 Mbytes
   Step          Temp          Press          Volume         PotEng         KinEng         TotEng        Density    
    600010   299.37388      110.25116      53698.843     -21974.438      3349.0896     -18625.349      1.0623592    
    601000   301.11267     -949.55186      53626.563     -21922.152      3368.5415     -18553.611      1.063791     
    602000   293.35784     -470.33663      53646.926     -21908.283      3281.7883     -18626.495      1.0633873    
    603000   292.64129      240.75204      53433.308     -22001.777      3273.7723     -18728.005      1.0676385    
    604000   307.15156     -94.996457      53336.017     -21826.941      3436.0984     -18390.843      1.069586     
    605000   307.56008     -661.03778      53742.063     -21891.583      3440.6685     -18450.915      1.0615048    
    606000   299.78081     -65.633518      54292.947     -21875.231      3353.642      -18521.589      1.0507342    
    607000   297.04849      387.16679      53464.297     -21967.034      3323.0756     -18643.959      1.0670197    
    608000   299.39237      83.31806       53451.944     -21898.601      3349.2965     -18549.304      1.0672663    
    609000   300.70777      188.5635       53740.21      -21904.527      3364.0118     -18540.516      1.0615414    
    610000   302.80284      228.31865      53372.528     -21838.084      3387.4493     -18450.634      1.0688543    
    611000   304.55593     -572.9427       53537.456     -21843.389      3407.0612     -18436.328      1.0655616    
    612000   298.94052      293.49208      53448.442     -21933.042      3344.2416     -18588.8        1.0673362    
    613000   295.91975      381.15992      53833.464     -22032.083      3310.4484     -18721.635      1.0597025    
    614000   306.08824      192.98928      53413.158     -21946.078      3424.203      -18521.875      1.0680413    
    615000   305.94159     -724.7538       53784.365     -21748.902      3422.5624     -18326.34       1.0606699    
    616000   299.32132     -515.15167      53549.817     -21901.286      3348.5017     -18552.784      1.0653156    
    617000   301.59199      484.96277      53806.011     -21920.472      3373.9036     -18546.569      1.0602432    
    618000   309.80966      263.52098      53941.224     -21795.311      3465.8345     -18329.477      1.0575855    
    619000   296.99696      148.46336      53034.206     -21964.43       3322.4991     -18641.931      1.0756729    
    620000   298.05951      205.35188      53194.824     -21979.118      3334.3858     -18644.732      1.072425     
    621000   300.36852      958.31415      53052.187     -22050.904      3360.2167     -18690.687      1.0753083    
    622000   299.09682     -45.542841      53689.676     -21873.314      3345.9902     -18527.323      1.0625405    
    623000   301.76021     -103.12633      53650.226     -21982.782      3375.7854     -18606.996      1.0633219    
    624000   297.46415     -278.45147      53882.83      -21830.064      3327.7256     -18502.338      1.0587316    
    625000   298.85181      467.28428      53660.828     -21825.833      3343.2492     -18482.584      1.0631118    
    626000   304.27063      438.63498      53866.507     -21879.793      3403.8695     -18475.924      1.0590525    
    627000   299.88207      702.99793      53823.2       -21903.621      3354.7748     -18548.846      1.0599046    
    628000   301.79171      71.648707      53990.646     -21909.882      3376.1378     -18533.744      1.0566174    
    629000   296.93282     -224.01081      53422.705     -21895.153      3321.7816     -18573.371      1.0678504    
    630000   303.74048      47.634319      53294.748     -21796.932      3397.9387     -18398.993      1.0704143    
    631000   298.48848      87.333143      53973.137     -21816.058      3339.1847     -18476.874      1.0569602    
    632000   302.82185      354.08346      53682.267     -21998.052      3387.662      -18610.39       1.0626872    
    633000   302.22767     -89.72328       53801.968     -21869.806      3381.0149     -18488.791      1.0603229    
    634000   302.09014      168.61332      53609.796     -21946.472      3379.4764     -18566.996      1.0641238    
    635000   295.65439      936.27686      53392.848     -21992.75       3307.4798     -18685.271      1.0684475    
    636000   297.91771     -926.98255      53754.808     -21827.882      3332.7995     -18495.083      1.0612531    
    637000   309.01525      543.35706      53874.229     -21907.675      3456.9475     -18450.727      1.0589007    
    638000   298.17023     -129.47764      53550.858     -21859.491      3335.6244     -18523.866      1.0652949    
    639000   297.96159     -159.90517      53332.918     -22018.591      3333.2904     -18685.301      1.0696482    
    640000   308.17334     -277.49523      53281.824     -22045.305      3447.529      -18597.776      1.0706739    
    641000   299.5614       193.99454      53421.487     -21957.88       3351.1874     -18606.692      1.0678748    
    642000   304.07543      539.75371      53125.469     -21893.658      3401.6857     -18491.973      1.073825     
    643000   293.45232      171.91842      53530.676     -21920.325      3282.8452     -18637.479      1.0656966    
    644000   299.91716     -178.52318      53290.663     -21932.4        3355.1673     -18577.233      1.0704963    
    645000   294.99124      859.53928      53403.585     -22087.165      3300.0612     -18787.104      1.0682327    
    646000   298.58762     -351.19306      53486.838     -21924.119      3340.2937     -18583.825      1.06657      
    647000   299.43418      4.857214       53198.107     -21883.694      3349.7642     -18533.93       1.0723588    
    648000   300.37437     -225.81875      53592.312     -21996.721      3360.2821     -18636.439      1.0644709    
    649000   296.52204     -1069.7416      53863.171     -21881.661      3317.1861     -18564.475      1.0591181    
    650000   296.35778      153.46096      53287.126     -21872.687      3315.3486     -18557.339      1.0705674    
    651000   296.94155      98.17268       53378.811     -22048.565      3321.8792     -18726.686      1.0687285    
    652000   297.50078      700.9728       53391.066     -22100.869      3328.1353     -18772.734      1.0684832    
    653000   299.24843     -260.38302      53564.696     -21916.526      3347.6862     -18568.84       1.0650197    
    654000   303.12712      22.919791      53637.596     -21919.912      3391.0771     -18528.835      1.0635722    
    655000   299.46225      669.66025      53494.033     -21778.401      3350.0782     -18428.323      1.0664266    
    656000   301.46264      910.42209      53284.681     -21874.192      3372.4565     -18501.735      1.0706165    
    657000   305.07707      112.61388      54082.533     -21914.191      3412.8911     -18501.3        1.0548222    
    658000   293.3132      -487.02127      53979.482     -21925.476      3281.2889     -18644.188      1.056836     
    659000   296.41997      848.45612      53320.031     -21854.666      3316.0443     -18538.622      1.0699067    
    660000   295.56301      853.00021      54106.758     -21838.279      3306.4576     -18531.821      1.05435      
    661000   306.09244      326.39527      53467.86      -21837.954      3424.25       -18413.704      1.0669486    
    662000   296.61647      645.71697      53617.976     -21877.964      3318.2425     -18559.722      1.0639614    
    663000   301.81623      331.422        53981.615     -21874.891      3376.4121     -18498.479      1.0567942    
    664000   297.2026      -384.59116      53696.782     -21861.346      3324.7996     -18536.546      1.0623999    
    665000   300.97454      665.19862      53760.015     -21909.002      3366.9962     -18542.006      1.0611503    
    666000   302.03848     -35.372474      53200.214     -21960.948      3378.8985     -18582.049      1.0723163    
    667000   303.72998      926.82533      52595.389     -21909.088      3397.8213     -18511.266      1.0846475    
    668000   303.40246      331.62458      52996.372     -21923.025      3394.1573     -18528.868      1.0764408    
    669000   303.79079      89.117518      53727.175     -21871.498      3398.5015     -18472.996      1.0617989    
    670000   294.01652     -658.65997      54110.455     -21856.88       3289.157      -18567.723      1.0542779    
    671000   300.25471      305.91799      53369.708     -21949.616      3358.9435     -18590.672      1.0689108    
    672000   305.95956      594.25815      53943.203     -21823.749      3422.7635     -18400.985      1.0575467    
    673000   301.22257      259.94423      53362.187     -21940.431      3369.7709     -18570.66       1.0690615    
    674000   302.12613     -807.94276      54082.387     -21926.213      3379.879      -18546.334      1.0548251    
    675000   296.87113     -213.68779      53114.241     -21846.137      3321.0914     -18525.046      1.074052     
    676000   295.94359     -268.22295      53564.097     -21925.438      3310.7151     -18614.723      1.0650316    
    677000   302.98698     -124.7737       53253.566     -21802.091      3389.5093     -18412.582      1.071242     
    678000   310.20575      519.88959      53621.527     -21971.797      3470.2656     -18501.532      1.0638909    
    679000   299.8247      -97.449825      53566.684     -21907.492      3354.133      -18553.359      1.0649802    
    680000   301.55748     -18.714966      53396.863     -21820.287      3373.5175     -18446.77       1.0683672    
    681000   291.12034     -543.43959      53210.489     -22037.421      3256.7574     -18780.664      1.0721093    
    682000   300.07065      153.13912      53467.268     -21895.556      3356.8844     -18538.672      1.0669604    
    683000   302.26156      393.67502      53757.362     -21909.815      3381.394      -18528.421      1.0612027    
    684000   302.28805      348.06035      53748.46      -21974.66       3381.6903     -18592.969      1.0613785    
    685000   302.02927      328.34556      53556.334     -21945.884      3378.7955     -18567.088      1.065186     
    686000   292.58122     -1014.601       53885.104     -21894.546      3273.1003     -18621.446      1.058687     
    687000   304.98324      327.49176      54196.059     -21869.978      3411.8415     -18458.137      1.0526127    
    688000   295.84584     -102.16539      54098.55      -21982.333      3309.6215     -18672.711      1.0545099    
    689000   295.98634      352.95977      53545.954     -21948.004      3311.1933     -18636.811      1.0653925    
    690000   298.20914      130.98818      53715.285     -22003.434      3336.0597     -18667.374      1.062034     
    691000   295.39582     -410.31765      53730.758     -21806.284      3304.5871     -18501.697      1.0617281    
    692000   297.03673      434.37506      53717.879     -21834.588      3322.944      -18511.644      1.0619827    
    693000   301.881        1456.684       52977.171     -21866.02       3377.1368     -18488.883      1.076831     
    694000   302.46419      59.428338      53177.956     -21923.59       3383.6608     -18539.929      1.0727651    
    695000   291.74031     -401.22776      54128.447     -21902.161      3263.693      -18638.468      1.0539275    
    696000   303.94209     -998.55173      53807.885     -21949.099      3400.1942     -18548.905      1.0602063    
    697000   297.05308     -525.7309       53583.025     -21992.93       3323.1269     -18669.803      1.0646554    
    698000   296.72433      683.52139      53103.172     -21807.507      3319.4492     -18488.058      1.0742759    
    699000   300.50783      720.05331      53317.644     -21843.79       3361.7751     -18482.015      1.0699546    
    700000   298.25456      338.11153      53415.909     -21891.724      3336.5678     -18555.157      1.0679863    
    701000   303.411       -493.42922      53875.175     -21943.994      3394.2528     -18549.741      1.0588821    
    702000   301.02625     -357.60583      53712.715     -21991.162      3367.5747     -18623.587      1.0620848    
    703000   306.26383     -161.01173      53708.214     -21966.291      3426.1674     -18540.123      1.0621738    
    704000   296.50068     -144.73825      53876.669     -21875.459      3316.9472     -18558.512      1.0588527    
    705000   300.41805     -361.48404      54203.42      -21931.292      3360.7708     -18570.521      1.0524697    
    706000   300.49922     -412.1122       54371.531     -21908.018      3361.6788     -18546.339      1.0492156    
    707000   299.51724      414.11764      53809.804     -22028.28       3350.6935     -18677.586      1.0601685    
    708000   297.05485      246.49178      53875.886     -21934.585      3323.1467     -18611.438      1.0588681    
    709000   298.46064     -184.55474      53380.193     -21854.308      3338.8733     -18515.434      1.0687009    
    710000   290.70292     -3.3768809      53815.404     -21907.645      3252.0878     -18655.557      1.0600582    
    711000   298.75314     -739.97925      53818.322     -21864.926      3342.1454     -18522.781      1.0600007    
    712000   299.09549      251.82554      53881.776     -21852.279      3345.9753     -18506.304      1.0587524    
    713000   295.30007     -318.02712      54110.804     -21889.243      3303.516      -18585.727      1.0542711    
    714000   300.18411     -454.98813      54021.902     -22038.575      3358.1537     -18680.421      1.0560061    
    715000   301.29235      225.06847      53888.334     -21955.528      3370.5515     -18584.976      1.0586235    
    716000   298.98073     -921.47132      54527.686     -21881.173      3344.6915     -18536.482      1.0462109    
    717000   301.83939     -323.89372      54269.594     -21931.599      3376.6713     -18554.928      1.0511864    
    718000   296.99765      238.6259       54130.981     -22079.095      3322.5068     -18756.588      1.0538781    
    719000   296.1935       572.18749      53584.405     -21934.898      3313.5108     -18621.387      1.064628     
    720000   295.85375      549.96374      53878.546     -21971.548      3309.7101     -18661.838      1.0588158    
    721000   302.82376     -511.51765      53685.652     -21986.772      3387.6834     -18599.089      1.0626202    
    722000   297.15442     -266.6137       53537.993     -21999.191      3324.2606     -18674.93       1.0655509    
    723000   302.59208     -402.16189      53596.43      -21956.801      3385.0916     -18571.709      1.0643891    
    724000   297.31279     -23.92449       53222.074     -21976.384      3326.0323     -18650.352      1.0718759    
    725000   298.5709       6.8083818      52878.25      -21922.128      3340.1067     -18582.021      1.0788454    
    726000   297.9844      -486.10137      53763.678     -21906.987      3333.5456     -18573.442      1.061078     
    727000   297.17327     -386.16699      53904.307     -21862.917      3324.4714     -18538.445      1.0583098    
    728000   302.86639     -82.399618      53185.99      -22008.309      3388.1602     -18620.149      1.0726031    
    729000   300.35734      101.3144       54096.209     -21802.211      3360.0916     -18442.119      1.0545556    
    730000   307.01077      636.93426      53481.616     -21838.164      3434.5234     -18403.641      1.0666742    
    731000   298.3537      -14.154004      53511.57      -22024.888      3337.6769     -18687.211      1.0660771    
    732000   291.52012     -934.12434      54122.292     -21884.697      3261.2298     -18623.468      1.0540473    
    733000   300.11451     -95.814123      53521.242     -21996.062      3357.375      -18638.687      1.0658844    
    734000   300.9985       118.05959      53187.296     -21927.592      3367.2642     -18560.327      1.0725768    
    735000   300.90022     -304.70181      53623.092     -21933.152      3366.1648     -18566.987      1.0638599    
    736000   297.37284     -117.665        53265.186     -21918.737      3326.7041     -18592.033      1.0710083    
    737000   297.11751      287.80493      53419.34      -21882.296      3323.8476     -18558.448      1.0679177    
    738000   303.04742     -18.86006       53187.056     -21937.618      3390.1854     -18547.432      1.0725816    
    739000   306.40766     -392.63258      54272.839     -21983.993      3427.7764     -18556.217      1.0511235    
    740000   305.46972     -73.437241      53305.153     -21995.249      3417.2837     -18577.966      1.0702053    
    741000   292.49638      67.310929      53746.853     -21967.406      3272.1512     -18695.254      1.0614102    
    742000   296.62996      666.10776      53605.029     -21982.845      3318.3935     -18664.452      1.0642184    
    743000   303.04243     -639.91922      53466.276     -21805.101      3390.1297     -18414.972      1.0669802    
    744000   300.03781      169.7207       53557.692     -21871.243      3356.517      -18514.726      1.065159     
    745000   299.48817     -202.59255      53592.829     -21867.166      3350.3682     -18516.798      1.0644606    
    746000   299.32639      177.52716      53379.084     -21918.74       3348.5584     -18570.182      1.068723     
    747000   302.83118     -202.65016      53833.386     -21954.185      3387.7663     -18566.419      1.0597041    
    748000   298.42611     -432.11049      53452.255     -21966.349      3338.4869     -18627.862      1.0672601    
    749000   303.80876     -179.83934      52972.783     -21915.153      3398.7025     -18516.45       1.0769201    
    750000   305.03031     -298.09967      53566.274     -21984.246      3412.368      -18571.878      1.0649883    
    751000   302.42037     -1047.5465      53864.277     -21903.682      3383.1707     -18520.512      1.0590963    
    752000   299.92261      632.23399      53405.961     -21991.304      3355.2283     -18636.075      1.0681852    
    753000   300.92841      689.31256      53950.113     -21949.396      3366.4802     -18582.916      1.0574113    
    754000   304.79126      618.04915      53615.314     -21994.196      3409.6938     -18584.503      1.0640143    
    755000   304.52882     -625.28121      53519.322     -21972.716      3406.7578     -18565.958      1.0659227    
    756000   296.27362      774.99855      53309.076     -22008.024      3314.4071     -18693.617      1.0701265    
    757000   297.10689     -105.75152      53783.096     -21899.108      3323.7289     -18575.379      1.0606949    
    758000   294.66726     -504.53773      53544.959     -21958.901      3296.4368     -18662.464      1.0654123    
    759000   302.40194     -372.94234      53322.227     -21886.374      3382.9644     -18503.41       1.0698626    
    760000   306.54475     -93.168399      53651.156     -21881.175      3429.31       -18451.865      1.0633034    
    761000   297.14337     -269.55907      53561.032     -21918.696      3324.1369     -18594.559      1.0650926    
    762000   303.77771      96.213393      54057.534     -21978.009      3398.3552     -18579.654      1.05531      
    763000   299.6049      -8.6572986      53097.239     -21888.539      3351.6741     -18536.865      1.0743959    
    764000   299.97808     -188.76735      53466.787     -21892.835      3355.8488     -18536.986      1.06697      
    765000   302.90411      88.644004      53239.736     -21995.21       3388.5822     -18606.628      1.0715203    
    766000   300.6023       619.62435      53093.025     -21899.567      3362.832      -18536.735      1.0744812    
    767000   304.66757     -92.454395      53657.18      -21916.286      3408.31       -18507.976      1.063184     
    768000   293.27092      358.8066       53352.225     -22030.799      3280.8159     -18749.983      1.0692611    
    769000   306.08332      72.50516       53802.582     -21798.291      3424.1481     -18374.143      1.0603108    
    770000   299.5293       676.23701      54081.292     -21758.401      3350.8283     -18407.573      1.0548464    
    771000   298.87674     -979.77654      54050.83      -21950.801      3343.5281     -18607.273      1.0554409    
    772000   307.10139     -480.97868      53594.846     -21862.678      3435.5372     -18427.141      1.0644206    
    773000   293.91113     -171.88457      53419.115     -21943.75       3287.978      -18655.772      1.0679222    
    774000   296.13894      971.38199      53284.831     -21892.064      3312.9004     -18579.164      1.0706135    
    775000   303.68494     -1118.8573      53796.156     -21996.48       3397.3174     -18599.163      1.0604374    
    776000   295.72358     -519.85747      53373.075     -21857.681      3308.2538     -18549.427      1.0688434    
    777000   294.76228     -114.70359      53468.156     -21900.873      3297.4998     -18603.373      1.0669427    
    778000   302.28328      198.92598      53676.326     -22072.026      3381.6371     -18690.389      1.0628048    
    779000   298.62395      301.5839       53566.296     -21931.754      3340.7002     -18591.054      1.0649879    
    780000   299.39233     -38.011435      53628.169     -21825.852      3349.296      -18476.556      1.0637592    
    781000   296.17806     -72.532698      53651.237     -21957.494      3313.338      -18644.156      1.0633018    
    782000   293.17466     -636.33473      53714.544     -21929.883      3279.7391     -18650.144      1.0620486    
    783000   307.96371     -115.3935       53224.48      -21926.386      3445.1839     -18481.202      1.0718274    
    784000   295.49843     -718.84925      53210.544     -21944.353      3305.7351     -18638.618      1.0721081    
    785000   300.54164     -362.02928      53670.467     -21901.316      3362.1534     -18539.163      1.0629208    
    786000   301.36903     -232.13787      53938.471     -21954.3        3371.4094     -18582.891      1.0576395    
    787000   296.26161      381.83545      53150.299     -22095.958      3314.2727     -18781.685      1.0733234    
    788000   301.33226     -148.34824      53328.632     -21804.849      3370.998      -18433.851      1.0697341    
    789000   307.11315     -816.10405      53754.898     -21901.897      3435.6687     -18466.228      1.0612513    
    790000   303.58333      857.75872      53518.9       -21875.857      3396.1806     -18479.676      1.065931     
    791000   296.51458     -336.52469      53048.454     -21895.121      3317.1027     -18578.018      1.075384     
    792000   301.15132      855.78256      53003.987     -21882.758      3368.9738     -18513.785      1.0762862    
    793000   297.09646     -493.60643      54192.377     -21799.385      3323.6122     -18475.773      1.0526842    
    794000   309.20021      128.58586      53657.629     -21870.067      3459.0166     -18411.05       1.0631752    
    795000   306.39822     -540.92215      53859.268     -21906.953      3427.6708     -18479.283      1.0591948    
    796000   304.00215      28.664457      53871.875     -21973.106      3400.866      -18572.24       1.058947     
    797000   303.59015     -282.53609      54179.957     -21858.278      3396.257      -18462.021      1.0529255    
    798000   299.25545     -199.59059      53847.699     -21920.268      3347.7647     -18572.504      1.0594224    
    799000   302.95555      104.25278      53814.813     -21874.955      3389.1577     -18485.798      1.0600698    
    800000   302.6332       645.63997      53760.736     -21951.328      3385.5516     -18565.776      1.0611361    
    801000   303.99212      232.62973      54313.107     -21846.772      3400.7538     -18446.018      1.0503442    
    802000   296.88762     -711.14568      53489.432     -21984.288      3321.2759     -18663.012      1.0665183    
    803000   297.70735     -538.59114      53601.605     -21845.228      3330.4462     -18514.782      1.0642864    
    804000   297.68098     -905.97311      53576.417     -21818.622      3330.1513     -18488.471      1.0647867    
    805000   295.33117     -448.61005      53295.388     -21986.061      3303.864      -18682.197      1.0704014    
    806000   303.21084      323.76422      53720.839     -21899.065      3392.0137     -18507.051      1.0619242    
    807000   299.22094     -193.70551      53912.166     -21978.874      3347.3787     -18631.496      1.0581555    
    808000   300.64638      184.24478      54086.225     -21999.838      3363.3251     -18636.513      1.0547502    
    809000   299.70275     -208.79764      53903.947     -21958.833      3352.7687     -18606.064      1.0583169    
    810000   295.35135     -193.51618      53625.474     -22032.896      3304.0896     -18728.807      1.0638126    
    811000   298.71627     -315.62666      53705.343     -21981.117      3341.733      -18639.384      1.0622306    
    812000   296.23735     -9.1570434      53678.554     -21923.876      3314.0014     -18609.874      1.0627607    
    813000   301.36052      523.06409      53650.917     -21967.072      3371.3141     -18595.758      1.0633082    
    814000   297.38099     -58.549115      53698.723     -21936.5        3326.7952     -18609.705      1.0623615    
    815000   306.74092      306.11883      53054.515     -22028.318      3431.5046     -18596.814      1.0752611    
    816000   291.9709      -335.42959      53076.675     -21917.265      3266.2726     -18650.992      1.0748122    
    817000   296.09882     -376.86422      53834.865     -21903.015      3312.4516     -18590.564      1.059675     
    818000   306.55227     -948.48044      53384.212     -21877.219      3429.3942     -18447.825      1.0686204    
    819000   301.0162       176.22537      53511.8       -21927.088      3367.4622     -18559.626      1.0660725    
    820000   297.62523      657.48897      53193.536     -22087.052      3329.5276     -18757.525      1.0724509    
    821000   298.17328      234.88652      53953.511     -21976.467      3335.6585     -18640.809      1.0573447    
    822000   296.43031      535.36465      53770.905     -21979.998      3316.16       -18663.838      1.0609354    
    823000   299.5003      -673.6009       53515.088     -21875.668      3350.5039     -18525.164      1.066007     
    824000   303.29865     -45.367686      54193.753     -21821.876      3392.9959     -18428.881      1.0526574    
    825000   299.17063      812.55298      52809.398     -21952.362      3346.8159     -18605.546      1.080252     
    826000   291.84363      133.14923      53382.489     -21929.897      3264.8489     -18665.048      1.0686549    
    827000   298.04559      717.76326      53186.229     -21964.096      3334.2301     -18629.866      1.0725983    
    828000   291.86234     -575.29153      54151.322     -21794.008      3265.0582     -18528.95       1.0534823    
    829000   302.16182     -329.77484      53538.157     -21886.357      3380.2782     -18506.079      1.0655476    
    830000   302.54182      348.81397      53901.396     -21826.794      3384.5293     -18442.265      1.058367     
    831000   297.08108      865.74503      53603.296     -21800.44       3323.4401     -18477          1.0642528    
    832000   292.57996     -537.29211      53268.804     -21964.008      3273.0862     -18690.922      1.0709356    
    833000   303.58895     -636.28604      53476.81      -21929.3        3396.2435     -18533.057      1.06677      
    834000   303.51193     -918.71333      53433.926     -22047.275      3395.3819     -18651.893      1.0676262    
    835000   298.81654      284.48517      53456.235     -21960.451      3342.8547     -18617.596      1.0671806    
    836000   302.46216      129.80967      53553.108     -21910.914      3383.6382     -18527.276      1.0652502    
    837000   296.45974     -319.3144       53583.684     -21930.409      3316.4892     -18613.92       1.0646423    
    838000   292.61086     -564.68653      53461.172     -21981.387      3273.4319     -18707.955      1.0670821    
    839000   297.2692      -208.94368      53943.585     -21946.969      3325.5446     -18621.424      1.0575392    
    840000   297.79639     -33.64466       54014.842     -21912.02       3331.4423     -18580.578      1.0561441    
    841000   299.13557     -507.43324      53924.894     -21916.777      3346.4237     -18570.353      1.0579058    
    842000   302.37627      257.22909      53386.995     -21929.333      3382.6773     -18546.656      1.0685647    
    843000   309.55784     -463.57053      54180.016     -21957.939      3463.0174     -18494.921      1.0529243    
    844000   295.17534     -132.92861      53548.003     -21935.548      3302.1207     -18633.427      1.0653517    
    845000   300.02448     -110.18875      53395.52      -22049.635      3356.3679     -18693.267      1.0683941    
    846000   296.66313      310.15097      53698.454     -21939.056      3318.7645     -18620.292      1.0623668    
    847000   304.25945      212.05689      53641.328     -21994.876      3403.7444     -18591.131      1.0634982    
    848000   295.52218     -693.34813      53877.302     -21911.82       3306.0008     -18605.819      1.0588403    
    849000   302.18032      604.58404      53620.236     -21900.15       3380.4852     -18519.665      1.0639166    
    850000   297.88424     -31.495421      53890.973     -21930.476      3332.4251     -18598.051      1.0585717    
    851000   303.11322      239.46842      53654.448     -21951.929      3390.9216     -18561.007      1.0632382    
    852000   299.10871      157.73368      53665.581     -21906.84       3346.1231     -18560.717      1.0630176    
    853000   305.83069      260.84534      53264.341     -21842.995      3421.3219     -18421.673      1.0710253    
    854000   300.64721      595.95625      53689.281     -21855.662      3363.3344     -18492.328      1.0625484    
    855000   300.43795      496.86532      53463.428     -21864.212      3360.9934     -18503.219      1.067037     
    856000   297.08573      320.14842      53479.438     -21967.658      3323.4922     -18644.166      1.0667176    
    857000   292.99873      84.055277      53508.978     -21784.225      3277.771      -18506.454      1.0661287    
    858000   297.94654      316.66674      52699.518     -21982.541      3333.122      -18649.419      1.0825043    
    859000   306.98713      1160.3306      53227.625     -21884.343      3434.2589     -18450.084      1.0717641    
    860000   300.16951      293.1173       53493.01      -22002.455      3357.9903     -18644.465      1.066447     
    861000   300.34431      202.14709      53551.562     -21923.812      3359.9458     -18563.867      1.0652809    
    862000   293.57761      464.0121       53234.884     -21845.141      3284.2469     -18560.894      1.071618     
    863000   294.41113      479.53226      53527.265     -21949.335      3293.5715     -18655.763      1.0657645    
    864000   295.81332      91.677923      53735.762     -21887.373      3309.2577     -18578.115      1.0616293    
    865000   300.89447      246.30263      53691.918     -21847.606      3366.1004     -18481.506      1.0624962    
    866000   296.18495      165.5145       53390.154     -22033.376      3313.4152     -18719.961      1.0685015    
    867000   303.87469      222.91591      53381.577     -21866.152      3399.4401     -18466.712      1.0686731    
    868000   304.86372      530.03394      53182.734     -21923.536      3410.5044     -18513.031      1.0726688    
    869000   293.99832     -463.66918      53645.785     -21800.961      3288.9533     -18512.008      1.0634099    
    870000   294.36522     -321.65233      53935.99      -21877.39       3293.0578     -18584.333      1.0576882    
    871000   298.77405      153.89056      53557.162     -21961.587      3342.3794     -18619.207      1.0651695    
    872000   300.60333     -305.49404      53713.412     -21849.183      3362.8435     -18486.339      1.062071     
    873000   304.95614     -38.205242      53844.785     -21961.274      3411.5382     -18549.736      1.0594797    
    874000   295.0207      -6.643047       53509.384     -21928.148      3300.3907     -18627.757      1.0661206    
    875000   304.18655      76.82477       53418.385     -21984.098      3402.9289     -18581.17       1.0679368    
    876000   297.56609     -227.67856      54078.033     -21978.002      3328.8659     -18649.136      1.05491      
    877000   303.38499     -169.86529      53460.547     -21926.174      3393.9619     -18532.212      1.0670945    
    878000   301.92886      194.44142      53940.11      -21850.455      3377.6722     -18472.783      1.0576074    
    879000   297.93711     -265.76981      53750.037     -21873.617      3333.0165     -18540.601      1.0613473    
    880000   300.46508     -164.38731      53390.489     -22007.251      3361.2969     -18645.954      1.0684948    
    881000   298.94524      561.35564      53922.355     -21990.59       3344.2945     -18646.296      1.0579556    
    882000   300.90489      71.250909      53634.744     -22043.382      3366.2171     -18677.165      1.0636288    
    883000   297.9971      -475.74272      53516.025     -21881.639      3333.6877     -18547.951      1.0659883    
    884000   310.85452     -140.65907      53752.787     -21838.146      3477.5233     -18360.623      1.061293     
    885000   297.95259     -314.95327      53840.753     -21881.954      3333.1897     -18548.764      1.0595591    
    886000   303.20305      388.28156      53532.934     -22044.144      3391.9265     -18652.218      1.0656516    
    887000   296.62767      727.82213      53592.674     -21887.384      3318.3678     -18569.016      1.0644637    
    888000   296.77826      635.83429      53849.801     -21857.998      3320.0524     -18537.945      1.059381     
    889000   298.82693     -798.35716      53534.983     -21957.994      3342.971      -18615.023      1.0656108    
    890000   297.75629     -409.18102      54029.397     -21811.042      3330.9937     -18480.049      1.0558596    
    891000   301.25831      122.74051      53730.381     -22107.726      3370.1707     -18737.555      1.0617356    
    892000   307.98923      132.00411      53704.491     -21938.814      3445.4694     -18493.345      1.0622474    
    893000   299.60558      286.63696      53175.221     -21990.616      3351.6817     -18638.934      1.0728203    
    894000   298.17124     -100.08128      53677.252     -21852.243      3335.6358     -18516.607      1.0627865    
    895000   303.71333      625.01393      53112.153     -21984.013      3397.635      -18586.378      1.0740942    
    896000   306.49522      721.08785      53261.503     -21995.533      3428.7559     -18566.777      1.0710824    
    897000   299.41269     -464.92787      53933.252     -21967.023      3349.5238     -18617.499      1.0577419    
    898000   299.11659     -277.03368      53856.012     -21853.629      3346.2113     -18507.418      1.0592589    
    899000   296.30804      246.4234       53919.941     -22047.517      3314.7921     -18732.725      1.058003     
    900000   302.52664     -333.56194      53630.495     -21860.686      3384.3595     -18476.326      1.0637131    
    901000   303.31722     -38.529562      53283.051     -21880.681      3393.2037     -18487.477      1.0706492    
    902000   297.49941      668.35705      53499.511     -21839.356      3328.12       -18511.236      1.0663174    
    903000   299.15764      125.96219      53553.908     -21960.06       3346.6706     -18613.39       1.0652343    
    904000   297.29578      691.3376       53497.611     -21995.188      3325.8419     -18669.346      1.0663552    
    905000   297.89336      334.30044      53749.141     -21885.75       3332.5271     -18553.223      1.061365     
    906000   296.70466      245.29365      53759.268     -21901.008      3319.2292     -18581.779      1.0611651    
    907000   305.87848     -19.292354      53943.135     -22163.776      3421.8564     -18741.92       1.0575481    
    908000   307.07474     -198.22894      54195.926     -21953.354      3435.239      -18518.115      1.0526152    
    909000   301.8055       379.13388      53477.919     -21928.688      3376.2921     -18552.396      1.0667479    
    910000   295.79176     -629.97847      53527.047     -21996.354      3309.0165     -18687.338      1.0657688    
    911000   298.39126     -391.41391      53554.427     -21937.346      3338.0971     -18599.249      1.0652239    
    912000   300.61713      354.45885      53105.453     -22042.734      3362.9979     -18679.736      1.0742298    
    913000   290.13553     -341.60257      53257.185     -21832.339      3245.7404     -18586.598      1.0711692    
    914000   299.05242     -385.25996      54102.451     -22120.327      3345.4934     -18774.834      1.0544339    
    915000   297.22655     -584.68107      53860.835     -21818.277      3325.0675     -18493.209      1.059164     
    916000   299.70016      441.08928      53563.46      -21908.863      3352.7397     -18556.123      1.0650443    
    917000   298.17681     -113.59774      53560.839     -21897.316      3335.6981     -18561.618      1.0650964    
    918000   297.80539     -943.88847      53451.053     -21885.067      3331.543      -18553.524      1.0672841    
    919000   297.72191     -72.603208      53835.782     -21992.04       3330.6091     -18661.431      1.0596569    
    920000   299.35871     -100.05318      53339.666     -22062.174      3348.9199     -18713.254      1.0695128    
    921000   303.91501     -391.16784      53727.538     -21917.355      3399.8912     -18517.463      1.0617918    
    922000   305.41031     -609.49018      53809.599     -22028.7        3416.6191     -18612.081      1.0601725    
    923000   302.26481     -737.9899       53731.375     -21926.667      3381.4305     -18545.237      1.061716     
    924000   299.17812      61.740767      53977.784     -21857.434      3346.8997     -18510.534      1.0568692    
    925000   297.15098     -287.77463      53386.747     -21828.206      3324.2222     -18503.984      1.0685696    
    926000   300.86462      379.4198       53755.819     -21857.472      3365.7665     -18491.705      1.0612332    
    927000   302.52866     -55.530133      53187.294     -21920.912      3384.3821     -18536.53       1.0725768    
    928000   290.9317      -422.27682      53459.398     -21859.144      3254.6471     -18604.497      1.0671175    
    929000   298.61587      1083.0761      53373.93      -21958.413      3340.6098     -18617.803      1.0688263    
    930000   308.14407      77.368063      53384.829     -22003.199      3447.2016     -18555.997      1.068608     
    931000   295.62752      396.33292      53725.65      -21938.951      3307.1792     -18631.772      1.0618291    
    932000   298.74495      236.7694       53684.742     -21986.632      3342.0538     -18644.578      1.0626382    
    933000   297.26989     -451.21306      53560.664     -21802.814      3325.5523     -18477.261      1.0650999    
    934000   299.14155      188.92337      53306.798     -21820.689      3346.4905     -18474.198      1.0701723    
    935000   304.5754       61.409176      53556.358     -21919.375      3407.279      -18512.096      1.0651855    
    936000   299.37787      847.33093      53527.87      -21852.334      3349.1342     -18503.199      1.0657524    
    937000   303.9012      -162.20863      53566.66      -21861.094      3399.7367     -18461.357      1.0649807    
    938000   296.08019      289.43861      53813.318     -21810.527      3312.2432     -18498.284      1.0600992    
    939000   304.37495     -32.168601      53478.66      -21895.276      3405.0365     -18490.24       1.0667331    
    940000   299.73753      226.63167      53695.34      -21822.657      3353.1578     -18469.5        1.0624285    
    941000   293.47239      725.93691      53335.117     -21930.621      3283.0698     -18647.551      1.0696041    
    942000   301.64961     -541.20399      53739.688     -21848.183      3374.5482     -18473.635      1.0615517    
    943000   304.386        251.15673      54276.684     -21954.758      3405.1601     -18549.598      1.0510491    
    944000   298.25474      664.55317      53700.21      -21930.594      3336.5699     -18594.024      1.0623321    
    945000   303.64008     -388.91998      53803.864     -21801.822      3396.8155     -18405.006      1.0602855    
    946000   297.72473      102.35102      53436.269     -21786.633      3330.6406     -18455.992      1.0675794    
    947000   294.74484      580.35161      53422.793     -21972.113      3297.3047     -18674.808      1.0678487    
    948000   309.71235     -227.29304      53215.873     -21754.123      3464.7459     -18289.377      1.0720008    
    949000   301.93607     -175.38378      54443.83      -21881.078      3377.7528     -18503.325      1.0478223    
    950000   300.7791       50.083543      53307.265     -22029.61       3364.8098     -18664.8        1.0701629    
    951000   298.16142     -541.8938       54163.902     -21864.197      3335.5258     -18528.671      1.0532376    
    952000   300.56794      295.77322      53604.887     -21906.767      3362.4475     -18544.319      1.0642212    
    953000   293.66002     -168.01718      53829.838     -21778.934      3285.1688     -18493.765      1.0597739    
    954000   300.62691      208.17504      53558.323     -21815.182      3363.1072     -18452.075      1.0651464    
    955000   307.36162     -332.94267      53191.494     -21900.098      3438.4483     -18461.649      1.0724921    
    956000   300.79891     -487.38241      53416.211     -22001.344      3365.0314     -18636.313      1.0679802    
    957000   297.44698     -16.581765      53793.041     -21941.038      3327.5335     -18613.504      1.0604988    
    958000   307.03391     -66.592605      54012.102     -21860.425      3434.7822     -18425.643      1.0561977    
    959000   297.62554      28.869756      53682.608     -22004.591      3329.531      -18675.06       1.0626804    
    960000   297.58773     -439.7755       53990.067     -21895.509      3329.108      -18566.401      1.0566288    
    961000   297.08857      97.307138      53606.607     -21990.962      3323.5239     -18667.438      1.0641871    
    962000   300.32657      340.91651      53448.266     -21867.707      3359.7474     -18507.959      1.0673397    
    963000   299.00509     -45.21988       53788.031     -22005.439      3344.964      -18660.475      1.0605976    
    964000   304.75991      591.28002      54378.358     -21727.954      3409.343      -18318.611      1.0490839    
    965000   299.36153      117.7841       53459.91      -21748.727      3348.9515     -18399.775      1.0671072    
    966000   306.71505     -84.844107      53685.942     -21919.459      3431.2152     -18488.244      1.0626144    
    967000   298.68335      772.7753       52981.353     -21809.012      3341.3647     -18467.647      1.076746     
    968000   298.82654     -205.88186      53745.631     -21891.281      3342.9665     -18548.314      1.0614343    
    969000   298.72917      88.715962      53666.63      -21839.088      3341.8772     -18497.211      1.0629968    
    970000   294.82685     -484.33994      53767.346     -21942.311      3298.2221     -18644.089      1.0610056    
    971000   307.2721      -436.66406      53477.191     -21875.461      3437.4469     -18438.014      1.0667624    
    972000   305.50036      233.89265      53012.923     -22042.315      3417.6265     -18624.689      1.0761047    
    973000   298.03249     -264.5397       53691.351     -21871.597      3334.0835     -18537.514      1.0625074    
    974000   300.00726     -538.356        53293.618     -21918.59       3356.1752     -18562.415      1.0704369    
    975000   306.56375      1054.2764      53823.362     -21875.605      3429.5225     -18446.082      1.0599014    
    976000   296.65769      109.63856      53699.032     -22014.802      3318.7036     -18696.098      1.0623554    
    977000   301.20831     -11.042449      53660.189     -21964.118      3369.6113     -18594.506      1.0631244    
    978000   303.65397     -206.4423       53347.508     -21969.967      3396.971      -18572.996      1.0693556    
    979000   303.2517      -289.64349      53735.098     -21896.192      3392.4707     -18503.721      1.0616424    
    980000   302.28736     -493.10326      53519.722     -21848.718      3381.6827     -18467.036      1.0659147    
    981000   303.90701      787.70494      53513.66      -21856.447      3399.8017     -18456.646      1.0660354    
    982000   296.32418      124.17374      53232.042     -21977.403      3314.9727     -18662.43       1.0716752    
    983000   300.71826     -465.16899      53750.333     -21874.621      3364.1292     -18510.492      1.0613415    
    984000   293.68579      168.58023      52785.687     -22091.922      3285.4571     -18806.465      1.0807372    
    985000   304.78434      112.75857      53800.56      -21857.15       3409.6164     -18447.534      1.0603506    
    986000   306.84761      811.03942      53393.413     -21746.304      3432.6982     -18313.606      1.0684362    
    987000   308.44605     -269.05897      53871.848     -21748.439      3450.5798     -18297.859      1.0589475    
    988000   300.28435     -278.19744      53624.515     -21909.926      3359.2751     -18550.651      1.0638317    
    989000   296.56554      237.98227      53636.48      -21885.9        3317.6728     -18568.227      1.0635944    
    990000   293.94941     -382.99093      53593.421     -21854.575      3288.4062     -18566.169      1.0644489    
    991000   300.43084     -737.8879       54114.619     -21795.626      3360.9138     -18434.712      1.0541968    
    992000   300.83635     -183.67414      53502.923     -21886.271      3365.4503     -18520.82       1.0662494    
    993000   302.87859     -108.55855      53513.165     -21910.129      3388.2968     -18521.832      1.0660453    
    994000   298.1124      -295.93007      53543.919     -21973.642      3334.9775     -18638.665      1.065433     
    995000   301.17928      271.50832      53963.567     -21917.654      3369.2866     -18548.367      1.0571476    
    996000   295.82354      912.06202      53707.007     -21958.509      3309.3721     -18649.137      1.0621977    
    997000   302.87676      334.79349      53555.003     -22020.725      3388.2763     -18632.449      1.0652125    
    998000   307.46969      845.93187      53786.747     -21970.217      3439.6573     -18530.559      1.0606229    
    999000   293.94087     -462.47307      53673.779     -22024.418      3288.3106     -18736.107      1.0628552    
   1000000   299.49652      1.5711341      53513.366     -21857.93       3350.4616     -18507.469      1.0660413    
   1001000   303.41051      354.39243      53246.274     -21920.223      3394.2474     -18525.975      1.0713887    
   1002000   298.96321     -364.64707      53009.112     -21954.551      3344.4955     -18610.056      1.0761821    
   1003000   301.32249     -58.252045      53129.37      -21867.105      3370.8887     -18496.216      1.0737462    
   1004000   304.50395      568.03576      52633.313     -21939.128      3406.4796     -18532.648      1.083866     
   1005000   296.43523     -519.07645      53826.095     -21798.249      3316.215      -18482.034      1.0598476    
   1006000   298.79482      243.78417      53444.713     -21936.482      3342.6117     -18593.87       1.0674107    
   1007000   299.7209       917.63074      53336.422     -21741.749      3352.9717     -18388.777      1.0695779    
   1008000   299.3521       536.80787      53692.947     -21835.67       3348.846      -18486.824      1.0624758    
   1009000   293.86254      700.32515      53514.573     -21798.158      3287.4344     -18510.724      1.0660172    
   1010000   298.30236     -700.90166      53823.048     -21920.129      3337.1026     -18583.026      1.0599076    
   1011000   297.82227     -25.761087      53986.98      -21911.344      3331.7318     -18579.612      1.0566892    
   1012000   297.41709      377.78363      53671.722     -21790.481      3327.1991     -18463.282      1.062896     
   1013000   296.37139     -350.22765      53213.092     -21978.916      3315.5008     -18663.415      1.0720568    
   1014000   298.22359      265.28804      53342.947     -21862.645      3336.2213     -18526.424      1.0694471    
   1015000   301.09991     -294.38355      53691.545     -21823.621      3368.3987     -18455.223      1.0625036    
   1016000   299.07032      194.39286      53334.348     -22038.335      3345.6938     -18692.641      1.0696195    
   1017000   301.31875      118.91549      53450.513     -21926.974      3370.8469     -18556.127      1.0672949    
   1018000   304.52226      551.24933      53373.94      -21926.029      3406.6845     -18519.345      1.0688261    
   1019000   296.52541      78.747878      53831.647     -22065.677      3317.2238     -18748.453      1.0597383    
   1020000   306.25386     -453.58002      53992.266     -21983.025      3426.0558     -18556.969      1.0565857    
   1021000   302.54678      180.76282      53924.231     -21874.457      3384.5848     -18489.872      1.0579188    
   1022000   305.38975      115.56043      53225.245     -22008.312      3416.3891     -18591.922      1.071812     
   1023000   301.47657     -12.381204      53840.947     -22036.021      3372.6124     -18663.408      1.0595552    
   1024000   302.58101     -496.44444      54252.965     -21927.042      3384.9677     -18542.074      1.0515086    
   1025000   295.31653     -0.49191506     54070.345     -21931.438      3303.7001     -18627.738      1.05506      
   1026000   299.97154      484.94957      53698.596     -21915.801      3355.7756     -18560.025      1.0623641    
   1027000   303.8924      -9.0400765      54386.797     -21898.352      3399.6382     -18498.714      1.0489211    
   1028000   306.79983     -260.93627      53651.111     -21871.283      3432.1636     -18439.119      1.0633043    
   1029000   298.61523     -507.45926      53778.308     -21842.603      3340.6026     -18502.001      1.0607894    
   1030000   298.30473     -759.15837      53544.916     -22017.798      3337.129      -18680.669      1.0654131    
   1031000   301.74753     -942.47316      53864.139     -21940.328      3375.6436     -18564.684      1.059099     
   1032000   304.18217     -28.997245      54072.171     -21837.534      3402.8799     -18434.655      1.0550244    
   1033000   289.56392      1161.6579      53173.591     -22023.444      3239.3458     -18784.099      1.0728532    
   1034000   298.57014      917.36729      53314.963     -21957.373      3340.0982     -18617.275      1.0700084    
   1035000   296.05355      12.360597      53204.667     -21964.129      3311.9452     -18652.184      1.0722266    
   1036000   300.28277     -23.328034      53053.363     -21909.62       3359.2574     -18550.363      1.0752845    
   1037000   305.08495      585.69585      53469.687     -21978.704      3412.9793     -18565.725      1.0669121    
   1038000   299.49872      541.51133      53163.179     -21904.381      3350.4862     -18553.895      1.0730633    
   1039000   313.69473      756.04862      53788.402     -21963.533      3509.2967     -18454.236      1.0605903    
   1040000   300.01111     -433.37889      53604.244     -22014.451      3356.2183     -18658.233      1.064234     
   1041000   297.82231     -145.55498      53315.507     -21924.661      3331.7323     -18592.929      1.0699975    
   1042000   298.79816     -34.510511      53513.744     -21912.155      3342.6491     -18569.506      1.0660338    
   1043000   294.76243     -769.04653      52774.222     -21977.585      3297.5014     -18680.083      1.080972     
   1044000   291.51566      164.10713      53470.733     -21885.745      3261.1799     -18624.565      1.0668913    
   1045000   300.50442     -152.21408      53257.319     -21876.249      3361.737      -18514.512      1.0711665    
   1046000   304.70003      61.815568      53347.892     -21756.156      3408.6731     -18347.483      1.0693479    
   1047000   296.99201     -584.54645      54097.635     -21903.481      3322.4438     -18581.037      1.0545278    
   1048000   303.39414     -116.72748      53370.318     -21916.371      3394.0642     -18522.306      1.0688986    
   1049000   297.53646      392.37725      53829.574     -21859.919      3328.5345     -18531.385      1.0597791    
   1050000   301.37554      123.01241      54108.484     -21915.77       3371.4821     -18544.287      1.0543163    
   1051000   305.67425      20.679169      53864.45      -21896.294      3419.5717     -18476.722      1.0590929    
   1052000   300.63863      28.8281        53416.145     -21849.036      3363.2384     -18485.798      1.0679816    
   1053000   303.04759      45.260493      53123.363     -22014.532      3390.1873     -18624.345      1.0738676    
   1054000   297.65663      34.330198      53078.811     -21886.676      3329.8788     -18556.797      1.074769     
   1055000   306.67799      692.6015       53266.679     -21926.769      3430.8006     -18495.968      1.0709783    
   1056000   295.99331     -251.35124      53490.223     -21793.795      3311.2713     -18482.524      1.0665025    
   1057000   298.89357     -113.56852      53282.998     -21997.228      3343.7164     -18653.511      1.0706503    
   1058000   291.18822     -145.55598      53622.933     -21834.054      3257.5168     -18576.537      1.0638631    
   1059000   301.3197       289.71601      53438.329     -21821.366      3370.8575     -18450.509      1.0675382    
   1060000   304.52694     -238.98792      53374.438     -21839.04       3406.7368     -18432.303      1.0688161    
   1061000   307.83631     -793.6739       53586.879     -22074.364      3443.7586     -18630.606      1.0645788    
   1062000   307.41253     -319.95739      53654.169     -21949.868      3439.0178     -18510.85       1.0632437    
   1063000   302.4401       201.83444      54057.381     -21813.987      3383.3914     -18430.595      1.055313     
   1064000   295.1943       455.68876      53342.847     -21965.38       3302.3327     -18663.048      1.0694491    
   1065000   296.49963      751.57964      53726.118     -21927.741      3316.9355     -18610.805      1.0618198    
   1066000   302.21653      87.417673      53298.486     -22008.489      3380.8903     -18627.599      1.0703392    
   1067000   300.62363     -645.61816      53963.996     -21892.801      3363.0705     -18529.73       1.0571392    
   1068000   307.56654      553.09851      53639.546     -21956.868      3440.7408     -18516.127      1.0635336    
   1069000   289.61037     -480.13695      54111.923     -22010.201      3239.8654     -18770.335      1.0542493    
   1070000   298.31024      255.81546      54009.146     -21941.837      3337.1908     -18604.646      1.0562555    
   1071000   305.3313       501.60021      53210.592     -21941.191      3415.7352     -18525.456      1.0721072    
   1072000   299.79888     -722.37836      53907.041     -21879.119      3353.8441     -18525.275      1.0582562    
   1073000   293.57524     -144.63999      53857.808     -21815.56       3284.2204     -18531.339      1.0592235    
   1074000   301.85426     -399.56786      53644.141     -21930.648      3376.8376     -18553.81       1.0634425    
   1075000   306.65905      168.48933      53715.876     -21876.275      3430.5887     -18445.686      1.0620223    
   1076000   302.08786     -989.74296      53890.189     -21859.917      3379.4508     -18480.466      1.0585871    
   1077000   300.81507      65.551007      53859.518     -21822.56       3365.2122     -18457.348      1.0591899    
   1078000   299.40678     -9.9978532      53675.734     -21896.33       3349.4576     -18546.873      1.0628165    
   1079000   299.56839     -316.33823      53826.984     -21866.162      3351.2656     -18514.896      1.0598301    
   1080000   301.12189      941.16425      54000.502     -21878.064      3368.6446     -18509.419      1.0564246    
   1081000   293.83336     -776.35049      53877.731     -21947.138      3287.1079     -18660.03       1.0588318    
   1082000   301.82174     -331.8347       54034.335     -21850.947      3376.4738     -18474.473      1.0557631    
   1083000   306.17766     -96.184503      54084.097     -21850.573      3425.2034     -18425.369      1.0547917    
   1084000   299.79599     -538.88205      53967.119     -21851.773      3353.8118     -18497.961      1.0570781    
   1085000   299.28626      32.484931      53660.744     -21939.322      3348.1095     -18591.213      1.0631134    
   1086000   295.1091       172.67184      53213.083     -21962.655      3301.3796     -18661.275      1.072057     
   1087000   299.68582     -687.41944      53335.475     -21975.465      3352.5793     -18622.886      1.0695969    
   1088000   304.83153     -315.16984      53459.228     -21840.949      3410.1443     -18430.804      1.0671209    
   1089000   299.55228     -283.23349      54074.482     -22023.611      3351.0854     -18672.525      1.0549793    
   1090000   302.10601      62.378604      54048.633     -21964.018      3379.6539     -18584.364      1.0554838    
   1091000   297.85309     -24.469521      54051.402     -21953.966      3332.0766     -18621.89       1.0554298    
   1092000   299.81377      188.47773      53636.212     -21868.287      3354.0107     -18514.276      1.0635997    
   1093000   298.04332      484.46316      53476.327     -21978.105      3334.2047     -18643.9        1.0667796    
   1094000   299.40764     -388.93973      53550.655     -21752.715      3349.4673     -18403.248      1.065299     
   1095000   296.37016     -19.344058      53384.381     -21895.18       3315.487      -18579.693      1.068617     
   1096000   296.32331      783.53847      53274.867     -21986.255      3314.963      -18671.292      1.0708137    
   1097000   297.81262      107.84305      53604.295     -21920.035      3331.6239     -18588.411      1.064233     
   1098000   306.46942     -470.15762      53529.599     -21796.596      3428.4673     -18368.129      1.065718     
   1099000   303.17538      492.62252      53373.886     -21869.059      3391.617      -18477.442      1.0688271    
   1100000   296.33996     -147.11232      53415.541     -21949.991      3315.1493     -18634.842      1.0679936    
   1101000   302.0303      -948.52606      53802.06      -21809.221      3378.8069     -18430.414      1.0603211    
   1102000   295.07986      761.57693      53128.982     -21983.307      3301.0525     -18682.254      1.073754     
   1103000   300.4645       911.28514      53121.259     -21882.882      3361.2904     -18521.592      1.0739101    
   1104000   293.46415      191.95577      53455.272     -21848.326      3282.9776     -18565.348      1.0671998    
   1105000   297.47518     -381.11732      53510.848     -21849.623      3327.8489     -18521.774      1.0660914    
   1106000   295.47154     -16.824904      53322.998     -21948.262      3305.4342     -18642.828      1.0698471    
   1107000   302.58611      167.94769      53140.267     -21889.807      3385.0248     -18504.782      1.073526     
   1108000   303.8782      -518.9692       53723.499     -21937.622      3399.4794     -18538.142      1.0618716    
   1109000   300.56684      358.35364      53494.1       -21936.614      3362.4353     -18574.179      1.0664252    
   1110000   303.49109      1.9796864      53576.729     -21935.354      3395.1488     -18540.206      1.0647805    
   1111000   301.26065      1422.4596      53257.899     -21864.204      3370.1969     -18494.007      1.0711549    
   1112000   299.98563     -515.06794      53618.392     -21864.595      3355.9333     -18508.662      1.0639532    
   1113000   298.78248     -86.166402      53178.423     -21921.693      3342.4736     -18579.219      1.0727557    
   1114000   295.77752     -452.14168      53346.027     -21949.592      3308.8573     -18640.735      1.0693853    
   1115000   308.46971     -32.319792      53469.917     -21858.023      3450.8445     -18407.178      1.0669075    
   1116000   297.85036     -429.28125      53829.623     -21952.498      3332.046      -18620.452      1.0597781    
   1117000   299.23121     -94.658757      53932.339     -21870.589      3347.4936     -18523.095      1.0577597    
   1118000   301.89788      66.891798      53901.022     -21961.518      3377.3256     -18584.192      1.0583743    
   1119000   301.9327      -877.02062      53966.297     -21899.707      3377.7151     -18521.991      1.0570942    
   1120000   300.15963     -730.31301      53512.078     -21955.532      3357.8798     -18597.652      1.0660669    
   1121000   298.18127      276.85378      53673.916     -21956.673      3335.7479     -18620.925      1.0628525    
   1122000   303.7329      -546.05941      53910.088     -21912.016      3397.8539     -18514.162      1.0581963    
   1123000   296.8899      -451.12401      53651.695     -21816.022      3321.3014     -18494.72       1.0632927    
   1124000   301.38842     -1323.8224      54180.196     -21937.018      3371.6263     -18565.392      1.0529208    
   1125000   293.97264     -507.26356      53529.547     -22078.367      3288.6661     -18789.701      1.065719     
   1126000   304.08869      402.31894      53621.712     -21870.083      3401.8341     -18468.249      1.0638873    
   1127000   303.44582      314.98399      53501.598     -21965.921      3394.6423     -18571.279      1.0662758    
   1128000   300.47566      91.927174      53175.299     -21833.684      3361.4152     -18472.268      1.0728188    
   1129000   300.65291     -926.30794      53468.856     -21910.012      3363.3981     -18546.614      1.0669287    
   1130000   298.08411     -1098.2163      53622.992     -21914.733      3334.661      -18580.072      1.0638619    
   1131000   299.7289      -119.53744      53448.016     -21788.504      3353.0612     -18435.443      1.0673447    
   1132000   294.84022      223.49044      53398.585     -21866.206      3298.3717     -18567.835      1.0683328    
   1133000   297.59656     -88.966094      54213.002     -21870.118      3329.2068     -18540.911      1.0522837    
   1134000   300.61354      526.29704      53202.367     -21995.003      3362.9577     -18632.046      1.0722729    
   1135000   299.21869      7.3981135      53676.63      -21904.183      3347.3535     -18556.829      1.0627988    
   1136000   292.98951     -933.27242      53780.881     -22030.373      3277.6679     -18752.705      1.0607386    
   1137000   295.14833      50.858254      53378.216     -21840.048      3301.8185     -18538.23       1.0687404    
   1138000   302.70075     -253.13035      53801.728     -21922.101      3386.3072     -18535.793      1.0603276    
   1139000   301.42345      48.195991      53758.321     -21875.45       3372.0182     -18503.432      1.0611838    
   1140000   302.19464      366.52         54206.266     -21803.861      3380.6455     -18423.215      1.0524144    
   1141000   296.50463      970.99703      53800.435     -21872.65       3316.9914     -18555.659      1.0603531    
   1142000   301.51172      106.16056      53557.559     -21807.512      3373.0056     -18434.506      1.0651617    
   1143000   303.63296     -817.04753      53294.205     -21937.581      3396.7359     -18540.845      1.0704252    
   1144000   302.30966     -162.24853      53538.42      -21924.347      3381.9321     -18542.415      1.0655424    
   1145000   293.44556      626.34339      53117.187     -21980.524      3282.7696     -18697.755      1.0739924    
   1146000   297.27941     -563.609        53600.087     -21748.354      3325.6588     -18422.695      1.0643165    
   1147000   298.22442     -406.97868      53991.94      -21943.877      3336.2306     -18607.647      1.0565921    
   1148000   300.29768      3.6258857      53514.031     -22031.787      3359.4242     -18672.362      1.066028     
   1149000   299.22361     -183.04149      53421.824     -21917.943      3347.4085     -18570.534      1.067868     
   1150000   293.79168     -379.54667      53201.141     -21942.236      3286.6417     -18655.594      1.0722976    
   1151000   297.98516     -132.64943      53701.202     -21916.786      3333.554      -18583.232      1.0623125    
   1152000   301.05766      90.911102      53421.938     -22023.993      3367.9261     -18656.067      1.0678657    
   1153000   306.36504      160.13548      53279.816     -21935.375      3427.2996     -18508.075      1.0707142    
   1154000   303.60543      96.470279      53636.966     -21891.176      3396.4279     -18494.749      1.0635847    
   1155000   294.93002     -63.776044      53770.692     -21927.378      3299.3763     -18628.002      1.0609396    
   1156000   306.10549      478.90492      53802.858     -21880.25       3424.3961     -18455.853      1.0603053    
   1157000   296.68523     -1189.8685      53860.47      -21940.497      3319.0118     -18621.485      1.0591712    
   1158000   295.65629      301.20515      53447.933     -21897.409      3307.5011     -18589.908      1.0673464    
   1159000   304.91379      78.247044      53688.263     -21993.505      3411.0645     -18582.44       1.0625685    
   1160000   296.25655     -376.91977      54080.189     -21916.663      3314.2162     -18602.447      1.0548679    
   1161000   300.09327     -689.30492      53890.38      -21860.647      3357.1374     -18503.509      1.0585833    
   1162000   299.29832     -107.87611      53435.246     -21800.884      3348.2444     -18452.639      1.0675998    
   1163000   299.18734     -349.7519       53324.285     -21902.373      3347.0028     -18555.371      1.0698213    
   1164000   298.86331      561.59609      53473.12      -21937.705      3343.3779     -18594.327      1.0668436    
   1165000   293.91111     -375.45035      53517.161     -21943.127      3287.9778     -18655.149      1.0659657    
   1166000   298.79686      41.447899      53437.562     -21914.171      3342.6346     -18571.536      1.0675535    
   1167000   298.5315       128.68296      53669.969     -21843.775      3339.6659     -18504.109      1.0629307    
   1168000   301.07885     -73.961149      53964.79      -21844.538      3368.1631     -18476.375      1.0571237    
   1169000   294.11279      51.102648      53121.94      -21977.834      3290.2339     -18687.6        1.0738964    
   1170000   291.93404     -138.97026      53784.574     -22011.515      3265.8603     -18745.655      1.0606658    
   1171000   298.91435      241.7316       53673.459     -21906.581      3343.9489     -18562.632      1.0628616    
   1172000   299.61116     -25.05271       53718.415     -21805.803      3351.744      -18454.059      1.0619721    
   1173000   299.91056      68.412224      53087.829     -21936.508      3355.0935     -18581.415      1.0745864    
   1174000   298.99848      51.384106      53418.868     -21890.477      3344.8901     -18545.586      1.0679271    
   1175000   302.64972      294.11006      53566.734     -22013.295      3385.7364     -18627.558      1.0649792    
   1176000   288.67374      1086.6018      53556.894     -21984.565      3229.3874     -18755.177      1.0651749    
   1177000   307.34951      546.37103      53692.902     -21992.412      3438.3128     -18554.099      1.0624767    
   1178000   298.78591     -213.44228      53950.998     -21797.892      3342.512      -18455.38       1.0573939    
   1179000   299.67955      869.026        53241.405     -21918.233      3352.5091     -18565.724      1.0714867    
   1180000   301.94817      190.04132      53892.883     -22040.335      3377.8882     -18662.446      1.0585342    
   1181000   305.54469      1361.6687      53247.439     -21994.415      3418.1224     -18576.292      1.0713653    
   1182000   308.62049      70.518878      53931.975     -21862.166      3452.5313     -18409.635      1.0577669    
   1183000   302.48329      700.88056      53418.64      -21993.139      3383.8746     -18609.264      1.0679317    
   1184000   305.38256      90.087656      53919.756     -22035.647      3416.3087     -18619.339      1.0580066    
   1185000   299.83775      403.36574      53245.814     -21957.828      3354.279      -18603.549      1.071398     
   1186000   293.30809     -427.20463      53639.386     -21849.572      3281.2317     -18568.34       1.0635367    
   1187000   303.10107     -101.20764      53286.88      -21842.563      3390.7856     -18451.777      1.0705723    
   1188000   300.04988      139.67371      54166.989     -21894.558      3356.652      -18537.906      1.0531776    
   1189000   299.64521     -42.632454      54077.371     -21893.966      3352.1251     -18541.841      1.0549229    
   1190000   293.44886      212.80622      53960.858     -21989.921      3282.8066     -18707.115      1.0572007    
   1191000   300.25904      599.47063      53744.01      -21873.55       3358.9919     -18514.558      1.0614663    
   1192000   298.9289      -242.42263      54191.785     -21812.221      3344.1116     -18468.109      1.0526957    
   1193000   301.2093      -23.669219      53944.274     -22054.892      3369.6224     -18685.269      1.0575257    
   1194000   299.2024       250.62195      53696.238     -21891.713      3347.1713     -18544.542      1.0624107    
   1195000   300.20879      234.01141      53481.063     -21972.389      3358.4298     -18613.959      1.0666852    
   1196000   298.79282      286.08406      53856.433     -21886.926      3342.5894     -18544.336      1.0592506    
   1197000   299.61526      242.05827      53662.421     -21806.892      3351.79       -18455.102      1.0630802    
   1198000   303.20405     -695.11431      53758.566     -22040.124      3391.9376     -18648.186      1.0611789    
   1199000   304.78086     -567.4817       53238.504     -21928.285      3409.5774     -18518.707      1.0715451    
   1200000   296.62697      731.94015      53226.029     -21852.546      3318.36       -18534.186      1.0717962    
   1201000   302.97692      770.83564      53259.213     -22041.185      3389.3968     -18651.788      1.0711284    
   1202000   299.77572     -184.47197      53179.289     -21899.242      3353.585      -18545.657      1.0727383    
   1203000   296.65876      214.2803       53643.179     -21915.14       3318.7156     -18596.424      1.0634615    
   1204000   304.55476     -178.61041      53958.183     -21878.631      3407.048      -18471.583      1.0572531    
   1205000   314.74471      234.13871      53386.593     -21878.321      3521.0428     -18357.278      1.0685727    
   1206000   300.02978     -146.89293      53782.297     -22147.673      3356.4271     -18791.246      1.0607107    
   1207000   296.14851      208.39968      53906.075     -21907.374      3313.0075     -18594.366      1.0582751    
   1208000   297.77655     -196.85532      53539.229     -21995.311      3331.2203     -18664.091      1.0655263    
   1209000   300.46353      197.2891       53604.78      -21907.736      3361.2796     -18546.456      1.0642233    
   1210000   304.05394     -267.67255      53753.034     -21913.949      3401.4454     -18512.503      1.0612881    
   1211000   305.29668     -305.02208      53410.239     -21896.815      3415.3479     -18481.468      1.0680996    
   1212000   296.82208      892.90074      53702.278     -22005.63       3320.5427     -18685.088      1.0622912    
   1213000   304.65129     -561.18792      53674.943     -21819.399      3408.1279     -18411.271      1.0628322    
   1214000   299.62916     -720.62376      53930.258     -21975.525      3351.9455     -18623.579      1.0578006    
   1215000   296.08856      611.28921      53621.903     -22068.977      3312.3368     -18756.64       1.0638835    
   1216000   298.04271      190.13529      53052.496     -21810.401      3334.1979     -18476.203      1.075302     
   1217000   301.89702     -48.705388      53762.665     -21958.744      3377.316      -18581.428      1.061098     
   1218000   291.65221      100.02019      54292.182     -21906.715      3262.7075     -18644.007      1.050749     
   1219000   308.7359       589.91185      53509.48      -21983.947      3453.8224     -18530.125      1.0661187    
   1220000   297.38668      336.62939      53824.182     -21855.835      3326.8588     -18528.976      1.0598853    
   1221000   298.90007     -248.5289       53573.109     -21750.812      3343.7891     -18407.023      1.0648525    
   1222000   296.70938      490.89787      53078.527     -21782.202      3319.282      -18462.92       1.0747747    
   1223000   301.41194      239.79245      53709.833     -22018.456      3371.8894     -18646.567      1.0621418    
   1224000   304.02446      705.34134      53475.065     -21967.807      3401.1156     -18566.691      1.0668048    
   1225000   293.66675      363.43256      53007.421     -21991.304      3285.2441     -18706.06       1.0762164    
   1226000   305.28807      781.44042      53718.37      -21771.649      3415.2515     -18356.398      1.061973     
   1227000   298.18574     -642.39193      54240.311     -21956.01       3335.798      -18620.212      1.0517539    
   1228000   304.27677     -43.958293      53705.62      -21941.281      3403.9382     -18537.343      1.0622251    
   1229000   297.83611     -200.15531      54059.164     -21865.557      3331.8867     -18533.671      1.0552782    
   1230000   302.78181     -925.95298      54339.484     -21902.963      3387.2141     -18515.749      1.0498344    
   1231000   297.75781      335.53183      53672.841     -21890.002      3331.0107     -18558.992      1.0628738    
   1232000   295.85139      227.75525      53286.489     -21914.711      3309.6837     -18605.028      1.0705802    
   1233000   300.87111      336.86073      53438.463     -21961.268      3365.8391     -18595.429      1.0675355    
   1234000   300.38525     -135.46097      53777.641     -21784.44       3360.4039     -18424.036      1.0608025    
   1235000   299.63113     -635.63422      53515.666     -21814.16       3351.9675     -18462.192      1.0659955    
   1236000   299.48331      21.25492       53117.913     -21825.944      3350.3138     -18475.63       1.0739778    
   1237000   299.94973      28.772964      53462.984     -21862.242      3355.5317     -18506.71       1.0670459    
   1238000   297.23427     -470.1385       53606.188     -21982.03       3325.1539     -18656.876      1.0641954    
   1239000   303.02898      507.7817       53494.242     -22056.195      3389.9791     -18666.216      1.0664224    
   1240000   299.69719     -285.27515      53346.823     -21927.487      3352.7065     -18574.781      1.0693694    
   1241000   295.7642       442.96303      53701.316     -22049.54       3308.7082     -18740.832      1.0623102    
   1242000   298.61348      147.07078      53153.329     -21913.468      3340.5831     -18572.885      1.0732622    
   1243000   296.8624      -476.73378      53651.989     -21964.047      3320.9938     -18643.053      1.0632869    
   1244000   302.53048     -379.33026      53958.444     -21861.852      3384.4024     -18477.449      1.057248     
   1245000   295.32543     -158.03339      53590.228     -21808.379      3303.7997     -18504.579      1.0645123    
   1246000   297.07486      308.06759      53231.765     -21955.683      3323.3705     -18632.313      1.0716808    
   1247000   306.44224     -59.843686      53754.079     -21998.866      3428.1633     -18570.702      1.0612675    
   1248000   297.51422     -128.90527      53768.22      -21860.68       3328.2857     -18532.394      1.0609884    
   1249000   298.98346     -21.285815      53220.023     -22012.07       3344.722      -18667.348      1.0719172    
   1250000   300.24598     -423.13947      53094.108     -21893.468      3358.8458     -18534.622      1.0744593    
   1251000   297.58465     -515.70693      53518.121     -21838.3        3329.0735     -18509.227      1.0659466    
   1252000   306.25769      453.8357       53286.453     -21864.453      3426.0986     -18438.354      1.0705809    
   1253000   295.64336     -105.99302      53700.103     -21958.51       3307.3564     -18651.154      1.0623342    
   1254000   299.71526     -515.39973      53815.775     -21926.834      3352.9087     -18573.926      1.0600508    
   1255000   298.10814      443.59049      53741.716     -21814.91       3334.9298     -18479.98       1.0615116    
   1256000   295.167        521.97174      53687.269     -21811.898      3302.0274     -18509.87       1.0625882    
   1257000   299.27743      329.50449      53270.203     -21941.347      3348.0106     -18593.336      1.0709075    
   1258000   299.20597     -155.76051      53655.6       -21941.91       3347.2112     -18594.699      1.0632153    
   1259000   297.75685      221.67379      53330.864     -21845.569      3330.9999     -18514.569      1.0696894    
   1260000   301.99332      106.52142      53563.989     -21927.876      3378.3932     -18549.483      1.0650338    
   1261000   296.22759      232.18895      53141.244     -22047.08       3313.8921     -18733.188      1.0735062    
   1262000   298.10647      214.39996      53538.12      -22015.627      3334.9112     -18680.715      1.0655484    
   1263000   305.13933     -280.18037      53609.055     -22000.195      3413.5876     -18586.607      1.0641385    
   1264000   297.79037     -319.42162      53755.565     -21940.899      3331.375      -18609.524      1.0612382    
   1265000   290.78018     -55.399393      53630.11      -21985.248      3252.9521     -18732.296      1.0637207    
   1266000   292.21489     -508.10743      53577.27      -21983.458      3269.0022     -18714.456      1.0647698    
   1267000   300.08814     -487.95295      53896.276     -21861.902      3357.08       -18504.822      1.0584675    
   1268000   290.77731     -177.46557      53633.222     -22019.119      3252.92       -18766.199      1.063659     
   1269000   299.69692     -302.27526      53419.78      -21916.17       3352.7034     -18563.467      1.0679089    
   1270000   299.73683      797.99591      53389.561     -21862.844      3353.15       -18509.694      1.0685133    
   1271000   303.86091      563.95962      53293.751     -21857.823      3399.286      -18458.537      1.0704343    
   1272000   299.13135     -10.410476      54144.747     -21959.08       3346.3765     -18612.703      1.0536102    
   1273000   300.52918      151.70745      53426.532     -21961.44       3362.0139     -18599.426      1.0677739    
   1274000   300.80797     -239.37017      53784.723     -21921.136      3365.1328     -18556.003      1.0606629    
   1275000   294.67673      347.26046      53992.412     -21983.091      3296.5427     -18686.548      1.0565829    
   1276000   300.2754       72.249806      53378.169     -21996.545      3359.1749     -18637.37       1.0687414    
   1277000   308.65241     -442.94846      53364.96      -21919.987      3452.8883     -18467.098      1.0690059    
   1278000   297.39729      167.66854      52919.32      -21920.232      3326.9775     -18593.255      1.0780081    
   1279000   304.64091     -439.15997      53350.523     -21815.141      3408.0119     -18407.13       1.0692952    
   1280000   299.88929      340.96375      53768.706     -22124.603      3354.8556     -18769.747      1.0609788    
   1281000   298.84837     -88.387229      53699.083     -21929.474      3343.2108     -18586.263      1.0623544    
   1282000   305.57308      495.25908      53252.332     -21833.651      3418.44       -18415.211      1.0712668    
   1283000   301.69675     -190.28141      53735.084     -21929.163      3375.0756     -18554.088      1.0616427    
   1284000   299.14394     -229.53317      53446.813     -21914.728      3346.5173     -18568.211      1.0673688    
   1285000   296.75451     -314.46209      53113.945     -21907.922      3319.7868     -18588.136      1.074058     
   1286000   298.18531     -936.34437      53458.898     -21908.386      3335.7932     -18572.593      1.0671275    
   1287000   295.80272     -262.17701      53586.836     -21893.468      3309.1391     -18584.328      1.0645797    
   1288000   295.52806      446.06792      53094.429     -21934.608      3306.0666     -18628.542      1.0744528    
   1289000   298.67244     -935.74731      54495.106     -21934.271      3341.2427     -18593.028      1.0468363    
   1290000   299.23475     -181.95342      53697.263     -21943.533      3347.5333     -18596          1.0623904    
   1291000   303.71152      342.35666      53815.107     -21988.856      3397.6147     -18591.242      1.060064     
   1292000   305.02295     -155.80952      53721.898     -21922.893      3412.2857     -18510.608      1.0619032    
   1293000   298.13382     -624.68015      53864.169     -21879.996      3335.2171     -18544.779      1.0590984    
   1294000   294.84591     -280.90841      54151.864     -21857.866      3298.4353     -18559.431      1.0534717    
   1295000   302.83572     -1059.9476      53889.226     -21832.359      3387.8172     -18444.542      1.058606     
   1296000   302.18478     -295.96321      53669.768     -21921.042      3380.5351     -18540.507      1.0629347    
   1297000   298.25641      717.57418      53617.849     -21976.959      3336.5885     -18640.37       1.0639639    
   1298000   303.98248     -261.34876      53417.031     -21836.336      3400.646      -18435.69       1.0679638    
   1299000   303.11152      68.394651      53938.074     -21858.021      3390.9026     -18467.118      1.0576473    
   1300000   299.39929     -503.68693      53448.665     -21942.256      3349.3739     -18592.882      1.0673318    
   1301000   286.36079     -260.9604       53972.339     -21910.723      3203.5125     -18707.211      1.0569758    
   1302000   299.35017      515.21679      53461.913     -21906.687      3348.8244     -18557.863      1.0670673    
   1303000   305.45907      274.71875      53537.701     -21968.742      3417.1645     -18551.577      1.0655567    
   1304000   306.19158      607.43079      53462.924     -21851.672      3425.3591     -18426.313      1.0670471    
   1305000   291.04518     -183.70395      53683.533     -22000.645      3255.9166     -18744.728      1.0626621    
   1306000   300.51331      27.746222      53305.394     -22030.795      3361.8364     -18668.958      1.0702005    
   1307000   298.58697     -645.10645      52920.828     -21983.321      3340.2865     -18643.034      1.0779774    
   1308000   298.53075     -70.994656      53617.913     -21829.526      3339.6576     -18489.868      1.0639627    
   1309000   303.16514     -430.98836      53408.633     -21848.355      3391.5024     -18456.853      1.0681318    
   1310000   303.4876       1129.3193      53614.444     -21758.529      3395.1098     -18363.419      1.0640315    
   1311000   299.24978      184.28939      53488.37      -21900.467      3347.7013     -18552.766      1.0665395    
   1312000   294.754        115.46333      53701.257     -21953.536      3297.4071     -18656.129      1.0623114    
   1313000   309.41517     -761.64286      53525.444     -21927.036      3461.4214     -18465.614      1.0658007    
   1314000   299.34997     -205.24886      53436.832     -21937.626      3348.8222     -18588.804      1.0675681    
   1315000   300.51975     -57.463767      54057.661     -21944.05       3361.9085     -18582.142      1.0553075    
   1316000   288.83062     -141.01486      53058.164     -22025.979      3231.1424     -18794.836      1.0751872    
   1317000   301.04931      83.418055      53106.651     -21852.29       3367.8327     -18484.457      1.0742055    
   1318000   297.05302      325.37187      53501.983     -21931.727      3323.1262     -18608.601      1.0662681    
   1319000   303.19217     -16.964142      53809.639     -21834.643      3391.8047     -18442.838      1.0601717    
   1320000   295.25085     -525.84         54070.502     -22005.091      3302.9654     -18702.125      1.0550569    
   1321000   296.37888     -15.659993      53662.649     -21807.892      3315.5846     -18492.307      1.0630757    
   1322000   298.29229     -761.08578      53330.822     -21859.452      3336.99       -18522.462      1.0696902    
   1323000   304.66015      293.32549      53440.492     -21933.978      3408.227      -18525.751      1.067495     
   1324000   299.08663     -448.71043      54038.211     -21957.393      3345.8762     -18611.516      1.0556874    
   1325000   298.1906      -954.15083      53697.847     -21986.256      3335.8523     -18650.404      1.0623789    
   1326000   293.55223     -377.38351      54012.01      -21996.734      3283.9629     -18712.771      1.0561995    
   1327000   294.86746     -75.831053      53348.574     -22011.014      3298.6764     -18712.338      1.0693342    
   1328000   303.08755      60.766954      53470.961     -22018.173      3390.6344     -18627.539      1.0668867    
   1329000   302.86537      14.872354      53262.067     -21843.76       3388.1489     -18455.611      1.071071     
   1330000   297.29596     -281.47486      53925.595     -21887.314      3325.844      -18561.47       1.057892     
   1331000   301.48518     -105.82547      53754.091     -21948.385      3372.7087     -18575.677      1.0612673    
   1332000   291.38239     -398.80801      53882.995     -21968.62       3259.689      -18708.931      1.0587284    
   1333000   303.70151     -85.355745      53477.409     -21973.148      3397.5028     -18575.645      1.0667581    
   1334000   301.01344     -770.41573      53894.716     -21971.119      3367.4313     -18603.688      1.0584982    
   1335000   302.44891      184.67521      53857.588     -21968.744      3383.4899     -18585.254      1.0592279    
   1336000   300.92978     -427.70028      54002.991     -21929.046      3366.4955     -18562.551      1.0563759    
   1337000   294.82499      637.62055      53695.145     -22034.613      3298.2013     -18736.411      1.0624323    
   1338000   299.10852     -691.7032       53673.058     -21943.143      3346.121      -18597.022      1.0628695    
   1339000   297.06013      180.43821      53188.445     -21891.678      3323.2057     -18568.473      1.0725536    
   1340000   298.16779      167.15719      53769.329     -21861.875      3335.5972     -18526.278      1.0609665    
   1341000   299.9777      -7.3409598      53585.775     -21965.984      3355.8445     -18610.139      1.0646008    
   1342000   311.97998     -1035.2543      53992.266     -21894.609      3490.1138     -18404.495      1.0565857    
   1343000   295.98751      126.86821      53894.041     -21908.418      3311.2064     -18597.212      1.0585114    
   1344000   297.09065      278.74201      53230.242     -21961.481      3323.5472     -18637.934      1.0717114    
   1345000   296.59811     -164.3816       53482.258     -21888.131      3318.0371     -18570.094      1.0666613    
   1346000   303.06143      178.10517      53110.347     -22114.974      3390.3422     -18724.632      1.0741308    
   1347000   295.13025      630.372        53979.909     -21923.238      3301.6163     -18621.622      1.0568276    
   1348000   299.11508     -121.97678      53490.887     -21879.057      3346.1944     -18532.863      1.0664893    
   1349000   301.3151      -156.72457      53831.457     -21790.634      3370.806      -18419.828      1.059742     
   1350000   297.78023     -180.75953      54046.192     -21752.602      3331.2615     -18421.341      1.0555315    
   1351000   301.33565      391.77924      53459.846     -21921.1        3371.0359     -18550.064      1.0671085    
   1352000   301.19569     -453.68186      53461.594     -21863.139      3369.4702     -18493.669      1.0670736    
   1353000   298.98039      522.83676      53458.698     -21912.407      3344.6877     -18567.719      1.0671315    
   1354000   300.22322      948.72213      53146.695     -21893.156      3358.5912     -18534.565      1.0733961    
   1355000   300.50732     -258.2844       53790.09      -21986.891      3361.7694     -18625.121      1.060557     
   1356000   299.68543     -359.15162      54006.029     -21764.077      3352.575      -18411.502      1.0563165    
   1357000   300.9973       621.83289      53486.677     -21925.282      3367.2508     -18558.031      1.0665732    
   1358000   300.03878     -232.77033      53762.349     -21906.026      3356.5279     -18549.499      1.0611043    
   1359000   299.83987     -113.83147      53000.213     -21892.645      3354.3026     -18538.343      1.0763628    
   1360000   302.03536     -122.94004      53450.866     -21959.942      3378.8635     -18581.078      1.0672878    
   1361000   295.16575      507.09004      53296.941     -21959.599      3302.0134     -18657.585      1.0703702    
   1362000   301.15949      367.57955      53000.467     -22055.194      3369.0652     -18686.129      1.0763576    
   1363000   296.60515     -12.262126      52919.539     -22006.307      3318.1159     -18688.191      1.0780037    
   1364000   301.65886     -908.59984      53917.211     -21881.185      3374.6517     -18506.533      1.0580565    
   1365000   299.28053     -57.133642      53524.218     -21868.039      3348.0453     -18519.994      1.0658252    
   1366000   298.7817      -291.11819      53556.245     -21915.789      3342.4649     -18573.324      1.0651878    
   1367000   290.74576     -132.77741      53569.254     -21926.184      3252.567      -18673.617      1.0649291    
   1368000   295.20109     -141.15118      53757.309     -21923.868      3302.4087     -18621.459      1.0612037    
   1369000   305.52573     -127.70485      53714.717     -21938.739      3417.9103     -18520.828      1.0620452    
   1370000   304.57792      519.41712      53641.155     -21919.294      3407.3072     -18511.987      1.0635017    
   1371000   296.78634     -503.53127      53903.879     -21829.641      3320.1429     -18509.498      1.0583182    
   1372000   292.47621     -133.61217      53259.541     -22004.838      3271.9256     -18732.912      1.0711218    
   1373000   294.02614     -129.28185      53400.45      -22002.93       3289.2646     -18713.666      1.0682955    
   1374000   307.32376      38.240618      53088.948     -21944.545      3438.0248     -18506.521      1.0745637    
   1375000   291.50409     -138.24943      53924.723     -21862.912      3261.0504     -18601.862      1.0579092    
   1376000   299.77091      163.43589      53453.015     -21900.573      3353.5312     -18547.042      1.0672449    
   1377000   310.0614       240.90761      53651.16      -21839.317      3468.6508     -18370.666      1.0633033    
   1378000   294.07098     -276.49009      53991.899     -21915.639      3289.7662     -18625.873      1.0565929    
   1379000   296.33155      657.43672      53715.415     -21806.793      3315.0552     -18491.738      1.0620314    
   1380000   300.98499      363.96171      53341.488     -21846.029      3367.1131     -18478.915      1.0694763    
   1381000   304.9941       180.01226      53396.814     -22002.845      3411.9629     -18590.882      1.0683682    
   1382000   301.22476      11.211052      53550.344     -21848.758      3369.7953     -18478.963      1.0653052    
   1383000   305.69146     -503.57523      53474.216     -21917.492      3419.7643     -18497.728      1.0668218    
   1384000   300.94925     -116.00021      53202.982     -21876.583      3366.7132     -18509.87       1.0722605    
   1385000   302.67082     -119.53367      53088.582     -21791.759      3385.9724     -18405.787      1.0745711    
   1386000   303.22042     -495.29185      53488.024     -21898.969      3392.1208     -18506.848      1.0665464    
   1387000   301.05269     -86.460814      53434.716     -21721.384      3367.8705     -18353.514      1.0676104    
   1388000   303.59956     -438.05928      54024.639     -21927.302      3396.3623     -18530.94       1.0559526    
   1389000   294.5391      -289.32873      53256.885     -21888.269      3295.0031     -18593.266      1.0711753    
   1390000   296.13654      537.94277      53451.553     -21837.32       3312.8736     -18524.446      1.0672741    
   1391000   299.84491     -526.84725      53594.302     -21935.815      3354.359      -18581.456      1.0644314    
   1392000   299.09011      128.69168      54070.421     -21891.947      3345.9151     -18546.032      1.0550585    
   1393000   305.13127     -196.28414      53365.79      -21906.915      3413.4975     -18493.417      1.0689893    
   1394000   298.75756     -109.66779      53507.685     -21976.346      3342.1948     -18634.151      1.0661545    
   1395000   303.25728      12.603711      53262.629     -21946.429      3392.5332     -18553.896      1.0710597    
   1396000   300.5861      -211.52404      52895.626     -21847.649      3362.6507     -18484.998      1.078491     
   1397000   302.38815      169.27663      53427.3       -21884.448      3382.8102     -18501.638      1.0677586    
   1398000   306.44116     -603.81674      53610.592     -21914.328      3428.1511     -18486.176      1.064108     
   1399000   304.92825      1125.5579      53702.694     -21991.716      3411.2262     -18580.49       1.062283     
   1400000   296.22884     -1140.3636      53990.949     -21912.84       3313.9062     -18598.933      1.0566115    
   1401000   295.95427      68.46572       53426.102     -21946.707      3310.8346     -18635.872      1.0677825    
   1402000   301.44164     -936.92935      53193.222     -21841.055      3372.2216     -18468.834      1.0724573    
   1403000   302.01169      80.024322      53016.314     -21918.829      3378.5988     -18540.23       1.0760359    
   1404000   296.64631      303.82463      53544.628     -21921.027      3318.5764     -18602.451      1.0654189    
   1405000   300.11767      506.30989      53103.453     -21945.896      3357.4104     -18588.485      1.0742702    
   1406000   301.4517      -271.09483      53788.861     -21975.689      3372.3341     -18603.355      1.0605813    
   1407000   303.19672     -130.99963      53860.927     -21925.364      3391.8557     -18533.508      1.0591622    
   1408000   305.0715       147.75385      53645.917     -21906.807      3412.8288     -18493.978      1.0634073    
   1409000   297.37103      307.86819      53265.718     -21963.372      3326.6838     -18636.688      1.0709976    
   1410000   302.1511      -161.127        53726.935     -21871.753      3380.1584     -18491.594      1.0618037    
   1411000   292.70252     -764.17811      53923.675     -21914.18       3274.4572     -18639.722      1.0579297    
   1412000   297.51899      394.84396      53863.114     -21912.786      3328.339      -18584.446      1.0591192    
   1413000   304.08359      672.74232      53590.652     -22007.939      3401.7771     -18606.162      1.0645039    
   1414000   304.66093     -196.08305      53115.913     -21970.555      3408.2358     -18562.319      1.0740182    
   1415000   307.28717      551.1508       53431.662     -21845.828      3437.6155     -18408.213      1.0676714    
   1416000   297.43595      532.53268      53688.904     -21915.6        3327.4101     -18588.19       1.0625558    
   1417000   300.78146     -240.14491      53893.456     -21859.004      3364.8363     -18494.168      1.0585229    
   1418000   298.84739      4.6291466      53922.887     -21973.4        3343.1998     -18630.2        1.0579452    
   1419000   299.65414     -518.63723      53927.396     -21814.646      3352.225      -18462.422      1.0578567    
   1420000   294.92975      647.85972      54214.185     -21834.534      3299.3732     -18535.161      1.0522607    
   1421000   300.79216      267.02843      53511.456     -21956.69       3364.956      -18591.734      1.0660793    
   1422000   295.10147      409.3189       53788.018     -21696.034      3301.2943     -18394.739      1.0605979    
   1423000   298.60828      789.80983      53206.353     -21895.325      3340.5249     -18554.8        1.0721926    
   1424000   301.68928      674.14285      53342.556     -21884.54       3374.992      -18509.548      1.0694549    
   1425000   304.19413      806.83996      53318.324     -21835.511      3403.0137     -18432.498      1.0699409    
   1426000   298.80011     -231.06095      53564.736     -21945.597      3342.6709     -18602.926      1.0650189    
   1427000   294.00837     -366.15264      53741.729     -21945.712      3289.0658     -18656.646      1.0615114    
   1428000   298.9269      -23.167263      53575.534     -21860.287      3344.0893     -18516.197      1.0648043    
   1429000   299.51185      694.76455      53890.062     -22052.841      3350.6331     -18702.208      1.0585896    
   1430000   295.84657     -479.1352       53428.997     -22068.74       3309.6297     -18759.111      1.0677247    
   1431000   298.4868       32.379362      53076.5       -21906.748      3339.1659     -18567.582      1.0748157    
   1432000   306.84447     -92.766566      54339.837     -21963.62       3432.6629     -18530.957      1.0498276    
   1433000   301.67715     -536.74999      53855.899     -21943.35       3374.8562     -18568.493      1.0592611    
   1434000   295.29091      166.58294      53431.544     -21956.639      3303.4135     -18653.225      1.0676738    
   1435000   301.581       -957.5804       53901.999     -22005.674      3373.7806     -18631.894      1.0583551    
   1436000   300.72949     -165.94297      54012.56      -21899.791      3364.2548     -18535.536      1.0561887    
   1437000   301.0322       598.86114      53552.433     -21926.813      3367.6412     -18559.172      1.0652636    
   1438000   301.90259     -645.71103      53725.808     -21972.432      3377.3783     -18595.054      1.061826     
   1439000   299.54908     -313.79152      53853.395     -21963.874      3351.0496     -18612.825      1.0593103    
   1440000   299.365       -183.71764      53773.805     -22037.617      3348.9903     -18688.627      1.0608782    
   1441000   296.64823     -66.738855      53363.408     -22125.209      3318.5979     -18806.611      1.069037     
   1442000   300.43585      638.78314      54248.807     -21963.131      3360.9699     -18602.161      1.0515892    
   1443000   297.24944      742.15839      54265.184     -21982.633      3325.3236     -18657.31       1.0512718    
   1444000   303.14872      860.29302      53564.297     -21997.796      3391.3187     -18606.477      1.0650277    
   1445000   296.56831     -403.47021      53167.038     -21829.903      3317.7037     -18512.199      1.0729854    
   1446000   298.66247     -455.09174      53393.676     -21893.954      3341.1311     -18552.823      1.068431     
   1447000   304.72107      512.98609      53892.043     -21918.709      3408.9085     -18509.801      1.0585507    
   1448000   299.70593      556.16961      53226.312     -21908.229      3352.8043     -18555.424      1.0717905    
   1449000   297.54085      336.11864      53789.302     -21859.04       3328.5836     -18530.456      1.0605726    
   1450000   298.8701       926.67736      53450.511     -21964.535      3343.4539     -18621.081      1.0672949    
   1451000   294.58584      123.86344      53419.246     -21922.827      3295.526      -18627.301      1.0679196    
   1452000   300.05112      500.39104      53395.394     -21962.649      3356.6659     -18605.983      1.0683966    
   1453000   292.26971     -16.670579      53918.463     -21895.978      3269.6154     -18626.363      1.058032     
   1454000   294.03139      316.17226      53856.284     -21918.42       3289.3234     -18629.097      1.0592535    
   1455000   297.00965      74.165215      53002.799     -21973.155      3322.6411     -18650.514      1.0763103    
   1456000   301.13663      629.44993      53351.8       -21926.059      3368.8095     -18557.25       1.0692696    
   1457000   297.33621      218.54662      52902.814     -21909.818      3326.2942     -18583.523      1.0783445    
   1458000   304.88113      269.0107       53146.967     -21897.306      3410.6991     -18486.607      1.0733907    
   1459000   298.98937      309.49279      53370.536     -21884.614      3344.7882     -18539.825      1.0688942    
   1460000   292.66025     -247.86846      53039.651     -21867.904      3273.9844     -18593.92       1.0755625    
   1461000   302.5668       74.04122       53712.844     -21841.347      3384.8087     -18456.538      1.0620822    
   1462000   294.67726     -267.90843      53641.503     -21973.136      3296.5487     -18676.587      1.0634948    
   1463000   303.66716      758.63199      53814.765     -21730.542      3397.1185     -18333.424      1.0600707    
   1464000   295.78027      186.2012       53278.553     -21921.472      3308.888      -18612.584      1.0707396    
   1465000   298.64424     -387.97801      54054.069     -21920.241      3340.9272     -18579.314      1.0553777    
   1466000   296.17165      234.25746      53655.951     -21957.333      3313.2663     -18644.067      1.0632084    
   1467000   303.57032     -508.95482      53672.095     -21955.781      3396.0351     -18559.746      1.0628886    
   1468000   297.4992      -648.08613      54271.344     -21890.186      3328.1177     -18562.069      1.0511525    
   1469000   296.15353      89.118283      53934.683     -21824.414      3313.0636     -18511.351      1.0577138    
   1470000   305.04766     -525.91516      54054.299     -21839.538      3412.5621     -18426.976      1.0553732    
   1471000   303.96361     -388.86138      53234.167     -21852.733      3400.4348     -18452.299      1.0716324    
   1472000   300.50717      128.31862      53141.812     -21810.823      3361.7677     -18449.055      1.0734948    
   1473000   305.34174     -322.91106      53167.854     -21911.192      3415.852      -18495.34       1.072969     
   1474000   308.64596      479.18195      53402.977     -21843.897      3452.8162     -18391.08       1.0682449    
   1475000   294.48675      511.16762      53391.498     -21904.077      3294.4174     -18609.66       1.0684746    
   1476000   308.21579      356.10243      53638.174     -21931.538      3448.0039     -18483.534      1.0635608    
   1477000   301.90766     -1009.4605      53620.69      -21714.086      3377.435      -18336.65       1.0639076    
   1478000   302.07322     -348.9788       53666.666     -21932.762      3379.2871     -18553.475      1.0629961    
   1479000   294.45592      30.87834       53542.604     -21880.728      3294.0726     -18586.655      1.0654592    
   1480000   302.22061     -43.741739      53284.455     -21961.952      3380.936      -18581.016      1.070621     
   1481000   297.58325     -20.570179      53103.62      -21920.807      3329.0579     -18591.749      1.0742668    
   1482000   295.59401      241.27503      53601.292     -21924.845      3306.8043     -18618.041      1.0642926    
   1483000   298.98985      91.230533      53880.381     -21891.075      3344.7935     -18546.282      1.0587798    
   1484000   302.26192      160.22886      54002.742     -21803.796      3381.3981     -18422.398      1.0563808    
   1485000   304.38383     -579.43981      54188.986     -21876.394      3405.1358     -18471.258      1.0527501    
   1486000   310.57357      53.929363      53393.48      -21774.383      3474.3803     -18300.003      1.0684349    
   1487000   292.15345     -764.0269       54137.832     -21839.873      3268.3149     -18571.558      1.0537448    
   1488000   296.90715     -70.691174      53850.915     -21891.41       3321.4944     -18569.916      1.0593591    
   1489000   300.94289      114.9607       53694.523     -21909.19       3366.6421     -18542.548      1.0624446    
   1490000   295.03005     -218.79809      53540.981     -21993.542      3300.4953     -18693.047      1.0654914    
   1491000   303.33366      435.68155      53739.045     -21950.668      3393.3876     -18557.281      1.0615644    
   1492000   298.91089     -419.69724      54035.531     -21903.86       3343.9101     -18559.949      1.0557397    
   1493000   291.25153     -129.64435      53955.788     -21864.833      3258.225      -18606.608      1.0573001    
   1494000   301.23187     -747.22443      53816.16      -21940.678      3369.8749     -18570.804      1.0600433    
   1495000   296.96398      168.62604      53316.14      -21758.178      3322.1301     -18436.048      1.0699848    
   1496000   303.96511     -758.27893      54171.937     -21810.097      3400.4516     -18409.646      1.0530814    
   1497000   305.07616     -547.16913      53455.854     -21863.84       3412.881      -18450.959      1.0671882    
   1498000   304.29059      626.7681       53823.663     -21894.327      3404.0927     -18490.234      1.0598955    
   1499000   302.08152      319.58733      53621.492     -21904.38       3379.38       -18525          1.0638916    
   1500000   301.02665      150.06975      53429.643     -21887.242      3367.5791     -18519.663      1.0677117    
   1501000   297.24198      41.071907      53526.321     -21854.389      3325.2401     -18529.149      1.0657833    
   1502000   303.75351     -214.03168      53904.883     -21974.04       3398.0845     -18575.956      1.0582985    
   1503000   300.55358      380.05127      53441.673     -21903.173      3362.2869     -18540.886      1.0674714    
   1504000   299.39967     -807.52772      54284.952     -21785.597      3349.3782     -18436.219      1.050889     
   1505000   303.03687     -303.49153      53644.225     -21890.453      3390.0675     -18500.386      1.0634408    
   1506000   301.50631      352.60734      53251.658     -21859.245      3372.9451     -18486.299      1.0712804    
   1507000   298.79222      876.46049      53015.698     -21977.837      3342.5826     -18635.255      1.0760484    
   1508000   297.95935      397.9865       54003.088     -22075.061      3333.2653     -18741.796      1.056374     
   1509000   305.37498     -360.60271      53006.093     -21890.658      3416.2238     -18474.434      1.0762434    
   1510000   299.65398     -241.59587      53402.452     -22011.035      3352.2231     -18658.811      1.0682554    
   1511000   299.30762      88.743552      53489.112     -21967.696      3348.3484     -18619.347      1.0665247    
   1512000   293.27495     -109.55406      53608.465     -21946.152      3280.861      -18665.291      1.0641502    
   1513000   300.15121     -12.092113      53476.255     -21975.301      3357.7856     -18617.515      1.0667811    
   1514000   304.30831      678.3805       53225.875     -21858.705      3404.291      -18454.414      1.0717993    
   1515000   302.58243      410.15172      54008.944     -21846.159      3384.9836     -18461.176      1.0562595    
   1516000   294.87846     -32.161151      53900.236     -21882.267      3298.7995     -18583.467      1.0583897    
   1517000   305.88674     -344.66644      53632.893     -21878.168      3421.9488     -18456.219      1.0636655    
   1518000   298.48432     -177.04664      53784.387     -22006.65       3339.1382     -18667.512      1.0606695    
   1519000   296.00532      139.99223      53847.459     -21942.686      3311.4056     -18631.28       1.0594271    
   1520000   304.7942       472.11065      53718.258     -21847.448      3409.7266     -18437.722      1.0619752    
   1521000   290.32968      81.400455      53341.999     -21932.156      3247.9124     -18684.243      1.0694661    
   1522000   301.18857      317.19666      53068.952     -21915.246      3369.3905     -18545.856      1.0749686    
   1523000   302.01916     -617.88141      53014.843     -22070.257      3378.6823     -18691.575      1.0760658    
   1524000   299.40295      119.76923      53722.895     -21985.911      3349.4148     -18636.496      1.0618835    
   1525000   299.46934     -448.80265      53575.664     -21962.636      3350.1575     -18612.479      1.0648017    
   1526000   304.1993       138.32164      53954.035     -21969.166      3403.0715     -18566.095      1.0573344    
   1527000   299.51789      401.49565      53830.948     -22094.515      3350.7007     -18743.814      1.059752     
   1528000   303.89421     -313.55736      53592.183     -22069.113      3399.6585     -18669.455      1.0644735    
   1529000   296.83012      495.40526      53525.484     -21880.386      3320.6327     -18559.753      1.0657999    
   1530000   301.20098      895.42677      53436.816     -21997.033      3369.5293     -18627.504      1.0675684    
   1531000   304.18106      55.79202       54062.609     -21853.708      3402.8675     -18450.841      1.055211     
   1532000   294.25599     -665.75623      53467.963     -21873.85       3291.8359     -18582.014      1.0669465    
   1533000   300.16713     -914.02436      53713.748     -21910.722      3357.9638     -18552.758      1.0620644    
   1534000   297.04023      30.495494      53444.875     -21831.187      3322.9832     -18508.204      1.0674075    
   1535000   301.49539     -69.001699      53549.035     -21980.324      3372.8229     -18607.501      1.0653312    
   1536000   305.31003      1246.9812      53661.437     -21810.821      3415.4973     -18395.323      1.0630997    
   1537000   299.91319      251.73918      53816.169     -21997.436      3355.1229     -18642.313      1.0600431    
   1538000   295.1214      -609.78402      53549.604     -21868.445      3301.5172     -18566.928      1.0653199    
   1539000   298.56684      825.16259      53179.082     -21944.978      3340.0613     -18604.917      1.0727424    
   1540000   301.99346     -133.15859      53310.262     -21902.233      3378.3948     -18523.838      1.0701027    
   1541000   307.27648     -665.80117      53386.687     -21894.997      3437.4959     -18457.501      1.0685709    
   1542000   302.33642     -44.040245      53669.931     -21855.211      3382.2315     -18472.979      1.0629315    
   1543000   299.89264     -1248.5111      54135.561     -21793.802      3354.893      -18438.909      1.053789     
   1544000   297.6061      -65.545084      53769.168     -21881.94       3329.3135     -18552.627      1.0609697    
   1545000   300.09405     -446.4154       53494.238     -21816.48       3357.1462     -18459.334      1.0664225    
   1546000   304.88461     -1028.3583      53749.813     -21843.829      3410.738      -18433.091      1.0613517    
   1547000   304.52987     -1028.0408      53530.925     -21855.835      3406.7696     -18449.066      1.0656916    
   1548000   295.96982      333.85965      53883.639     -21879.682      3311.0085     -18568.674      1.0587158    
   1549000   294.99072      52.981261      53769.76      -21891.973      3300.0553     -18591.917      1.060958     
   1550000   298.20557      56.372244      53776.39      -21992.614      3336.0198     -18656.594      1.0608272    
   1551000   300.47264      126.57696      53664.329     -21878.424      3361.3815     -18517.043      1.0630424    
   1552000   298.48713      344.0862       53733.004     -21926.088      3339.1696     -18586.918      1.0616838    
   1553000   299.24339      384.15291      53352.752     -21872.35       3347.6299     -18524.72       1.0692505    
   1554000   300.53781     -299.2411       53992.862     -21951.198      3362.1105     -18589.087      1.0565741    
   1555000   296.25982      738.69946      53870.213     -21970.319      3314.2527     -18656.066      1.0589796    
   1556000   294.99382     -324.70581      53235.711     -21829.883      3300.09       -18529.793      1.0716013    
   1557000   301.69864     -991.62108      54244.615     -21834.13       3375.0967     -18459.034      1.0516704    
   1558000   297.3407      -288.17749      53420.437     -21983.31       3326.3445     -18656.965      1.0678958    
   1559000   298.43814     -1251.0472      53774.745     -21850.164      3338.6216     -18511.542      1.0608597    
   1560000   302.66595      503.82107      53626.879     -21866.534      3385.918      -18480.616      1.0637848    
   1561000   306.13331     -921.0129       53906.896     -22026.884      3424.7073     -18602.177      1.058259     
   1562000   297.48291      828.514        53430.933     -21914.231      3327.9354     -18586.295      1.067686     
   1563000   297.60029      990.68873      53737.858     -21889.583      3329.2486     -18560.334      1.0615879    
   1564000   292.55804      327.93947      53860.265     -22027.532      3272.841      -18754.691      1.0591752    
   1565000   298.48492     -384.02595      53962.979     -21983.265      3339.1448     -18644.12       1.0571592    
   1566000   301.25209      406.13474      53580.074     -21990.192      3370.1012     -18620.091      1.064714     
   1567000   301.88047     -111.74653      53480.081     -22010.709      3377.1308     -18633.578      1.0667048    
   1568000   298.76616      127.72056      53333.781     -21871.911      3342.291      -18529.62       1.0696308    
   1569000   296.58971     -154.12059      53562.161     -21885.941      3317.9432     -18567.998      1.0650701    
   1570000   298.55004      571.70174      54181.848     -21886.397      3339.8733     -18546.524      1.0528887    
   1571000   298.83738     -1304.7734      54420.573     -21981.252      3343.0878     -18638.164      1.0482701    
   1572000   303.46603     -25.313921      53536.066     -21832.748      3394.8684     -18437.879      1.0655893    
   1573000   292.34764      368.83164      53604.192     -21911.562      3270.4873     -18641.075      1.064235     
   1574000   298.86237     -99.42792       53683.408     -21866.203      3343.3674     -18522.836      1.0626646    
   1575000   300.12614     -977.62929      53965.842     -21866.639      3357.5052     -18509.134      1.0571031    
   1576000   300.10905     -756.45997      53637.021     -21862.569      3357.314      -18505.255      1.0635836    
   1577000   296.71166     -363.99892      53467.838     -21837.653      3319.3074     -18518.346      1.066949     
   1578000   297.33384      343.92198      53034.741     -21913.526      3326.2677     -18587.258      1.075662     
   1579000   297.30218     -204.49874      53991.575     -21810.644      3325.9135     -18484.731      1.0565993    
   1580000   303.80482      284.38108      53060.407     -21893.667      3398.6585     -18495.008      1.0751417    
   1581000   303.80271     -1069.8369      53799.073     -21870.788      3398.6349     -18472.153      1.0603799    
   1582000   293.73788      750.05125      53360.901     -21961.492      3286.0398     -18675.452      1.0690872    
   1583000   309.18135      1344.5324      53367.158     -21772.372      3458.8057     -18313.566      1.0689619    
   1584000   295.0596       274.73408      53632.944     -21750.607      3300.8258     -18449.781      1.0636645    
   1585000   300.93847      446.11523      53843.176     -21866.285      3366.5927     -18499.693      1.0595114    
   1586000   303.39504      125.38943      53450.004     -21870.304      3394.0743     -18476.23       1.067305     
   1587000   300.5526       293.02229      53212.339     -21842.865      3362.2759     -18480.589      1.072072     
   1588000   300.38078     -886.08452      54020.533     -21858.468      3360.3538     -18498.114      1.0560329    
   1589000   300.69744      576.87455      53691.949     -21890.733      3363.8963     -18526.837      1.0624956    
   1590000   299.98828      761.12871      53801.635     -21743.465      3355.963      -18387.502      1.0603294    
   1591000   297.54453     -848.7261       54408.717     -21863.662      3328.6247     -18535.037      1.0484985    
   1592000   302.08541      272.1316       53294.432     -21896.388      3379.4235     -18516.965      1.0704206    
   1593000   307.39476     -354.63561      53471.684     -21891.521      3438.8191     -18452.702      1.0668723    
   1594000   299.9562       610.90937      53600.246     -21918.896      3355.6041     -18563.292      1.0643134    
   1595000   301.04903      774.64503      53378.274     -21973.2        3367.8295     -18605.37       1.0687393    
   1596000   305.66885      177.78295      53748.276     -21973.479      3419.5114     -18553.968      1.0613821    
   1597000   302.41579      281.64942      53753.82      -21930.022      3383.1194     -18546.902      1.0612726    
   1598000   294.58454     -179.89176      53172.845     -22018.078      3295.5113     -18722.567      1.0728683    
   1599000   298.68934     -307.82953      53386.26      -21763.192      3341.4317     -18421.76       1.0685794    
   1600000   299.15585      151.36337      53656.029     -21913.625      3346.6506     -18566.974      1.0632069    
   1600010   302.63597     -27.713586      53631.145     -21946.688      3385.5825     -18561.106      1.0637002    
Loop time of 43633.7 on 5 procs for 1000000 steps with 5541 atoms

Performance: 3.960 ns/day, 6.060 hours/ns, 22.918 timesteps/s, 126.989 katom-step/s
337.0% CPU use with 1 MPI tasks x 5 OpenMP threads

MPI task timing breakdown:
Section |  min time  |  avg time  |  max time  |%varavg| %total
---------------------------------------------------------------
Pair    | 1757.9     | 1757.9     | 1757.9     |   0.0 |  4.03
Bond    | 20.893     | 20.893     | 20.893     |   0.0 |  0.05
Kspace  | 21827      | 21827      | 21827      |   0.0 | 50.02
Neigh   | 41.335     | 41.335     | 41.335     |   0.0 |  0.09
Comm    | 456.58     | 456.58     | 456.58     |   0.0 |  1.05
Output  | 18.616     | 18.616     | 18.616     |   0.0 |  0.04
Modify  | 19333      | 19333      | 19333      |   0.0 | 44.31
Other   |            | 178.9      |            |       |  0.41

Nlocal:           5541 ave        5541 max        5541 min
Histogram: 1 0 0 0 0 0 0 0 0 0
Nghost:          35859 ave       35859 max       35859 min
Histogram: 1 0 0 0 0 0 0 0 0 0
Neighs:    4.86096e+06 ave 4.86096e+06 max 4.86096e+06 min
Histogram: 1 0 0 0 0 0 0 0 0 0

Total # of neighbors = 4860961
Ave neighs/atom = 877.27143
Ave special neighs/atom = 2.4872767
Neighbor list builds = 93091
Dangerous builds = 0

unfix mynpt
undump prod_traj
undump prod_dcd
undump prod_img
unfix thermo_avg
unfix thermo_detailed
unfix rdf_CO_avg
unfix rdf_CC_avg
unfix rdf_OO_avg
unfix rdf_C60_1_O_avg
unfix rdf_C60_2_O_avg
unfix rdf_C60_3_O_avg

unfix msd_avg
uncompute rdf_CO
uncompute rdf_CC
uncompute rdf_OO
uncompute rdf_C60_1_O
uncompute rdf_C60_2_O
uncompute rdf_C60_3_O

uncompute msd_water

#==============================================================================
# FINAL OUTPUT AND VERIFICATION
#==============================================================================
print ""

print "===== Saving Final Configuration ====="
===== Saving Final Configuration =====

write_data equilibrated_system.data
System init for write_data ...
PPPM initialization ...
  extracting TIP4P info from pair style
  using 12-bit tables for long-range coulomb
  G vector (1/distance) = 0.28853435
  grid = 50 50 50
  stencil order = 5
  estimated absolute RMS force accuracy = 0.00032605208
  estimated relative force accuracy = 9.8189615e-07
  using double precision FFTW3
  3d grid and FFT values/proc = 205379 125000
Generated 0 of 3 mixed pair_coeff terms from geometric mixing rule
WARNING: Not all mixed pair coeffs generated from mixing. Use write_data with 'pair ij' option to store all pair coeffs. (src/write_data.cpp:364)
write_restart equilibrated_system.restart
System init for write_restart ...
PPPM initialization ...
  extracting TIP4P info from pair style
  using 12-bit tables for long-range coulomb
  G vector (1/distance) = 0.28853435
  grid = 50 50 50
  stencil order = 5
  estimated absolute RMS force accuracy = 0.00032605208
  estimated relative force accuracy = 9.8189615e-07
  using double precision FFTW3
  3d grid and FFT values/proc = 205379 125000
Generated 0 of 3 mixed pair_coeff terms from geometric mixing rule

print ""

print "â•â•â•â•â•â•â•â•â•â•â•â•â•â•â•â•â•â•â•â•â•â•â•â•â•â•â•â•â•â•â•â•â•â•â•â•â•â•â•â•â•â•â•â•â•â•â•â•â•â•â•â•â•â•â•â•â•â•â•â•â•â•â•â•â•â•â•â•â•â•â•â•â•â•â•â•"
••••••••••••••••••••••••••••••••••••••••••••••••••••••••••••••••••••••••••••
print "                     EQUILIBRATION COMPLETE - SUCCESS!"
                     EQUILIBRATION COMPLETE - SUCCESS!
print "â•â•â•â•â•â•â•â•â•â•â•â•â•â•â•â•â•â•â•â•â•â•â•â•â•â•â•â•â•â•â•â•â•â•â•â•â•â•â•â•â•â•â•â•â•â•â•â•â•â•â•â•â•â•â•â•â•â•â•â•â•â•â•â•â•â•â•â•â•â•â•â•â•â•â•â•"
••••••••••••••••••••••••••••••••••••••••••••••••••••••••••••••••••••••••••••
print ""

print "Simulation Summary:"
Simulation Summary:
print "  Total simulation time: 5.22 ns"
  Total simulation time: 5.22 ns
print "    - NVT thermalization:     50 ps"
    - NVT thermalization:     50 ps
print "    - Pre-equilibration:      50 ps  (NEW - prevents PPPM artifacts)"
    - Pre-equilibration:      50 ps  (NEW - prevents PPPM artifacts)
print "    - Pressure ramp:         100 ps  (EXTENDED and with drag damping)"
    - Pressure ramp:         100 ps  (EXTENDED and with drag damping)
print "    - NPT equilibration:    1000 ps"
    - NPT equilibration:    1000 ps
print "    - Production run:       4000 ps (4 ns)"
    - Production run:       4000 ps (4 ns)
print ""


# Final measurements
variable final_temp equal temp
variable final_press equal press
variable final_dens equal density
variable final_vol equal vol
variable final_boxsize equal vol^(1.0/3.0)
variable final_pe equal pe
variable final_ke equal ke
variable final_etotal equal etotal

print "Final Thermodynamic State:"
Final Thermodynamic State:
print "  Temperature:    ${final_temp} K      (target: 300K)"
  Temperature:    302.635966521277 K      (target: 300K)
print "  Pressure:       ${final_press} atm   (target: 1 atm)"
  Pressure:       -27.7135863738616 atm   (target: 1 atm)
print "  Density:        ${final_dens} g/cmÂ³  (target: 0.95-1.05)"
  Density:        1.06370016748566 g/cm³  (target: 0.95-1.05)
print "  Volume:         ${final_vol} Ã…Â³"
  Volume:         53631.1447153795 …³
print "  Box size:       ${final_boxsize} Ã…    (expected: 58-63)"
  Box size:       37.7113739589872 …    (expected: 58-63)
print ""

print "Final Energies:"
Final Energies:
print "  Potential:      ${final_pe} kcal/mol"
  Potential:      -21946.6882050039 kcal/mol
print "  Kinetic:        ${final_ke} kcal/mol"
  Kinetic:        3385.58254035932 kcal/mol
print "  Total:          ${final_etotal} kcal/mol"
  Total:          -18561.1056646446 kcal/mol
print ""


# Comprehensive validation - simplified to avoid quoting issues
print ""

if "${final_dens} >= 0.85" then   "if \"${final_dens} <= 1.15\" then \"jump SELF validation_success\" else \"jump SELF validation_warning\""
if "${final_dens} >= 0.85" then   "if \"1.06370016748566 <= 1.15\" then \"jump SELF validation_success\" else \"jump SELF validation_warning\""
ERROR: Input line quote not followed by white-space (src/input.cpp:556)
Last input line: if "${final_dens} >= 0.85" then "if \"${final_dens} <= 1.15\" then \"jump SELF validation_success\" else \"jump SELF validation_warning\""
