LAMMPS (10 Sep 2025)
  using 10 OpenMP thread(s) per MPI task
package gpu 1 neigh yes newton off binsize 2.8 split 1.0
# LAMMPS Input Script: FULLY CORRECTED NPT Equilibration
# Purpose: Equilibrate solvated nanoparticle system at 300K, 1 bar
# Water Model: TIP4P/2005 (implicit M-site)
# GPU acceleration: Enabled for MD stages
#
# COMPLETE FIXES APPLIED (2024-11-13):
# 1. âœ… CRITICAL FIX: PPPM grid locked to prevent recalculation artifacts
# 2. âœ… CRITICAL FIX: Pre-equilibration stage to reduce initial pressure
# 3. âœ… FIXED: Gentler pressure ramp (100 atm â†’ 1 atm) with drag damping
# 4. âœ… FIXED: SHAKE verification and proper constraint application
# 5. âœ… EXTENDED: Longer equilibration (1000 ps) and production (4000 ps)
# 6. âœ… ENHANCED: Multiple density checkpoints to catch failures early
# 7. âœ… OPTIMIZED: 2 fs timestep (SHAKE allows this, 2Ã— speedup)
#
# Total time: 5.22 ns (50ps NVT + 50ps pre-equil + 100ps ramp + 1000ps NPT + 4000ps prod)
#
# ROOT CAUSE OF PREVIOUS FAILURE:
# - PPPM grid recalculation at step 51,000 caused 169,712 atm pressure spike
# - Barostat overreacted â†’ box expanded 63Ã— â†’ gas phase (Ï=0.025 g/cmÂ³)
# - All epsilon values failed identically (proves it's numerical, not physical)
#
# SOLUTION: Lock PPPM grid + reduce initial pressure + add checkpoints

# ===== INITIALIZATION =====
units real
atom_style full
boundary p p p
atom_modify map array

# ===== COMMUNICATION =====
# Increased cutoff to handle potential box fluctuations safely
comm_modify cutoff 18.0

# ===== FORCE FIELD (FULLY GPU-accelerated) =====
# CORRECTED: O=type2, H=type3 (C60 carbon is type1)
pair_style lj/cut/tip4p/long/gpu 2 3 2 1 0.1546 12.0

# ğŸ”§ CRITICAL: Use pppm/gpu for FULL GPU acceleration of Coulomb forces
# pppm/tip4p is CPU-based bottleneck (~90% CPU, ~10% GPU)
# pppm/gpu runs Coulomb solver on GPU â†’ 5-10Ã— speedup for long-range forces
kspace_style pppm/gpu 1.0e-4

# ğŸ”§ CRITICAL FIX #1: Lock PPPM grid to prevent recalculation
# This prevents the 169,712 atm pressure spike that caused gas-phase failure
kspace_modify mesh 50 50 50    # Fixed grid (handles boxes up to ~125 Ã…, increased from 40)
kspace_modify order 5           # Higher interpolation order for accuracy
kspace_modify force/disp/real 0.8  # Balance real/k-space work

bond_style harmonic
angle_style harmonic

read_data large_C60_solvated.data
Reading data file ...
  orthogonal box = (-20 -20 -20) to (20 20 20)
  1 by 1 by 1 MPI processor grid
  reading atoms ...
  5541 atoms
  reading velocities ...
  5541 velocities
  scanning bonds ...
  3 = max bonds/atom
  scanning angles ...
  1 = max angles/atom
  orthogonal box = (-20 -20 -20) to (20 20 20)
  1 by 1 by 1 MPI processor grid
  reading bonds ...
  3844 bonds
  reading angles ...
  1787 angles
Finding 1-2 1-3 1-4 neighbors ...
  special bond factors lj:    0        0        0       
  special bond factors coul:  0        0        0       
     3 = max # of 1-2 neighbors
     6 = max # of 1-3 neighbors
    18 = max # of 1-4 neighbors
    17 = max # of special neighbors
  special bonds CPU = 0.002 seconds
  read_data CPU = 0.077 seconds

# ===== PAIR COEFFICIENTS (CORRECTED ATOM TYPE MAPPING) =====
# Type 1: C60 carbon (180 atoms from 3 C60 particles)
# Type 2: Water oxygen (~2000 molecules)
# Type 3: Water hydrogen (~4000 atoms)
# TIP4P/2005 parameters (verified against literature)
pair_coeff 2 2 0.1852 3.1589    # O-O (type 2, Îµ=0.1852 kcal/mol, Ïƒ=3.1589 Ã…)
pair_coeff 3 3 0.0 0.0          # H-H (type 3, no interaction)

# C60 fullerene parameters
pair_coeff 1 1 0.07 3.4         # C-C (type 1, Îµ=0.07 kcal/mol, Ïƒ=3.4 Ã…)

# C60-water cross interactions
# Tunable parameter (passed from bash script via -var)
variable epsilon_co equal ${EPSILON_CO}
variable epsilon_co equal 0.50
pair_coeff 1 2 ${epsilon_co} 3.2   # C-O (hydrophobicity parameter)
pair_coeff 1 2 0.5 3.2   
pair_coeff 1 3 0.0 0.0             # C-H (no interaction)
pair_coeff 2 3 0.0 0.0             # O-H (no LJ, only Coulombic)

# Bond and angle coefficients
bond_coeff 1 938.0 1.42         # C-C bonds in C60 (bond type 1)
bond_coeff 2 0.0 0.9572         # O-H bonds in water (bond type 2, SHAKE controlled)
angle_coeff 1 0.0 104.52        # H-O-H angle in water (angle type 1, SHAKE controlled)

# ===== SETTINGS =====
neighbor 2.0 bin                 # Increased skin for safety
neigh_modify delay 5 every 1 check yes

# Define groups (CORRECTED)
group carbon type 1        # C60 atoms (type 1)
180 atoms in group carbon
group water type 2 3       # All water atoms (O=type2, H=type3)
5361 atoms in group water
group oxygen type 2        # Water oxygen atoms (type 2)
1787 atoms in group oxygen
group hydrogen type 3      # Water hydrogen atoms (type 3)
3574 atoms in group hydrogen

# Define thermodynamic variables
variable temp equal c_thermo_temp
variable press equal c_thermo_press
variable pe equal pe
variable ke equal ke
variable etotal equal etotal
variable vol equal vol
variable dens equal density

thermo_style custom step temp press vol pe ke etotal density
thermo 1000

# ğŸ”§ CRITICAL FIX #2: Use 2 fs timestep (SHAKE allows this, 2Ã— speedup)
timestep 2.0

# Print system info
print "â•â•â•â•â•â•â•â•â•â•â•â•â•â•â•â•â•â•â•â•â•â•â•â•â•â•â•â•â•â•â•â•â•â•â•â•â•â•â•â•â•â•â•â•â•â•â•â•â•â•â•â•â•â•â•â•â•â•â•â•â•â•â•â•â•â•â•â•â•â•â•â•â•â•â•â•"
WARNING: Detected non-ASCII characters in input. Will try to continue by replacing with ASCII equivalents where known. (src/input.cpp:479)
••••••••••••••••••••••••••••••••••••••••••••••••••••••••••••••••••••••••••••
print "SYSTEM INFORMATION:"
SYSTEM INFORMATION:
print "  Epsilon (O-C): ${epsilon_co} kcal/mol"
  Epsilon (O-C): 0.5 kcal/mol
print "  Random seed:   ${RANDOM_SEED}"
  Random seed:   42
print "  Timestep:      2.0 fs (with SHAKE constraints)"
  Timestep:      2.0 fs (with SHAKE constraints)
print "  PPPM grid:     40Ã—40Ã—40 (LOCKED to prevent artifacts)"
  PPPM grid:     40—40—40 (LOCKED to prevent artifacts)
print "â•â•â•â•â•â•â•â•â•â•â•â•â•â•â•â•â•â•â•â•â•â•â•â•â•â•â•â•â•â•â•â•â•â•â•â•â•â•â•â•â•â•â•â•â•â•â•â•â•â•â•â•â•â•â•â•â•â•â•â•â•â•â•â•â•â•â•â•â•â•â•â•â•â•â•â•"
••••••••••••••••••••••••••••••••••••••••••••••••••••••••••••••••••••••••••••
print ""


#==============================================================================
# STAGE 0: Gentle Minimization (CPU pair style for stability)
#==============================================================================
print "===== STAGE 0: Gentle Minimization (removing any overlaps) ====="
===== STAGE 0: Gentle Minimization (removing any overlaps) =====
print "Using CPU pair style for numerical stability during minimization"
Using CPU pair style for numerical stability during minimization
print ""


# Switch to CPU pair style for minimization (GPU can be unstable)
pair_style lj/cut/tip4p/long 2 3 2 1 0.1546 12.0
kspace_style pppm/tip4p 1.0e-4
kspace_modify mesh 50 50 50
kspace_modify order 5

# Re-apply pair coefficients with current epsilon_co
pair_coeff 1 1 0.07 3.4            # C-C
pair_coeff 2 2 0.1852 3.1589       # O-O
pair_coeff 3 3 0.0 0.0             # H-H
pair_coeff 1 2 ${epsilon_co} 3.2   # C-O (variable)
pair_coeff 1 2 0.5 3.2   
pair_coeff 1 3 0.0 0.0             # C-H
pair_coeff 2 3 0.0 0.0             # O-H

# Very gentle minimization (just remove bad contacts, if any)
# Using very relaxed tolerances and limited steps for speed
thermo 100
minimize 0.0 10.0 10 100  # Ultra-gentle: etol=0, ftol=10, max 10 eval, max 100 iter

CITE-CITE-CITE-CITE-CITE-CITE-CITE-CITE-CITE-CITE-CITE-CITE-CITE

Your simulation uses code contributions which should be cited:

- GPU package (short-range, long-range and three-body potentials): doi:10.1016/j.cpc.2010.12.021, doi:10.1016/j.cpc.2011.10.012, doi:10.1016/j.cpc.2013.08.002, doi:10.1016/j.commatsci.2014.10.068, doi:10.1016/j.cpc.2016.10.020, doi:10.3233/APC200086

@Article{Brown11,
 author = {W. M. Brown and P. Wang and S. J. Plimpton and A. N. Tharrington},
 title = {Implementing Molecular Dynamics on Hybrid High Performance Computers---Short Range Forces},
 journal = {Comput.\ Phys.\ Commun.},
 year =    2011,
 volume =  182,
 pages =   {898--911},
 doi =     {10.1016/j.cpc.2010.12.021}
}

@Article{Brown12,
 author = {W. M. Brown and A. Kohlmeyer and S. J. Plimpton and A. N. Tharrington},
 title = {Implementing Molecular Dynamics on Hybrid High Performance Computers - Particle-Particle Particle-Mesh},
 journal = {Comput.\ Phys.\ Commun.},
 year =    2012,
 volume =  183,
 doi =     {10.1016/j.cpc.2011.10.012},
 pages =   {449--459}
}

@Article{Brown13,
 author = {W. M. Brown and Y. Masako},
 title = {Implementing Molecular Dynamics on Hybrid High Performance Computers---Three-Body Potentials},
 journal = {Comput.\ Phys.\ Commun.},
 year =    2013,
 volume =  184,
 pages =   {2785--2793},
 doi =     {10.1016/j.cpc.2013.08.002},
}

@Article{Trung15,
 author = {T. D. Nguyen and S. J. Plimpton},
 title = {Accelerating Dissipative Particle Dynamics Simulations for Soft Matter Systems},
 journal = {Comput.\ Mater.\ Sci.},
 year =    2015,
 doi =     {10.1016/j.commatsci.2014.10.068},
 volume =  100,
 pages =   {173--180}
}

@Article{Trung17,
 author = {T. D. Nguyen},
 title = {{GPU}-Accelerated {T}ersoff Potentials for Massively Parallel
    Molecular Dynamics Simulations},
 journal = {Comput.\ Phys.\ Commun.},
 year =    2017,
 doi =     {10.1016/j.cpc.2016.10.020},
 volume =  212,
 pages =   {113--122}
}

@inproceedings{Nikolskiy19,
 author = {V. Nikolskiy and V. Stegailov},
 title = {{GPU} Acceleration of Four-Site Water Models in {LAMMPS}},
 booktitle = {Proceedings of the International Conference on Parallel
    Computing (ParCo 2019), Prague, Czech Republic},
 doi =     {10.3233/APC200086},
 year =    2019
}

CITE-CITE-CITE-CITE-CITE-CITE-CITE-CITE-CITE-CITE-CITE-CITE-CITE

Switching to 'neigh_modify every 1 delay 0 check yes' setting during minimization
PPPM initialization ...
  extracting TIP4P info from pair style
  using 12-bit tables for long-range coulomb
  G vector (1/distance) = 0.28512662
  grid = 50 50 50
  stencil order = 5
  estimated absolute RMS force accuracy = 0.00038934319
  estimated relative force accuracy = 1.1724955e-06
  using double precision FFTW3
  3d grid and FFT values/proc = 185193 125000
Generated 0 of 3 mixed pair_coeff terms from geometric mixing rule
Per MPI rank memory allocation (min/avg/max) = 59.33 | 59.33 | 59.33 Mbytes
   Step          Temp          Press          Volume         PotEng         KinEng         TotEng        Density    
         0   36.495381      27218.785      64000         -23235.154      602.67332     -22632.481      0.89136653   
        10   36.495381     -19484.669      64000         -142258.66      602.67332     -141655.98      0.89136653   
Loop time of 0.217116 on 10 procs for 10 steps with 5541 atoms

912.8% CPU use with 1 MPI tasks x 10 OpenMP threads

Minimization stats:
  Stopping criterion = max iterations
  Energy initial, next-to-last, final = 
     -23235.1542914255  -124554.695568953  -142258.657487379
  Force two-norm initial, final = 2152.6665 6845.4886
  Force max component initial, final = 49.702003 356.91082
  Final line search alpha, max atom move = 0.00038500929 0.13741398
  Iterations, force evaluations = 10 10

MPI task timing breakdown:
Section |  min time  |  avg time  |  max time  |%varavg| %total
---------------------------------------------------------------
Pair    | 0.0052764  | 0.0052764  | 0.0052764  |   0.0 |  2.43
Bond    | 0.0023822  | 0.0023822  | 0.0023822  |   0.0 |  1.10
Kspace  | 0.20292    | 0.20292    | 0.20292    |   0.0 | 93.46
Neigh   | 0          | 0          | 0          |   0.0 |  0.00
Comm    | 0.0031899  | 0.0031899  | 0.0031899  |   0.0 |  1.47
Output  | 0.00016208 | 0.00016208 | 0.00016208 |   0.0 |  0.07
Modify  | 1.573e-06  | 1.573e-06  | 1.573e-06  |   0.0 |  0.00
Other   |            | 0.003182   |            |       |  1.47

Nlocal:           5541 ave        5541 max        5541 min
Histogram: 1 0 0 0 0 0 0 0 0 0
Nghost:          33839 ave       33839 max       33839 min
Histogram: 1 0 0 0 0 0 0 0 0 0
Neighs:              0 ave           0 max           0 min
Histogram: 1 0 0 0 0 0 0 0 0 0

Total # of neighbors = 0
Ave neighs/atom = 0
Ave special neighs/atom = 2.4872767
Neighbor list builds = 0
Dangerous builds = 0

variable pe_minimized equal pe
print "Minimization complete. PE = ${pe_minimized} kcal/mol (was -23,217)"
Minimization complete. PE = -142258.657487379 kcal/mol (was -23,217)

# Switch back to GPU pair style for MD
pair_style lj/cut/tip4p/long/gpu 2 3 2 1 0.1546 12.0
kspace_style pppm/tip4p 1.0e-4
kspace_modify mesh 50 50 50
kspace_modify order 5

# Re-apply pair coefficients again after style change
pair_coeff 1 1 0.07 3.4            # C-C
pair_coeff 2 2 0.1852 3.1589       # O-O
pair_coeff 3 3 0.0 0.0             # H-H
pair_coeff 1 2 ${epsilon_co} 3.2   # C-O (variable)
pair_coeff 1 2 0.5 3.2   
pair_coeff 1 3 0.0 0.0             # C-H
pair_coeff 2 3 0.0 0.0             # O-H

print ""


#==============================================================================
# STAGE 0.5: Apply SHAKE Constraints
#==============================================================================
thermo 1000

# ğŸ”§ CRITICAL FIX #3: Apply SHAKE with proper verification
print "Applying SHAKE constraints..."
Applying SHAKE constraints...
# CORRECTED: bond type 2 = O-H, angle type 1 = H-O-H
fix myshk water shake 0.0001 20 0 b 2 a 1
Finding SHAKE clusters ...
       0 = # of size 2 clusters
       0 = # of size 3 clusters
       0 = # of size 4 clusters
    1787 = # of frozen angles
  find clusters CPU = 0.002 seconds

# Verify SHAKE is working
print "SHAKE constraint verification:"
SHAKE constraint verification:
print "  Expected: ~2000 water molecules with constrained bonds and angles"
  Expected: ~2000 water molecules with constrained bonds and angles
print "  Check minimization output for cluster sizes"
  Check minimization output for cluster sizes
print ""

print "GPU Acceleration Status:"
GPU Acceleration Status:
print "  âœ“ Pair forces (LJ):      GPU (lj/cut/tip4p/long/gpu)"
  œ“ Pair forces (LJ):      GPU (lj/cut/tip4p/long/gpu)
print "  âœ“ Coulomb (PPPM):        CPU (pppm/tip4p) - GPU suffix not available"
  œ“ Coulomb (PPPM):        CPU (pppm/tip4p) - GPU suffix not available
print "  âœ“ Neighbor lists:        GPU (neigh yes)"
  œ“ Neighbor lists:        GPU (neigh yes)
print "  â†’ Expected speedup:      2-3Ã— vs CPU-only version (pair forces only)"
  †’ Expected speedup:      2-3— vs CPU-only version (pair forces only)

#==============================================================================
# STAGE 1: NVT Thermalization (50 ps)
#==============================================================================
print ""

print "===== STAGE 1: NVT Thermalization (50 ps, GPU) ====="
===== STAGE 1: NVT Thermalization (50 ps, GPU) =====
print "Objective: Reach 300K while maintaining initial density"
Objective: Reach 300K while maintaining initial density

velocity all create 300.0 ${RANDOM_SEED} dist gaussian loop geom
velocity all create 300.0 42 dist gaussian loop geom

fix mynvt all nvt temp 300.0 300.0 100.0

# Trajectory output (every 4 ps) - using wrapped coordinates for proper visualization
dump nvt_traj all custom 2000 nvt_thermalization.lammpstrj id type xu yu zu
dump_modify nvt_traj sort id

dump nvt_dcd all dcd 2000 nvt_thermalization.dcd
dump_modify nvt_dcd unwrap yes

run 25000  # 50 ps at 2 fs timestep
PPPM initialization ...
  extracting TIP4P info from pair style
  using 12-bit tables for long-range coulomb
  G vector (1/distance) = 0.28512662
  grid = 50 50 50
  stencil order = 5
  estimated absolute RMS force accuracy = 0.00038934319
  estimated relative force accuracy = 1.1724955e-06
  using double precision FFTW3
  3d grid and FFT values/proc = 185193 125000
Generated 0 of 3 mixed pair_coeff terms from geometric mixing rule
Per MPI rank memory allocation (min/avg/max) = 58.79 | 58.79 | 58.79 Mbytes
   Step          Temp          Press          Volume         PotEng         KinEng         TotEng        Density    
        10   300           -113075.46      64000         -142258.66      3356.094      -138902.56      0.89136653   
      1000   302.5026      -359.02715      64000         -20161.252      3384.0906     -16777.162      0.89136653   
      2000   305.20402     -1772.7107      64000         -20496.033      3414.3113     -17081.722      0.89136653   
      3000   302.26168     -1261.0291      64000         -20491.715      3381.3955     -17110.319      0.89136653   
      4000   298.03817     -1765.9944      64000         -20665.333      3334.1471     -17331.186      0.89136653   
      5000   306.32452     -1280.2623      64000         -20697.606      3426.8464     -17270.76       0.89136653   
      6000   294.91868     -1435.39        64000         -20569.006      3299.2494     -17269.757      0.89136653   
      7000   299.02558     -1440.2828      64000         -20551.078      3345.1932     -17205.885      0.89136653   
      8000   299.05042     -1105.2193      64000         -20746.099      3345.4711     -17400.628      0.89136653   
      9000   298.30358     -1149.4029      64000         -20812.106      3337.1162     -17474.99       0.89136653   
     10000   302.09775     -1751.2579      64000         -20748.309      3379.5615     -17368.747      0.89136653   
     11000   303.41389     -264.83763      64000         -20761.903      3394.2851     -17367.618      0.89136653   
     12000   296.72546     -831.96579      64000         -20571.309      3319.4618     -17251.847      0.89136653   
     13000   299.69461     -1485.2795      64000         -20692.737      3352.6776     -17340.059      0.89136653   
     14000   302.83503     -752.52821      64000         -20636.393      3387.8094     -17248.583      0.89136653   
     15000   299.17034     -980.06009      64000         -20641.513      3346.8126     -17294.701      0.89136653   
     16000   293.82135     -1334.0258      64000         -20746.336      3286.9736     -17459.363      0.89136653   
     17000   303.23882     -1478.3061      64000         -20648.468      3392.3267     -17256.142      0.89136653   
     18000   295.74241     -1218.8497      64000         -20622.528      3308.4644     -17314.063      0.89136653   
     19000   297.73792     -773.02936      64000         -20741.565      3330.7882     -17410.777      0.89136653   
     20000   295.75943     -775.86081      64000         -20778.874      3308.6549     -17470.219      0.89136653   
     21000   300.57855     -1003.5947      64000         -20701.117      3362.5663     -17338.551      0.89136653   
     22000   306.38141     -637.49263      64000         -20752.515      3427.4828     -17325.032      0.89136653   
     23000   299.29311     -713.98563      64000         -20552.511      3348.186      -17204.325      0.89136653   
     24000   298.21328     -1652.4583      64000         -20772.222      3336.1061     -17436.116      0.89136653   
     25000   298.49263     -1565.4284      64000         -20706.272      3339.2311     -17367.041      0.89136653   
     25010   298.82235     -1528.0121      64000         -20727.579      3342.9197     -17384.659      0.89136653   
Loop time of 531.928 on 10 procs for 25000 steps with 5541 atoms

Performance: 8.121 ns/day, 2.955 hours/ns, 46.999 timesteps/s, 260.421 katom-step/s
924.5% CPU use with 1 MPI tasks x 10 OpenMP threads

MPI task timing breakdown:
Section |  min time  |  avg time  |  max time  |%varavg| %total
---------------------------------------------------------------
Pair    | 21.536     | 21.536     | 21.536     |   0.0 |  4.05
Bond    | 0.2211     | 0.2211     | 0.2211     |   0.0 |  0.04
Kspace  | 478.12     | 478.12     | 478.12     |   0.0 | 89.88
Neigh   | 0.050929   | 0.050929   | 0.050929   |   0.0 |  0.01
Comm    | 9.0424     | 9.0424     | 9.0424     |   0.0 |  1.70
Output  | 0.1081     | 0.1081     | 0.1081     |   0.0 |  0.02
Modify  | 20.097     | 20.097     | 20.097     |   0.0 |  3.78
Other   |            | 2.75       |            |       |  0.52

Nlocal:           5541 ave        5541 max        5541 min
Histogram: 1 0 0 0 0 0 0 0 0 0
Nghost:          32993 ave       32993 max       32993 min
Histogram: 1 0 0 0 0 0 0 0 0 0
Neighs:              0 ave           0 max           0 min
Histogram: 1 0 0 0 0 0 0 0 0 0

Total # of neighbors = 0
Ave neighs/atom = 0
Ave special neighs/atom = 2.4872767
Neighbor list builds = 2329
Dangerous builds = 1

unfix mynvt
undump nvt_traj
undump nvt_dcd

write_restart nvt_complete.restart
System init for write_restart ...
PPPM initialization ...
  extracting TIP4P info from pair style
  using 12-bit tables for long-range coulomb
  G vector (1/distance) = 0.28512662
  grid = 50 50 50
  stencil order = 5
  estimated absolute RMS force accuracy = 0.00038934319
  estimated relative force accuracy = 1.1724955e-06
  using double precision FFTW3
  3d grid and FFT values/proc = 185193 125000
Generated 0 of 3 mixed pair_coeff terms from geometric mixing rule

# Check temperature
variable current_temp equal temp
print "NVT complete. Temperature: ${current_temp} K (target: 300K)"
NVT complete. Temperature: 298.822351345923 K (target: 300K)

# ğŸ”§ CHECKPOINT #1: Verify we're still at reasonable density
variable current_dens equal density
if "${current_dens} < 0.7" then     "print 'ERROR: Density dropped during NVT! Current: ${current_dens} g/cmÂ³'"     "print 'This should not happen - check initial configuration'"     "quit 1"

print "âœ“ Checkpoint 1 PASSED: Density = ${current_dens} g/cmÂ³"
œ“ Checkpoint 1 PASSED: Density = 0.891366525253075 g/cm³

#==============================================================================
# STAGE 1.5: Pre-Equilibration at 100 atm (50 ps) - NEW STAGE
#==============================================================================
print ""

print "===== STAGE 1.5: Pre-Equilibration at 100 atm (50 ps, GPU) ====="
===== STAGE 1.5: Pre-Equilibration at 100 atm (50 ps, GPU) =====
print "ğŸ”§ CRITICAL FIX: Reducing initial pressure before main ramp"
Ÿ”§ CRITICAL FIX: Reducing initial pressure before main ramp
print "Objective: Equilibrate volume at moderate pressure to prevent PPPM artifacts"
Objective: Equilibrate volume at moderate pressure to prevent PPPM artifacts
print ""

print "Why this is needed:"
Why this is needed:
print "  - NVT creates high pressure (~800 atm) in fixed volume"
  - NVT creates high pressure (~800 atm) in fixed volume
print "  - Direct ramp from 800â†’1 atm caused 169k atm spike (PPPM grid change)"
  - Direct ramp from 800†’1 atm caused 169k atm spike (PPPM grid change)
print "  - Pre-equilibrating at 100 atm reduces initial pressure safely"
  - Pre-equilibrating at 100 atm reduces initial pressure safely
print "  - Main ramp (100â†’1 atm) will then cause only ~5% box expansion"
  - Main ramp (100†’1 atm) will then cause only ~5% box expansion

# Higher barostat damping for this stage (more conservative)
fix mynpt_pre all npt temp 300.0 300.0 100.0 iso 100.0 100.0 5000.0

dump pre_dcd all dcd 2000 pre_equilibration.dcd
dump_modify pre_dcd unwrap yes

run 25000  # 50 ps at 2 fs timestep
PPPM initialization ...
  extracting TIP4P info from pair style
  using 12-bit tables for long-range coulomb
  G vector (1/distance) = 0.28512662
  grid = 50 50 50
  stencil order = 5
  estimated absolute RMS force accuracy = 0.00038934319
  estimated relative force accuracy = 1.1724955e-06
  using double precision FFTW3
  3d grid and FFT values/proc = 185193 125000
Generated 0 of 3 mixed pair_coeff terms from geometric mixing rule
Per MPI rank memory allocation (min/avg/max) = 58.8 | 58.8 | 58.8 Mbytes
   Step          Temp          Press          Volume         PotEng         KinEng         TotEng        Density    
     25010   298.82235     -1527.9992      64000         -20727.579      3342.9197     -17384.659      0.89136653   
     26000   303.24195     -476.23991      61224.812     -20801.255      3392.3617     -17408.894      0.93177023   
     27000   298.87804     -404.32756      58859.587     -20748.946      3343.5427     -17405.403      0.96921268   
     28000   303.88045      675.43805      56897.603     -21008.016      3399.5045     -17608.511      1.0026338    
     29000   300.91807     -3.2325433      55835.552     -21001.824      3366.3645     -17635.459      1.0217049    
     30000   296.30243     -217.60551      54997.561     -20902.236      3314.7293     -17587.506      1.0372725    
     31000   302.9291       224.57845      54315.707     -21013.974      3388.8618     -17625.112      1.0502939    
     32000   295.14082     -464.98099      54355.923     -21166.528      3301.7345     -17864.794      1.0495169    
     33000   302.48964      511.87997      54445.152     -21129.808      3383.9455     -17745.862      1.0477968    
     34000   299.42996      747.64162      54464.901     -21067.238      3349.717      -17717.521      1.0474169    
     35000   303.30475     -962.64665      54310.093     -21057.676      3393.0642     -17664.612      1.0504025    
     36000   304.06812     -190.64207      54062.442     -21039.415      3401.604      -17637.811      1.0552142    
     37000   300.74571     -287.00848      54634.506     -21107.931      3364.4363     -17743.495      1.0441653    
     38000   300.49792      425.60171      54249.412     -21052.529      3361.6643     -17690.865      1.0515774    
     39000   305.9903      -559.57093      54343.756     -21036.834      3423.1074     -17613.726      1.0497518    
     40000   295.16882      1500.8039      53905.9       -21144.805      3302.0478     -17842.757      1.0582785    
     41000   294.52888      1206.2007      54276.916     -21054.277      3294.8888     -17759.389      1.0510446    
     42000   305.23443      598.72988      54410.963     -21101.585      3414.6515     -17686.934      1.0484552    
     43000   296.92061     -31.481599      54200.073     -21128.72       3321.6449     -17807.075      1.0525347    
     44000   297.44405      534.56618      54084.7       -21045.366      3327.5007     -17717.865      1.05478      
     45000   305.40957      599.48893      54516.843     -20980.289      3416.6108     -17563.679      1.046419     
     46000   300.15317      307.33384      54302.789     -21102.283      3357.8075     -17744.475      1.0505438    
     47000   290.36514      281.61146      54231.258     -21115.824      3248.309      -17867.515      1.0519294    
     48000   301.20787     -620.51865      54504.009     -20968.027      3369.6065     -17598.421      1.0466654    
     49000   300.24265      531.85213      54053.883     -21153.425      3358.8086     -17794.617      1.0553813    
     50000   302.05285     -378.92601      54081.679     -21014.326      3379.0592     -17635.267      1.0548389    
     50010   304.82718      643.9682       54084.198     -21039.106      3410.0956     -17629.01       1.0547897    
Loop time of 968.83 on 10 procs for 25000 steps with 5541 atoms

Performance: 4.459 ns/day, 5.382 hours/ns, 25.804 timesteps/s, 142.982 katom-step/s
627.4% CPU use with 1 MPI tasks x 10 OpenMP threads

MPI task timing breakdown:
Section |  min time  |  avg time  |  max time  |%varavg| %total
---------------------------------------------------------------
Pair    | 22.746     | 22.746     | 22.746     |   0.0 |  2.35
Bond    | 0.34288    | 0.34288    | 0.34288    |   0.0 |  0.04
Kspace  | 459.26     | 459.26     | 459.26     |   0.0 | 47.40
Neigh   | 0.048649   | 0.048649   | 0.048649   |   0.0 |  0.01
Comm    | 9.8127     | 9.8127     | 9.8127     |   0.0 |  1.01
Output  | 0.015487   | 0.015487   | 0.015487   |   0.0 |  0.00
Modify  | 472.41     | 472.41     | 472.41     |   0.0 | 48.76
Other   |            | 4.199      |            |       |  0.43

Nlocal:           5541 ave        5541 max        5541 min
Histogram: 1 0 0 0 0 0 0 0 0 0
Nghost:          35698 ave       35698 max       35698 min
Histogram: 1 0 0 0 0 0 0 0 0 0
Neighs:              0 ave           0 max           0 min
Histogram: 1 0 0 0 0 0 0 0 0 0

Total # of neighbors = 0
Ave neighs/atom = 0
Ave special neighs/atom = 2.4872767
Neighbor list builds = 2329
Dangerous builds = 0

unfix mynpt_pre
undump pre_dcd

write_restart pre_equilibration_complete.restart
System init for write_restart ...
PPPM initialization ...
  extracting TIP4P info from pair style
  using 12-bit tables for long-range coulomb
  G vector (1/distance) = 0.28838616
  grid = 50 50 50
  stencil order = 5
  estimated absolute RMS force accuracy = 0.00032867133
  estimated relative force accuracy = 9.8978393e-07
  using double precision FFTW3
  3d grid and FFT values/proc = 205379 125000
Generated 0 of 3 mixed pair_coeff terms from geometric mixing rule
write_data pre_equilibration_complete.data
System init for write_data ...
PPPM initialization ...
  extracting TIP4P info from pair style
  using 12-bit tables for long-range coulomb
  G vector (1/distance) = 0.28838616
  grid = 50 50 50
  stencil order = 5
  estimated absolute RMS force accuracy = 0.00032867133
  estimated relative force accuracy = 9.8978393e-07
  using double precision FFTW3
  3d grid and FFT values/proc = 205379 125000
Generated 0 of 3 mixed pair_coeff terms from geometric mixing rule
WARNING: Not all mixed pair coeffs generated from mixing. Use write_data with 'pair ij' option to store all pair coeffs. (src/write_data.cpp:364)

# ğŸ”§ CHECKPOINT #2: Verify still in liquid phase after pre-equilibration
variable current_dens equal density
variable current_press equal press
variable current_vol equal vol

print ""

print "Pre-equilibration complete:"
Pre-equilibration complete:
print "  Density:  ${current_dens} g/cmÂ³"
  Density:  1.05478973951767 g/cm³
print "  Pressure: ${current_press} atm"
  Pressure: 643.968196369044 atm
print "  Volume:   ${current_vol} Ã…Â³"
  Volume:   54084.1984700036 …³

if "${current_dens} < 0.85" then     "print 'ERROR: Density dropped to ${current_dens} during pre-equilibration!'"     "print 'Expected: Still ~0.95 g/cmÂ³ (may increase slightly due to compression)'"     "print 'System failed before main pressure ramp even started!'"     "quit 1"

print "âœ“ Checkpoint 2 PASSED: System stable at 100 atm"
œ“ Checkpoint 2 PASSED: System stable at 100 atm

#==============================================================================
# STAGE 2: GENTLE Pressure Ramp (100 â†’ 1 atm, 100 ps) - CORRECTED
#==============================================================================
print ""

print "===== STAGE 2: Gentle Pressure Ramp (100 ps, GPU) ====="
===== STAGE 2: Gentle Pressure Ramp (100 ps, GPU) =====
print "Ramping pressure from 100 atm â†’ 1 atm with drag damping"
Ramping pressure from 100 atm †’ 1 atm with drag damping
print ""

print "COMPARISON TO FAILED VERSION:"
COMPARISON TO FAILED VERSION:
print "  OLD: 50 atm â†’ 1 atm, no pre-equil â†’ 169,712 atm spike at step 51k"
  OLD: 50 atm †’ 1 atm, no pre-equil †’ 169,712 atm spike at step 51k
print "  NEW: 100 atm â†’ 1 atm, with pre-equil â†’ should be smooth (< 500 atm max)"
  NEW: 100 atm †’ 1 atm, with pre-equil †’ should be smooth (< 500 atm max)

# ğŸ”§ CRITICAL FIX #4: Add drag damping to prevent explosive expansion
fix mynpt_ramp all npt temp 300.0 300.0 100.0 iso 100.0 1.0 2000.0 drag 2.0

dump ramp_dcd all dcd 1000 pressure_ramp.dcd
dump_modify ramp_dcd unwrap yes

# Monitor closely during ramp (every 500 steps = 1 ps)
thermo 500

run 50000  # 100 ps at 2 fs timestep
PPPM initialization ...
  extracting TIP4P info from pair style
  using 12-bit tables for long-range coulomb
  G vector (1/distance) = 0.28838616
  grid = 50 50 50
  stencil order = 5
  estimated absolute RMS force accuracy = 0.00032867133
  estimated relative force accuracy = 9.8978393e-07
  using double precision FFTW3
  3d grid and FFT values/proc = 205379 125000
Generated 0 of 3 mixed pair_coeff terms from geometric mixing rule
Per MPI rank memory allocation (min/avg/max) = 59.64 | 59.64 | 59.64 Mbytes
   Step          Temp          Press          Volume         PotEng         KinEng         TotEng        Density    
     50010   304.82718      646.99878      54084.198     -21039.063      3410.0956     -17628.968      1.0547897    
     50500   295.29874     -290.22074      54347.804     -20930.673      3303.5012     -17627.172      1.0496736    
     51000   304.09523     -291.11024      54202.154     -21030.159      3401.9073     -17628.251      1.0524943    
     51500   302.0417       156.16267      53915.126     -21056.42       3378.9345     -17677.485      1.0580975    
     52000   298.12682      338.14321      54347.48      -21030.62       3335.1388     -17695.481      1.0496799    
     52500   298.96497      40.749029      54602.816     -20937.642      3344.5152     -17593.127      1.0447713    
     53000   299.46088     -486.69828      53930.827     -21040.767      3350.0629     -17690.704      1.0577894    
     53500   298.51924      362.91002      54307.07      -21078.525      3339.5288     -17738.996      1.050461     
     54000   299.42587      44.777962      54261.387     -21077.364      3349.6713     -17727.692      1.0513454    
     54500   309.84314     -192.82267      54134.29      -21170.904      3466.209      -17704.695      1.0538137    
     55000   300.08544      27.515413      54313.411     -21080.304      3357.0499     -17723.254      1.0503383    
     55500   300.44973      8.3906031      54258.333     -21076.543      3361.1252     -17715.418      1.0514045    
     56000   291.90038      82.239026      54203.014     -20944.4        3265.4838     -17678.916      1.0524776    
     56500   295.17848      505.87866      54255.282     -21000.423      3302.1558     -17698.268      1.0514637    
     57000   302.02038      45.550956      54240.879     -21094.216      3378.696      -17715.52       1.0517429    
     57500   301.64699     -756.07608      54301.891     -21076.753      3374.5189     -17702.234      1.0505612    
     58000   301.14375      772.56906      54023.334     -21011.383      3368.8891     -17642.494      1.0559781    
     58500   301.79117      565.34459      53893.854     -21022.162      3376.1318     -17646.03       1.0585151    
     59000   296.64789      368.55195      53915.094     -20987.443      3318.5941     -17668.849      1.0580981    
     59500   304.2973       266.01105      53807.088     -21098.796      3404.1679     -17694.629      1.060222     
     60000   303.55073      139.23859      54170.166     -21094.69       3395.8159     -17698.874      1.0531158    
     60500   302.17986     -9.6874536      54186.902     -21076.711      3380.4801     -17696.231      1.0527905    
     61000   301.30649     -83.038569      54178.921     -21034.736      3370.7097     -17664.026      1.0529456    
     61500   296.57713      452.5569       54444.656     -20991.62       3317.8025     -17673.817      1.0478064    
     62000   297.37695      713.17399      54452.42      -20980.883      3326.75       -17654.133      1.047657     
     62500   301.6444      -578.65997      54605.14      -21033.984      3374.4899     -17659.495      1.0447269    
     63000   297.41144     -118.09721      54699.025     -21042.222      3327.1358     -17715.087      1.0429337    
     63500   303.4272      -567.21414      54481.48      -21089.307      3394.4341     -17694.872      1.0470982    
     64000   297.76202      156.94365      54301.785     -21055.466      3331.0578     -17724.408      1.0505632    
     64500   298.43623     -535.6688       54100.066     -21039.353      3338.6001     -17700.752      1.0544804    
     65000   299.58093     -23.423676      54434.858     -21052.958      3351.4059     -17701.553      1.047995     
     65500   300.95244     -199.22736      54544.583     -21097.084      3366.7489     -17730.335      1.0458868    
     66000   298.55124      212.41451      54225.524     -21103.408      3339.8868     -17763.521      1.0520407    
     66500   296.30861     -205.85713      54371.647     -21022.466      3314.7985     -17707.667      1.0492133    
     67000   302.76515     -422.07955      53914.054     -21072.844      3387.0277     -17685.817      1.0581185    
     67500   300.06749     -228.26077      54059.033     -21073.321      3356.849      -17716.472      1.0552808    
     68000   299.44249      540.29585      54165.289     -21045.353      3349.8572     -17695.496      1.0532106    
     68500   301.66972     -72.206792      53974.653     -21077.147      3374.7731     -17702.374      1.0569305    
     69000   300.77668     -550.7654       54062.581     -21052.934      3364.7828     -17688.152      1.0552115    
     69500   297.40619     -345.17438      54428.1       -20993.689      3327.0772     -17666.612      1.0481251    
     70000   300.31723      345.71107      54000.058     -21002.206      3359.6429     -17642.564      1.0564333    
     70500   296.60552      198.30839      54188.172     -20957.831      3318.12       -17639.711      1.0527659    
     71000   299.61317      483.96264      54305.508     -21004.227      3351.7666     -17652.46       1.0504912    
     71500   300.13699      35.670786      54630.373     -21052.142      3357.6266     -17694.516      1.0442443    
     72000   302.21045      159.06847      55080.847     -21059.328      3380.8223     -17678.506      1.0357041    
     72500   301.70191      496.3759       54944.862     -21066.093      3375.1333     -17690.96       1.0382674    
     73000   296.42019      661.54657      54769.617     -21001.917      3316.0468     -17685.87       1.0415895    
     73500   297.56547     -355.95627      54806.716     -21069.224      3328.859      -17740.365      1.0408844    
     74000   300.72096      25.041982      54491.661     -21063.932      3364.1594     -17699.772      1.0469025    
     74500   302.17953      70.802436      54623.294     -21114.085      3380.4764     -17733.609      1.0443797    
     75000   303.61767      172.51414      54537.262     -21096.85       3396.5648     -17700.285      1.0460272    
     75500   300.48518      16.912523      54506.52      -21080.227      3361.5218     -17718.706      1.0466171    
     76000   290.23693      105.71876      54634.445     -20921.833      3246.8747     -17674.959      1.0441665    
     76500   304.35806      997.33506      54381.249     -21066.209      3404.8476     -17661.362      1.0490281    
     77000   300.30898      498.68099      54554.626     -21021.965      3359.5506     -17662.415      1.0456942    
     77500   295.384        26.67017       54547.565     -20951.725      3304.4549     -17647.27       1.0458296    
     78000   304.99935     -330.42237      54218.654     -21086.065      3412.0217     -17674.044      1.052174     
     78500   297.83064      716.08662      54364.827     -21023.935      3331.8254     -17692.11       1.049345     
     79000   300.96319     -187.22372      54344.387     -21065.237      3366.8692     -17698.368      1.0497396    
     79500   288.64321      1058.5284      54411.546     -20948.098      3229.0459     -17719.052      1.048444     
     80000   298.94157     -536.43636      54484.282     -21009.796      3344.2534     -17665.543      1.0470443    
     80500   301.62355     -370.23609      54232.404     -21035.579      3374.2567     -17661.323      1.0519072    
     81000   301.23785      286.29464      53818.023     -21052.968      3369.9419     -17683.026      1.0600066    
     81500   294.37359     -20.904545      54248.825     -20968.332      3293.1515     -17675.18       1.0515888    
     82000   296.08055      151.8534       54048.296     -21012.495      3312.2473     -17700.247      1.0554904    
     82500   299.31031     -106.47297      54098.496     -21022.433      3348.3784     -17674.054      1.054511     
     83000   298.83121     -53.351397      54355.948     -21038.571      3343.0188     -17695.552      1.0495164    
     83500   298.58339      85.769055      54195.112     -21046.572      3340.2465     -17706.326      1.0526311    
     84000   299.79431      25.916029      54400.947     -21079.847      3353.7929     -17726.054      1.0486483    
     84500   299.77053     -39.176815      54593.035     -21054.208      3353.527      -17700.681      1.0449585    
     85000   302.11702      81.159264      54457.237     -21036.934      3379.7771     -17657.157      1.0475643    
     85500   305.06399      129.89904      54570.465     -21112.731      3412.7448     -17699.986      1.0453907    
     86000   297.67052      368.56965      54377.775     -21028.498      3330.0342     -17698.464      1.0490951    
     86500   298.3523       762.99403      54331.842     -21039.149      3337.6613     -17701.487      1.049982     
     87000   299.33972      495.01996      53956.302     -21063.33       3348.7075     -17714.622      1.05729      
     87500   301.87311     -304.99009      54533.415     -21030.874      3377.0484     -17653.826      1.046101     
     88000   301.50953      22.745109      54525.406     -21045.522      3372.9811     -17672.541      1.0462546    
     88500   306.69593     -129.30085      54328.774     -21138.62       3431.0012     -17707.619      1.0500413    
     89000   297.90783     -290.14636      54399.925     -21050.002      3332.6889     -17717.313      1.0486679    
     89500   300.38446     -44.042291      54541.795     -21110.031      3360.395      -17749.636      1.0459402    
     90000   299.71169      214.24301      54345.568     -21083.822      3352.8687     -17730.953      1.0497168    
     90500   299.2756       53.6649        54382.294     -21097.061      3347.9902     -17749.07       1.0490079    
     91000   299.34471     -194.67683      54214.752     -21055.219      3348.7633     -17706.456      1.0522497    
     91500   303.15744     -391.32562      54293.104     -21072.011      3391.4163     -17680.595      1.0507312    
     92000   302.78349      221.23803      54342.91      -21077.86       3387.2329     -17690.627      1.0497682    
     92500   298.35566     -535.42794      54508.523     -21011.527      3337.6989     -17673.828      1.0465787    
     93000   297.28122     -134.69554      54290.792     -21013.791      3325.6791     -17688.112      1.0507759    
     93500   297.01822      182.57754      54423.429     -20990.625      3322.7369     -17667.889      1.048215     
     94000   299.97236     -52.753381      54286.01      -21027.756      3355.7848     -17671.972      1.0508685    
     94500   303.05859      738.24369      54590.685     -21122.005      3390.3104     -17731.695      1.0450035    
     95000   299.09742     -68.850036      54367.103     -21067.459      3345.9969     -17721.462      1.049301     
     95500   303.484        470.19311      53990.027     -21108.81       3395.0695     -17713.74       1.0566295    
     96000   298.62898      963.90315      54261.425     -21029.296      3340.7565     -17688.539      1.0513446    
     96500   300.45287     -134.77354      54788.506     -21082.31       3361.1603     -17721.15       1.0412304    
     97000   297.15816     -480.05198      54738.388     -21043.567      3324.3024     -17719.264      1.0421837    
     97500   298.3528      -789.72771      55057.121     -21075.503      3337.6669     -17737.837      1.0361504    
     98000   298.33576     -75.855839      54894.727     -21038.513      3337.4763     -17701.037      1.0392156    
     98500   299.71644     -232.88617      54744.372     -21042.338      3352.9218     -17689.416      1.0420698    
     99000   301.77096      272.84019      54532.195     -21107.09       3375.9058     -17731.184      1.0461244    
     99500   301.06758     -42.946635      54451.155     -21086.911      3368.037      -17718.874      1.0476813    
    100000   300.78043     -461.23168      54560.311     -21042.794      3364.8247     -17677.969      1.0455853    
    100010   296.95054     -244.86037      54563.89      -20998.754      3321.9798     -17676.774      1.0455167    
Loop time of 1951.22 on 10 procs for 50000 steps with 5541 atoms

Performance: 4.428 ns/day, 5.420 hours/ns, 25.625 timesteps/s, 141.988 katom-step/s
628.6% CPU use with 1 MPI tasks x 10 OpenMP threads

MPI task timing breakdown:
Section |  min time  |  avg time  |  max time  |%varavg| %total
---------------------------------------------------------------
Pair    | 46.255     | 46.255     | 46.255     |   0.0 |  2.37
Bond    | 0.66768    | 0.66768    | 0.66768    |   0.0 |  0.03
Kspace  | 933.73     | 933.73     | 933.73     |   0.0 | 47.85
Neigh   | 0.098571   | 0.098571   | 0.098571   |   0.0 |  0.01
Comm    | 19.695     | 19.695     | 19.695     |   0.0 |  1.01
Output  | 0.0578     | 0.0578     | 0.0578     |   0.0 |  0.00
Modify  | 942.19     | 942.19     | 942.19     |   0.0 | 48.29
Other   |            | 8.52       |            |       |  0.44

Nlocal:           5541 ave        5541 max        5541 min
Histogram: 1 0 0 0 0 0 0 0 0 0
Nghost:          35451 ave       35451 max       35451 min
Histogram: 1 0 0 0 0 0 0 0 0 0
Neighs:              0 ave           0 max           0 min
Histogram: 1 0 0 0 0 0 0 0 0 0

Total # of neighbors = 0
Ave neighs/atom = 0
Ave special neighs/atom = 2.4872767
Neighbor list builds = 4644
Dangerous builds = 0

thermo 1000  # Return to normal frequency

unfix mynpt_ramp
undump ramp_dcd

write_restart pressure_ramp_complete.restart
System init for write_restart ...
PPPM initialization ...
  extracting TIP4P info from pair style
  using 12-bit tables for long-range coulomb
  G vector (1/distance) = 0.28823049
  grid = 50 50 50
  stencil order = 5
  estimated absolute RMS force accuracy = 0.00033144496
  estimated relative force accuracy = 9.9813665e-07
  using double precision FFTW3
  3d grid and FFT values/proc = 205379 125000
Generated 0 of 3 mixed pair_coeff terms from geometric mixing rule
write_data pressure_ramp_complete.data
System init for write_data ...
PPPM initialization ...
  extracting TIP4P info from pair style
  using 12-bit tables for long-range coulomb
  G vector (1/distance) = 0.28823049
  grid = 50 50 50
  stencil order = 5
  estimated absolute RMS force accuracy = 0.00033144496
  estimated relative force accuracy = 9.9813665e-07
  using double precision FFTW3
  3d grid and FFT values/proc = 205379 125000
Generated 0 of 3 mixed pair_coeff terms from geometric mixing rule
WARNING: Not all mixed pair coeffs generated from mixing. Use write_data with 'pair ij' option to store all pair coeffs. (src/write_data.cpp:364)

# ğŸ”§ CHECKPOINT #3: Critical check after ramp (most likely failure point)
variable current_dens equal density
variable current_press equal press
variable current_vol equal vol
variable current_boxsize equal vol^(1.0/3.0)

print ""

print "Pressure ramp complete:"
Pressure ramp complete:
print "  Density:  ${current_dens} g/cmÂ³"
  Density:  1.04551668341194 g/cm³
print "  Pressure: ${current_press} atm"
  Pressure: -244.860370977796 atm
print "  Volume:   ${current_vol} Ã…Â³"
  Volume:   54563.8902958758 …³
print "  Box size: ${current_boxsize} Ã…"
  Box size: 37.9287423372772 …

if "${current_dens} < 0.75" then     "print ''"     "print 'ğŸ”´ CRITICAL ERROR: Density collapsed to ${current_dens} g/cmÂ³!'"     "print ''"     "print 'This means the PPPM artifact occurred despite fixes.'"     "print 'Check equilibration.log for pressure spike around step 75,000-85,000'"     "print ''"     "print 'If pressure exceeded 10,000 atm during ramp:'"     "print '  â†’ PPPM grid still recalculating (increase mesh size)'"     "print '  â†’ Try mesh 50 50 50 or mesh 60 60 60'"     "print ''"     "print 'If pressure stayed < 1,000 atm but density still dropped:'"     "print '  â†’ Initial configuration may be problematic'"     "print '  â†’ Check initial_system.data for pre-existing issues'"     "print ''"     "quit 1"

print "âœ“ Checkpoint 3 PASSED: Pressure ramp successful, liquid phase maintained"
œ“ Checkpoint 3 PASSED: Pressure ramp successful, liquid phase maintained

#==============================================================================
# STAGE 3: NPT Equilibration (Complete 1000 ps with 2-phase strategy)
#==============================================================================
print ""

print "===== STAGE 3: NPT Equilibration (1000 ps, GPU) ====="
===== STAGE 3: NPT Equilibration (1000 ps, GPU) =====
print "Equilibrating at 300K, 1 atm with improved pressure control"
Equilibrating at 300K, 1 atm with improved pressure control
print ""

print "Strategy:"
Strategy:
print "  Phase 1 (400 ps): Higher damping for gentle pressure equilibration"
  Phase 1 (400 ps): Higher damping for gentle pressure equilibration
print "  Phase 2 (600 ps): Standard damping for final equilibration"
  Phase 2 (600 ps): Standard damping for final equilibration
print ""


# Phase 1: Gentle NPT with stronger pressure damping (400 ps)
print "Phase 1: Gentle pressure equilibration (400 ps, pdamp=5000)..."
Phase 1: Gentle pressure equilibration (400 ps, pdamp=5000)...
# ğŸ”§ CRITICAL: Using npt/gpu instead of npt for FULL GPU acceleration
fix mynpt_gentle all npt/gpu temp 300.0 300.0 100.0 iso 1.0 1.0 5000.0

dump npt_traj all custom 2000 npt_equilibration.lammpstrj id type xu yu zu
dump_modify npt_traj sort id

dump npt_dcd all dcd 2000 npt_equilibration.dcd
dump_modify npt_dcd unwrap yes

# Thermodynamic averaging during NPT
fix thermo_avg_npt all ave/time 100 10 1000 v_epsilon_co v_temp v_press v_pe v_ke v_etotal v_vol v_dens     file npt_equilibration_thermo.dat

run 200000  # 400 ps at 2 fs timestep
PPPM initialization ...
  extracting TIP4P info from pair style
  using 12-bit tables for long-range coulomb
  G vector (1/distance) = 0.28823049
  grid = 50 50 50
  stencil order = 5
  estimated absolute RMS force accuracy = 0.00033144496
  estimated relative force accuracy = 9.9813665e-07
  using double precision FFTW3
  3d grid and FFT values/proc = 205379 125000
Generated 0 of 3 mixed pair_coeff terms from geometric mixing rule
Per MPI rank memory allocation (min/avg/max) = 59.64 | 59.64 | 59.64 Mbytes
   Step          Temp          Press          Volume         PotEng         KinEng         TotEng        Density    
    100010   296.95054     -240.58637      54563.89      -20998.758      3321.9798     -17676.778      1.0455167    
    101000   300.81038     -1079.627       54574.034     -21051.462      3365.1597     -17686.302      1.0453224    
    102000   307.04269     -94.600033      54578.035     -21078.247      3434.8805     -17643.366      1.0452457    
    103000   293.65464     -640.4852       54582.624     -21086.285      3285.1086     -17801.177      1.0451578    
    104000   304.34787     -151.05415      54115.061     -21074.564      3404.7335     -17669.83       1.0541882    
    105000   309.59885      527.9149       54490.753     -20950.048      3463.4761     -17486.572      1.04692      
    106000   297.51942     -439.70966      54976.203     -21053.444      3328.3438     -17725.1        1.0376755    
    107000   296.98504      120.30635      54752.882     -20974.134      3322.3657     -17651.769      1.0419079    
    108000   297.44482      251.21067      54450.159     -21121.068      3327.5093     -17793.558      1.0477005    
    109000   302.70563     -663.66695      54376.496     -21119.734      3386.3619     -17733.372      1.0491198    
    110000   302.06543      293.40105      54591.141     -21028.706      3379.2        -17649.506      1.0449948    
    111000   304.12006      463.28814      54572.437     -21000.514      3402.185      -17598.329      1.0453529    
    112000   297.28467      314.67576      54327.465     -20967.375      3325.7177     -17641.657      1.0500666    
    113000   299.8239       790.31406      54521.097     -21008.476      3354.1241     -17654.352      1.0463373    
    114000   302.25584      402.04048      54726.092     -20919.489      3381.33       -17538.159      1.0424179    
    115000   302.27481     -73.017473      54374.185     -21042.472      3381.5423     -17660.93       1.0491644    
    116000   299.38469     -112.49828      54706.273     -21036.345      3349.2105     -17687.135      1.0427955    
    117000   301.76101     -42.752012      54420.957     -21094.465      3375.7944     -17718.671      1.0482627    
    118000   303.54782      443.53521      53941.844     -21129.827      3395.7835     -17734.043      1.0575734    
    119000   308.41326      20.933454      54246.315     -20985.87       3450.2131     -17535.657      1.0516375    
    120000   299.80603     -973.86964      54537.877     -21064.062      3353.9241     -17710.138      1.0460154    
    121000   290.96803     -91.262435      54343.422     -21124.215      3255.0535     -17869.162      1.0497583    
    122000   298.20021     -236.53707      54507.777     -21054.343      3335.9598     -17718.383      1.046593     
    123000   297.17523      275.4035       54201.445     -21143.978      3324.4933     -17819.485      1.0525081    
    124000   303.35305      183.79863      55028.218     -21034.833      3393.6045     -17641.229      1.0366946    
    125000   297.09846      514.32158      54055.105     -20986.233      3323.6345     -17662.598      1.0553574    
    126000   309.95678      737.93018      53839.311     -20978.413      3467.4804     -17510.933      1.0595874    
    127000   297.27725      770.5051       54392.043     -21064.391      3325.6347     -17738.756      1.0488199    
    128000   300.43036      26.140258      54622.112     -20970.85       3360.9085     -17609.941      1.0444023    
    129000   301.23112     -528.59844      54430.214     -21024.935      3369.8666     -17655.069      1.0480844    
    130000   296.57922     -223.78142      54544.13      -21030.877      3317.8259     -17713.051      1.0458955    
    131000   304.12265      685.1376       54814.071     -21001.823      3402.214      -17599.609      1.0407448    
    132000   301.37223      670.50926      54419.57      -21029.88       3371.4452     -17658.434      1.0482894    
    133000   299.1626       60.607418      54798.816     -21127.126      3346.7261     -17780.4        1.0410345    
    134000   304.39702     -144.44061      54779.325     -20969.626      3405.2834     -17564.343      1.0414049    
    135000   292.6282       406.08692      54038.929     -21162.562      3273.6258     -17888.936      1.0556734    
    136000   300.17007     -299.78222      54127.326     -21053.076      3357.9966     -17695.079      1.0539493    
    137000   297.86835     -573.25497      54715.46      -21159.759      3332.2473     -17827.512      1.0426205    
    138000   298.08807     -117.33777      54404.996     -21051.678      3334.7053     -17716.973      1.0485702    
    139000   304.98988      590.00522      54125.537     -21071.677      3411.9157     -17659.762      1.0539841    
    140000   307.299        181.66312      54962.217     -20975.552      3437.7478     -17537.804      1.0379395    
    141000   304.20637      642.72618      54634.656     -21026.699      3403.1507     -17623.548      1.0441625    
    142000   304.47668     -46.878892      54528.757     -21064.692      3406.1745     -17658.517      1.0461903    
    143000   304.7514       1257.5534      54439.191     -21041.435      3409.2478     -17632.188      1.0479116    
    144000   298.22013      338.86228      54129.304     -21057.727      3336.1827     -17721.545      1.0539108    
    145000   304.87909     -880.53374      54924.963     -21082.468      3410.6763     -17671.791      1.0386435    
    146000   301.8308      -362.95713      54721.316     -21083.753      3376.5752     -17707.178      1.0425089    
    147000   294.62089      369.48708      53855.071     -21052.893      3295.9181     -17756.975      1.0592774    
    148000   300.19596      46.542305      54176.875     -21148.906      3358.2862     -17790.62       1.0529854    
    149000   299.49222     -264.31286      54718.03      -20961.196      3350.4135     -17610.782      1.0425715    
    150000   305.11441     -469.41438      54651.033     -21083.362      3413.3089     -17670.053      1.0438496    
    151000   298.89174      90.24727       54304.954     -21171.118      3343.696      -17827.422      1.0505019    
    152000   301.00313      374.88519      54421.194     -21022.986      3367.316      -17655.669      1.0482581    
    153000   297.33908     -821.02468      54897.62      -20963.351      3326.3264     -17637.024      1.0391609    
    154000   301.12807      1.2103005      54689.275     -21017.142      3368.7137     -17648.428      1.0431196    
    155000   298.2923       242.38977      54364.272     -20954.584      3336.99       -17617.594      1.0493557    
    156000   300.32061      470.44685      54303.488     -21107.554      3359.6807     -17747.874      1.0505303    
    157000   296.31001     -500.02285      54308.33      -20966.796      3314.8142     -17651.982      1.0504366    
    158000   297.11533      306.32201      54096.749     -21094.642      3323.8233     -17770.819      1.054545     
    159000   293.57837     -329.50879      54672.118     -21012.304      3284.2554     -17728.049      1.043447     
    160000   299.58387      379.92142      54098.715     -21056.04       3351.4388     -17704.601      1.0545067    
    161000   300.00847      990.18781      54367.573     -21107.594      3356.1888     -17751.405      1.049292     
    162000   298.16015      320.65915      54447.425     -21133.128      3335.5117     -17797.617      1.0477531    
    163000   296.13499     -724.07686      54454.6       -21150.442      3312.8563     -17837.586      1.047615     
    164000   298.66621      163.06514      54389.255     -21007.679      3341.1729     -17666.506      1.0488737    
    165000   298.34635     -146.16939      54637.602     -21054.024      3337.5947     -17716.429      1.0441062    
    166000   291.28784     -316.12696      54563.675     -21107.063      3258.6313     -17848.432      1.0455208    
    167000   303.06148      715.4444       54262.232     -21029.779      3390.3428     -17639.436      1.051329     
    168000   298.22375      313.09373      54329.83      -21165.256      3336.2231     -17829.033      1.0500209    
    169000   305.01125     -375.20086      54838.72      -21177.742      3412.1548     -17765.587      1.040277     
    170000   306.58532      392.47263      54356.133     -21120.211      3429.7638     -17690.447      1.0495128    
    171000   296.02771     -716.74124      54160.46      -21063.449      3311.6561     -17751.793      1.0533045    
    172000   294.7683       80.155559      54263.22      -21027.575      3297.5671     -17730.008      1.0513099    
    173000   296.50158     -57.455593      54588.247     -21116.465      3316.9572     -17799.507      1.0450502    
    174000   301.45952     -200.20653      54604.125     -21086.283      3372.4217     -17713.861      1.0447463    
    175000   296.42931      566.07784      54792.049     -21045.514      3316.1488     -17729.365      1.0411631    
    176000   297.77454      303.30593      54576.267     -21131.907      3331.1978     -17800.709      1.0452796    
    177000   303.15155     -575.25597      54237.069     -21059.959      3391.3504     -17668.608      1.0518168    
    178000   301.95481     -447.61033      54693.158     -21049.004      3377.9624     -17671.042      1.0430456    
    179000   298.58606     -533.95661      54530.288     -20964.2        3340.2763     -17623.924      1.0461609    
    180000   298.45095      441.979        53972.68      -21045.336      3338.7649     -17706.571      1.0569691    
    181000   296.71159     -395.71549      54483.793     -21006.212      3319.3067     -17686.905      1.0470537    
    182000   300.47391     -166.0151       54008.285     -21145.565      3361.3956     -17784.169      1.0562723    
    183000   299.6792      -27.542736      54204.098     -21040.595      3352.5053     -17688.09       1.0524565    
    184000   299.29597      608.86061      54186.834     -21065.776      3348.218      -17717.558      1.0527919    
    185000   293.42384     -926.89572      53883.544     -21097.728      3282.5267     -17815.202      1.0587176    
    186000   300.61553      936.77196      53995.03      -21133.625      3362.98       -17770.645      1.0565316    
    187000   305.03785     -636.03921      54518.558     -21063.274      3412.4524     -17650.821      1.046386     
    188000   298.95624     -81.371116      54000.798     -21113.869      3344.4175     -17769.451      1.0564188    
    189000   297.17389     -464.50176      54261.418     -21067.858      3324.4784     -17743.379      1.0513448    
    190000   296.87849     -500.3491       54464.82      -21060.942      3321.1737     -17739.769      1.0474185    
    191000   299.22017      202.3531       53886.417     -21184.544      3347.3701     -17837.174      1.0586612    
    192000   304.4478      -397.67141      54567.476     -21106.945      3405.8515     -17701.093      1.045448     
    193000   304.06555      587.35788      54747.504     -21218.569      3401.5753     -17816.993      1.0420102    
    194000   303.1315      -80.28999       54853.724     -21078.381      3391.126      -17687.255      1.0399924    
    195000   298.96287     -645.47142      54497.178     -20909.024      3344.4917     -17564.532      1.0467965    
    196000   301.84444      132.79976      54240.638     -20930.691      3376.7277     -17553.964      1.0517475    
    197000   298.97206      109.59567      54539.923     -21048.408      3344.5945     -17703.813      1.0459761    
    198000   296.74743      13.846994      54865.225     -20995.61       3319.7076     -17675.903      1.0397744    
    199000   298.16924      287.98116      54807.776     -20937.604      3335.6134     -17601.991      1.0408643    
    200000   308.19408      351.72415      54064.579     -20994.979      3447.7611     -17547.218      1.0551725    
    201000   303.40515      103.3505       54460.59      -21023.01       3394.1874     -17628.822      1.0474998    
    202000   296.68194     -549.34269      54459.212     -21121.628      3318.975      -17802.653      1.0475263    
    203000   304.59987     -754.02522      53827.213     -21013.794      3407.5527     -17606.241      1.0598256    
    204000   296.8161       551.93444      53835.492     -21036.85       3320.4758     -17716.374      1.0596626    
    205000   297.36443     -175.39184      54309.7       -20995.135      3326.6099     -17668.525      1.0504101    
    206000   297.71566      263.07877      54280.348     -20985.72       3330.5392     -17655.181      1.0509781    
    207000   303.98055      149.7896       54754.787     -21004.597      3400.6244     -17603.972      1.0418716    
    208000   305.64054      817.27543      54763.852     -21039.656      3419.1946     -17620.461      1.0416991    
    209000   298.42652      688.34568      54519.543     -21016.49       3338.4915     -17677.998      1.0463671    
    210000   298.73317      325.20698      54766.676     -21003.311      3341.9221     -17661.389      1.0416454    
    211000   296.89297      886.48593      54351.739     -21110.357      3321.3357     -17789.022      1.0495976    
    212000   300.35779     -306.29012      54594.352     -21090.826      3360.0966     -17730.729      1.0449333    
    213000   288.04471      158.68653      54419.805     -21081.689      3222.3505     -17859.339      1.0482849    
    214000   302.80264      100.18225      54545.715     -21027.161      3387.4472     -17639.714      1.0458651    
    215000   302.50821     -196.87631      54619.664     -21115.863      3384.1533     -17731.71       1.0444491    
    216000   300.2123      -159.36928      54363.74      -21263.996      3358.469      -17905.527      1.0493659    
    217000   300.51474      856.55906      54154.139     -21065.48       3361.8524     -17703.627      1.0534275    
    218000   296.46764     -429.51873      54610.329     -21052.229      3316.5776     -17735.651      1.0446276    
    219000   302.60869      142.55198      54416.526     -21104.059      3385.2774     -17718.781      1.048348     
    220000   308.35421      347.74431      54211.631     -21102.269      3449.5524     -17652.717      1.0523103    
    221000   305.36051     -26.989759      54035.149     -21130.392      3416.062      -17714.33       1.0557472    
    222000   297.95875     -18.589152      54422.431     -20967.926      3333.2586     -17634.668      1.0482343    
    223000   301.6479      -871.38403      55039.012     -21014.197      3374.5291     -17639.668      1.0364913    
    224000   294.14766      31.958309      54146.564     -21049.971      3290.624      -17759.347      1.0535749    
    225000   300.05678      879.31949      53869.661     -21114.63       3356.7293     -17757.9        1.0589905    
    226000   300.5531      -639.48046      54559.827     -21121.147      3362.2816     -17758.865      1.0455945    
    227000   301.3121      -673.44827      54689.601     -21066.146      3370.7725     -17695.373      1.0431134    
    228000   297.15897     -327.73518      54602.582     -21037.385      3324.3115     -17713.074      1.0447758    
    229000   294.62945      125.40284      54502.735     -21077.681      3296.0138     -17781.668      1.0466898    
    230000   303.8532      -46.020149      54229.968     -20966.019      3399.1997     -17566.819      1.0519545    
    231000   298.61389      961.78247      54401.776     -20995.377      3340.5876     -17654.789      1.0486323    
    232000   300.8925       21.419523      54722.256     -21200.868      3366.0784     -17834.79       1.042491     
    233000   307.05193     -179.51345      54898.369     -21028.65       3434.9838     -17593.666      1.0391467    
    234000   295.12463     -40.579235      54493.893     -20962.888      3301.5534     -17661.335      1.0468596    
    235000   294.23229     -683.21955      54609.474     -21030.028      3291.5708     -17738.457      1.044644     
    236000   300.01141      17.629346      54809.609     -21111.125      3356.2217     -17754.903      1.0408295    
    237000   302.41746      38.128887      55003.594     -21097.517      3383.1381     -17714.379      1.0371587    
    238000   294.9065      -665.97752      54694.842     -21047.142      3299.1132     -17748.029      1.0430135    
    239000   299.8517       611.56377      53940.611     -21080.069      3354.4351     -17725.634      1.0575975    
    240000   296.11954     -24.073463      54310.966     -21103.561      3312.6834     -17790.878      1.0503856    
    241000   302.71108     -718.98327      54653.827     -21140.385      3386.4229     -17753.962      1.0437962    
    242000   302.21412     -337.82863      54665.656     -20995.888      3380.8633     -17615.025      1.0435703    
    243000   296.89439      658.38518      54299.099     -21190.04       3321.3517     -17868.688      1.0506152    
    244000   303.53135     -81.672148      54387.625     -21006.858      3395.5992     -17611.258      1.0489051    
    245000   302.11164     -160.09024      55021.099     -20876.314      3379.7169     -17496.598      1.0368288    
    246000   296.85068      236.76726      54474.985     -21039.552      3320.8626     -17718.69       1.047223     
    247000   302.24996     -289.34245      54529.193     -21051.075      3381.2643     -17669.811      1.046182     
    248000   296.21209     -158.8709       54627.589     -21130.105      3313.7187     -17816.387      1.0442976    
    249000   299.76654     -76.195844      54173.606     -21103.418      3353.4823     -17749.935      1.0530489    
    250000   299.36485      609.28047      53726.487     -21132.14       3348.9886     -17783.151      1.0618125    
    251000   296.28314     -289.88217      54780.314     -21039.263      3314.5135     -17724.749      1.0413861    
    252000   302.45303     -3.6665418      54753.557     -20993.537      3383.536      -17610.001      1.041895     
    253000   302.32399      286.42502      54160.824     -21016.11       3382.0924     -17634.017      1.0532974    
    254000   295.56217     -164.39968      54124.952     -20967.976      3306.4481     -17661.528      1.0539955    
    255000   300.31052      276.92063      54170.354     -21126.683      3359.5678     -17767.115      1.0531121    
    256000   296.35132     -168.10771      54715.667     -21053.428      3315.2763     -17738.152      1.0426165    
    257000   300.50488      162.13927      54897.362     -20942.1        3361.7421     -17580.358      1.0391657    
    258000   295.6518      -665.61892      54851.797     -21104.226      3307.4508     -17796.775      1.040029     
    259000   300.21385      702.51346      54087.444     -21076.087      3358.4863     -17717.601      1.0547265    
    260000   299.10098     -219.45327      54214.857     -21103.097      3346.0367     -17757.06       1.0522477    
    261000   306.35756      252.82278      54364.624     -21077.404      3427.2159     -17650.188      1.0493489    
    262000   298.76343     -131.4802       54689.647     -21124.814      3342.2606     -17782.553      1.0431126    
    263000   300.82214     -209.09141      54562.381     -21146.52       3365.2913     -17781.228      1.0455456    
    264000   308.64455      406.25481      54401.61      -20930.43       3452.8005     -17477.63       1.0486355    
    265000   309.15767      93.310231      54419.493     -20976.409      3458.5408     -17517.868      1.0482909    
    266000   297.97047     -151.09416      54531.376     -21067.514      3333.3897     -17734.124      1.0461401    
    267000   299.53808     -226.49216      54962.602     -21108.958      3350.9265     -17758.032      1.0379323    
    268000   297.12913      391.4266       54468.576     -21121.201      3323.9776     -17797.224      1.0473462    
    269000   300.09395     -341.61659      54074.917     -21005.504      3357.1451     -17648.359      1.0549708    
    270000   301.26681     -908.73548      54638.92      -21094.797      3370.2658     -17724.531      1.044081     
    271000   303.12601      294.24976      54540.049     -21054.366      3391.0647     -17663.301      1.0459737    
    272000   300.78778      249.23618      54292.999     -21108.955      3364.9069     -17744.048      1.0507332    
    273000   302.91423     -10.429352      54308.287     -21059.821      3388.6955     -17671.125      1.0504374    
    274000   302.47163      290.59484      54378.969     -21094.509      3383.7441     -17710.765      1.0490721    
    275000   295.72834      610.42676      54281.057     -21012.805      3308.307      -17704.498      1.0509644    
    276000   301.98275     -739.09461      54879.191     -21144.841      3378.2751     -17766.566      1.0395098    
    277000   299.33243      142.57232      54363.503     -21128.654      3348.6259     -17780.028      1.0493705    
    278000   301.375        82.341316      54133.789     -21061.011      3371.4762     -17689.535      1.0538235    
    279000   300.68418      178.77796      54252.702     -21065.704      3363.7479     -17701.956      1.0515137    
    280000   292.45813     -1261.8451      54537.143     -21075.338      3271.7232     -17803.615      1.0460295    
    281000   293.79439     -653.65061      54139.798     -21056.104      3286.6719     -17769.433      1.0537065    
    282000   301.02695      496.97412      54313.118     -21184.967      3367.5825     -17817.385      1.050344     
    283000   294.52885     -348.3789       54520.66      -21082.802      3294.8884     -17787.914      1.0463457    
    284000   304.21918      386.0367       54743.132     -21059.423      3403.2939     -17656.129      1.0420934    
    285000   301.40615      182.05891      54591.567     -21050.518      3371.8246     -17678.693      1.0449866    
    286000   300.7481      -423.76011      54811.3       -21037.832      3364.4631     -17673.369      1.0407974    
    287000   302.38279      636.65353      54218.349     -20936.31       3382.7503     -17553.56       1.0521799    
    288000   301.76436      75.99987       54130.566     -21004.098      3375.8319     -17628.266      1.0538862    
    289000   306.33754      410.90222      54363.866     -20867.183      3426.992      -17440.191      1.0493635    
    290000   297.30399      497.79657      54179.591     -20978.807      3325.9339     -17652.873      1.0529326    
    291000   299.21697      200.60816      54828.702     -21109.437      3347.3343     -17762.103      1.0404671    
    292000   306.43449     -695.02142      54929.907     -21144.479      3428.0765     -17716.402      1.0385501    
    293000   301.30266     -81.512959      54558.59      -21060.428      3370.6669     -17689.761      1.0456183    
    294000   296.25544      176.20716      54437.793     -20977.188      3314.2037     -17662.984      1.0479385    
    295000   301.16136      312.09638      54120.157     -21181.916      3369.0862     -17812.829      1.0540889    
    296000   307.24255     -320.67125      54920.909     -21101.192      3437.1163     -17664.075      1.0387202    
    297000   305.77137      640.36836      54622.741     -21060.283      3420.6583     -17639.625      1.0443902    
    298000   294.734        290.52884      54055.335     -21133.754      3297.1833     -17836.571      1.055353     
    299000   297.22441     -247.56399      54279.386     -21036.509      3325.0435     -17711.466      1.0509967    
    300000   292.50859     -387.60966      54491.692     -21082.433      3272.2878     -17810.146      1.0469019    
    300010   292.16441     -221.136        54487.909     -21086.296      3268.4374     -17817.858      1.0469746    
Loop time of 7811.12 on 10 procs for 200000 steps with 5541 atoms

Performance: 4.424 ns/day, 5.424 hours/ns, 25.605 timesteps/s, 141.875 katom-step/s
625.4% CPU use with 1 MPI tasks x 10 OpenMP threads

MPI task timing breakdown:
Section |  min time  |  avg time  |  max time  |%varavg| %total
---------------------------------------------------------------
Pair    | 178.95     | 178.95     | 178.95     |   0.0 |  2.29
Bond    | 2.4097     | 2.4097     | 2.4097     |   0.0 |  0.03
Kspace  | 3732.4     | 3732.4     | 3732.4     |   0.0 | 47.78
Neigh   | 0.38071    | 0.38071    | 0.38071    |   0.0 |  0.00
Comm    | 78.65      | 78.65      | 78.65      |   0.0 |  1.01
Output  | 0.93764    | 0.93764    | 0.93764    |   0.0 |  0.01
Modify  | 3783.5     | 3783.5     | 3783.5     |   0.0 | 48.44
Other   |            | 33.89      |            |       |  0.43

Nlocal:           5541 ave        5541 max        5541 min
Histogram: 1 0 0 0 0 0 0 0 0 0
Nghost:          35431 ave       35431 max       35431 min
Histogram: 1 0 0 0 0 0 0 0 0 0
Neighs:              0 ave           0 max           0 min
Histogram: 1 0 0 0 0 0 0 0 0 0

Total # of neighbors = 0
Ave neighs/atom = 0
Ave special neighs/atom = 2.4872767
Neighbor list builds = 18563
Dangerous builds = 0

unfix mynpt_gentle

variable phase1_dens equal density
variable phase1_press equal press
print ""

print "Phase 1 complete:"
Phase 1 complete:
print "  Density:  ${phase1_dens} g/cmÂ³"
  Density:  1.0469746223053 g/cm³
print "  Pressure: ${phase1_press} atm"
  Pressure: -221.135996933108 atm
print ""


# Phase 2: Standard NPT damping (600 ps)
print "Phase 2: Final equilibration (600 ps, pdamp=2000)..."
Phase 2: Final equilibration (600 ps, pdamp=2000)...
# ğŸ”§ CRITICAL: Using npt/gpu instead of npt for FULL GPU acceleration
fix mynpt_standard all npt/gpu temp 300.0 300.0 100.0 iso 1.0 1.0 2000.0

run 300000  # 600 ps at 2 fs timestep
PPPM initialization ...
  extracting TIP4P info from pair style
  using 12-bit tables for long-range coulomb
  G vector (1/distance) = 0.28825506
  grid = 50 50 50
  stencil order = 5
  estimated absolute RMS force accuracy = 0.0003310056
  estimated relative force accuracy = 9.9681353e-07
  using double precision FFTW3
  3d grid and FFT values/proc = 205379 125000
Generated 0 of 3 mixed pair_coeff terms from geometric mixing rule
Per MPI rank memory allocation (min/avg/max) = 62.19 | 62.19 | 62.19 Mbytes
   Step          Temp          Press          Volume         PotEng         KinEng         TotEng        Density    
    300010   292.16441     -224.66767      54487.909     -21086.331      3268.4374     -17817.894      1.0469746    
    301000   296.67261      558.43555      54981.402     -21031.983      3318.8706     -17713.112      1.0375774    
    302000   300.88592      57.979816      53593.502     -21115.269      3366.0048     -17749.264      1.0644473    
    303000   304.93093      208.3703       54375.641     -21096.126      3411.2563     -17684.87       1.0491363    
    304000   300.57523      108.0089       54922.351     -21048.367      3362.5291     -17685.838      1.0386929    
    305000   294.74867     -146.71223      54144.551     -20931.811      3297.3476     -17634.463      1.053614     
    306000   298.70166      184.53945      54209.366     -21048.933      3341.5695     -17707.364      1.0523543    
    307000   300.88436      415.80208      54249.971     -21142.88       3365.9874     -17776.893      1.0515666    
    308000   305.83648     -398.51639      54831.566     -21111.146      3421.3867     -17689.76       1.0404127    
    309000   300.89435      358.52632      54537.715     -21062.944      3366.0991     -17696.845      1.0460185    
    310000   303.04637     -629.88912      54520.158     -21154.834      3390.1737     -17764.66       1.0463553    
    311000   299.06605     -401.60964      54511.493     -21116.405      3345.646      -17770.759      1.0465217    
    312000   303.4118      -35.67018       54439.824     -21037.082      3394.2618     -17642.82       1.0478994    
    313000   294.32159      145.42004      54173.946     -21020.481      3292.5698     -17727.911      1.0530423    
    314000   303.84031      332.41825      54178.114     -21100.009      3399.0555     -17700.953      1.0529613    
    315000   301.68169      497.57288      54576.881     -21076.815      3374.907      -17701.908      1.0452678    
    316000   297.12793      449.10295      54391.607     -21075.639      3323.9643     -17751.675      1.0488283    
    317000   294.42039     -158.40043      54591.811     -21066.088      3293.6751     -17772.413      1.044982     
    318000   289.59715     -103.2943       54263.69      -20921.794      3239.7176     -17682.076      1.0513007    
    319000   294.75687      226.83449      54250.786     -21102.082      3297.4393     -17804.643      1.0515508    
    320000   308.47343      570.34035      54919.352     -21013.427      3450.8861     -17562.541      1.0387496    
    321000   302.05856      313.06668      54388.991     -20996.568      3379.1231     -17617.445      1.0488788    
    322000   297.5684       1147.8508      54186.768     -20908.149      3328.8918     -17579.258      1.0527931    
    323000   300.17249      493.3289       54368.663     -21131.585      3358.0237     -17773.562      1.0492709    
    324000   297.48449      904.45125      54261.621     -20976.788      3327.953      -17648.835      1.0513408    
    325000   300.59301      33.657181      54373.198     -21022.075      3362.728      -17659.347      1.0491834    
    326000   307.96751      627.49974      54019.897     -21024.772      3445.2264     -17579.545      1.0560453    
    327000   300.81013     -394.33061      54531.158     -21037.864      3365.157      -17672.707      1.0461443    
    328000   299.0771      -75.472214      54527.064     -20994.247      3345.7695     -17648.478      1.0462228    
    329000   299.79946     -92.531513      54490.459     -21021.424      3353.8506     -17667.573      1.0469256    
    330000   297.12358     -276.56569      54409.945     -20951.665      3323.9156     -17627.749      1.0484748    
    331000   299.78254     -1081.8703      55348.45      -21064.367      3353.6613     -17710.706      1.0306966    
    332000   297.30289      656.54737      53710.429     -21111.173      3325.9215     -17785.252      1.06213      
    333000   295.70515      67.818795      53671.659     -21097.228      3308.0476     -17789.18       1.0628972    
    334000   301.01468     -738.03615      54493.188     -21070.601      3367.4453     -17703.156      1.0468732    
    335000   306.16762      1097.5252      54032.71      -21023.799      3425.0911     -17598.708      1.0557949    
    336000   306.92         3.5518325      54526.29      -21090.268      3433.5079     -17656.76       1.0462377    
    337000   301.76164     -894.38151      54411.786     -21092.696      3375.8015     -17716.895      1.0484394    
    338000   299.07569      736.03245      54365.93      -20983.926      3345.7538     -17638.173      1.0493237    
    339000   300.56235     -267.69047      54865.997     -21011.607      3362.3851     -17649.221      1.0397598    
    340000   297.47125      8.0339705      54415.8       -21097.71       3327.805      -17769.905      1.048362     
    341000   298.28277      24.049489      54450.213     -20979.723      3336.8835     -17642.84       1.0476994    
    342000   306.10076      11.289668      54684.419     -20947.198      3424.3431     -17522.855      1.0432123    
    343000   299.45898      421.06766      54291.152     -21126.088      3350.0416     -17776.046      1.050769     
    344000   298.72716      466.64253      54429.699     -21016.909      3341.8548     -17675.055      1.0480943    
    345000   299.90242     -305.56166      54860.77      -20968.365      3355.0024     -17613.363      1.0398589    
    346000   303.53005     -123.20293      54540.131     -21093.818      3395.5846     -17698.234      1.0459721    
    347000   302.65564      147.15881      54746.552     -21013.641      3385.8026     -17627.839      1.0420283    
    348000   307.23819     -273.46505      54566.993     -21215.134      3437.0675     -17778.067      1.0454572    
    349000   298.74164     -301.6055       54602.331     -20956.083      3342.0168     -17614.066      1.0447806    
    350000   298.95966      103.49147      54665.504     -20990.694      3344.4558     -17646.238      1.0435733    
    351000   305.85955     -127.65559      54606.514     -20951.452      3421.6447     -17529.807      1.0447006    
    352000   293.15193     -415.91608      54877.97      -20999.062      3279.4848     -17719.577      1.0395329    
    353000   296.22286     -86.497556      55017.467     -21136.752      3313.8392     -17822.913      1.0368972    
    354000   303.43629     -580.64648      54672.739     -21091.976      3394.5358     -17697.44       1.0434352    
    355000   302.19745     -363.37273      54428.488     -21114.632      3380.6769     -17733.955      1.0481176    
    356000   293.91884     -483.66958      54415.902     -21155.101      3288.0642     -17867.037      1.0483601    
    357000   300.77388     -14.797838      54220.576     -21164.435      3364.7514     -17799.683      1.0521367    
    358000   304.10379      720.00269      54144.53      -21078.534      3402.003      -17676.531      1.0536144    
    359000   300.70933      315.70676      54388.441     -21058.065      3364.0293     -17694.035      1.0488894    
    360000   304.78376      600.28017      54751.329     -20966.213      3409.6098     -17556.603      1.0419374    
    361000   300.32065     -699.31946      54243.479     -21067.069      3359.6812     -17707.388      1.0516924    
    362000   298.20963      613.25924      54053.711     -21038.978      3336.0652     -17702.913      1.0553847    
    363000   296.40242     -109.05413      54351.16      -21137.049      3315.848      -17821.201      1.0496088    
    364000   296.74365     -1392.9507      53816.852     -21104.48       3319.6653     -17784.814      1.0600296    
    365000   308.21321      263.04766      54151.362     -21167.628      3447.975      -17719.653      1.0534815    
    366000   297.16697      164.00401      53487.653     -21146.026      3324.401      -17821.625      1.0665538    
    367000   302.63689     -244.69642      54345.262     -21079.056      3385.5929     -17693.463      1.0497227    
    368000   301.44957     -765.83733      54661.692     -21063.867      3372.3103     -17691.556      1.043646     
    369000   302.15795      638.90341      53942.807     -21051.981      3380.235      -17671.746      1.0575545    
    370000   303.47143      23.582563      54069.895     -21129.76       3394.9288     -17734.831      1.0550688    
    371000   295.53698      80.896574      54635.053     -20997.759      3306.1663     -17691.593      1.0441549    
    372000   301.06995     -692.86345      54738.261     -21042.194      3368.0636     -17674.13       1.0421862    
    373000   300.60227     -172.16476      54686.395     -20998.344      3362.8316     -17635.512      1.0431746    
    374000   302.20161     -367.37454      53804.381     -20997.838      3380.7234     -17617.115      1.0602753    
    375000   311.90246      508.46356      54690.806     -21001.609      3489.2466     -17512.362      1.0430905    
    376000   304.84891      167.82642      54526.745     -20935.766      3410.3387     -17525.427      1.0462289    
    377000   303.07457      176.3499       54388.908     -21147.926      3390.4892     -17757.437      1.0488804    
    378000   297.16886     -895.88269      53941.543     -20979.402      3324.4221     -17654.98       1.0575793    
    379000   297.20699      1010.9281      53844.822     -21103.872      3324.8487     -17779.023      1.059479     
    380000   303.39075     -12.581094      54359.497     -21132.514      3394.0263     -17738.488      1.0494479    
    381000   299.68204      929.68996      54276.862     -21012.815      3352.537      -17660.278      1.0510456    
    382000   292.75452      343.96536      54663.192     -20989.573      3275.039      -17714.534      1.0436174    
    383000   302.18868      781.60861      54970.346     -20920.431      3380.5787     -17539.852      1.037786     
    384000   296.74899      393.24899      54530.957     -21033.53       3319.725      -17713.805      1.0461481    
    385000   297.13242      224.66723      53707.036     -21066.66       3324.0145     -17742.645      1.0621971    
    386000   299.5251       372.95173      53906.623     -21100.14       3350.7813     -17749.359      1.0582644    
    387000   303.86344     -1.3794259      54344.698     -21155.822      3399.3143     -17756.507      1.0497336    
    388000   294.73256      528.91681      54584.342     -21171.898      3297.1672     -17874.731      1.045125     
    389000   296.93038      453.70113      54795.124     -21103.476      3321.7542     -17781.722      1.0411046    
    390000   295.20678     -318.84105      54267.581     -21186.531      3302.4724     -17884.058      1.0512254    
    391000   303.84825      502.50579      54316.703     -21077.247      3399.1444     -17678.103      1.0502747    
    392000   303.97597      1018.041       54356.526     -21221.761      3400.5732     -17821.188      1.0495052    
    393000   295.925       -144.12093      54398.085     -21098.01       3310.5071     -17787.503      1.0487034    
    394000   297.32495      1145.4935      54090.902     -21074.626      3326.1683     -17748.458      1.054659     
    395000   299.00412     -367.24406      54049         -21137.099      3344.9531     -17792.146      1.0554767    
    396000   299.78154     -264.86918      54457.808     -21048.904      3353.6502     -17695.254      1.0475533    
    397000   299.36782      121.7354       54296.106     -20990.592      3349.0219     -17641.57       1.0506731    
    398000   301.14039      113.51648      54845.997     -20991.886      3368.8515     -17623.035      1.0401389    
    399000   302.85835     -294.3171       54444.185     -20903.161      3388.0703     -17515.091      1.0478154    
    400000   299.93204      574.03789      54034.202     -21036.696      3355.3338     -17681.362      1.0557657    
    401000   297.56339     -62.287261      54783.166     -21095.804      3328.8357     -17766.968      1.0413319    
    402000   300.40916     -103.51784      54365.333     -20932.324      3360.6713     -17571.653      1.0493352    
    403000   301.16004     -12.953425      54263.212     -20925.602      3369.0714     -17556.531      1.05131      
    404000   302.50332     -717.63682      54432.466     -21138.001      3384.0987     -17753.902      1.048041     
    405000   294.05131      8.2114649      54353.792     -21079.756      3289.5461     -17790.209      1.049558     
    406000   294.1496       77.286424      54620.894     -21137.595      3290.6457     -17846.949      1.0444255    
    407000   300.97947     -983.37615      55083.579     -21039.839      3367.0513     -17672.788      1.0356527    
    408000   305.78036     -67.441859      54695.169     -20982.842      3420.7588     -17562.083      1.0430072    
    409000   295.54317      144.56411      54437.12      -21062.031      3306.2355     -17755.795      1.0479514    
    410000   298.24059     -475.05186      54458.49      -21030.14       3336.4116     -17693.729      1.0475402    
    411000   307.94993     -70.80278       54276.629     -21070.018      3445.0297     -17624.988      1.0510501    
    412000   306.493        247.62351      54513.819     -21053.285      3428.7311     -17624.554      1.046477     
    413000   297.01442      787.7344       54028.995     -21103.46       3322.6944     -17780.765      1.0558675    
    414000   299.1551       1177.3129      54366.515     -21065.12       3346.6421     -17718.478      1.0493124    
    415000   297.58879     -72.525011      54421.165     -21052.448      3329.1199     -17723.328      1.0482587    
    416000   295.97903      558.34649      54670.43      -20991.164      3311.1115     -17680.052      1.0434792    
    417000   302.86135     -86.865361      54377.411     -21056.518      3388.1039     -17668.414      1.0491021    
    418000   304.97103      828.31323      54478.224     -21015.383      3411.7048     -17603.678      1.0471608    
    419000   295.44002      98.600395      54511.278     -20959.547      3305.0817     -17654.466      1.0465258    
    420000   306.84072      507.09643      54139.684     -21071.814      3432.6211     -17639.193      1.0537087    
    421000   303.28295      125.64297      54076.279     -21044.106      3392.8203     -17651.286      1.0549442    
    422000   303.17817      232.42597      54289.207     -20960.418      3391.6482     -17568.77       1.0508066    
    423000   298.85648      269.34211      54130.155     -21034.212      3343.3015     -17690.911      1.0538942    
    424000   291.94416     -789.22955      54756.017     -21118.506      3265.9735     -17852.532      1.0418482    
    425000   299.47998     -333.85446      54861.412     -20953.752      3350.2765     -17603.476      1.0398467    
    426000   305.42636     -507.11078      54455.215     -20985.306      3416.7987     -17568.507      1.0476032    
    427000   300.08889      419.1953       54638.832     -20908.376      3357.0884     -17551.288      1.0440827    
    428000   298.43719      403.14619      54485.564     -20966.408      3338.6109     -17627.797      1.0470197    
    429000   300.94414     -144.21572      53992.632     -21001.626      3366.6561     -17634.969      1.0565786    
    430000   290.44958     -63.711232      54375.044     -21088.153      3249.2537     -17838.9        1.0491478    
    431000   304.77497     -245.43308      54664.863     -21086.207      3409.5116     -17676.696      1.0435855    
    432000   303.75548      394.53706      54141.018     -21187.273      3398.1065     -17789.166      1.0536828    
    433000   299.65717     -900.33192      54306.493     -21031.958      3352.2588     -17679.699      1.0504721    
    434000   297.27162      348.02136      54484.442     -20893.183      3325.5717     -17567.611      1.0470412    
    435000   298.52141     -450.96253      54717.422     -21160.887      3339.5531     -17821.334      1.0425831    
    436000   296.33742      278.46         54566.284     -21047.803      3315.1209     -17732.682      1.0454708    
    437000   298.38686      101.37541      54152.697     -21119.882      3338.0479     -17781.834      1.0534555    
    438000   297.26062     -127.57387      54169.214     -21040.024      3325.4486     -17714.575      1.0531343    
    439000   302.42068      496.07133      54436.686     -20988.849      3383.1741     -17605.675      1.0479598    
    440000   309.13552      92.385473      54363.583     -20953.873      3458.293      -17495.58       1.049369     
    441000   299.74652      400.22357      54548.001     -20975.694      3353.2584     -17622.436      1.0458212    
    442000   300.00285     -476.35251      54539.787     -20919.187      3356.1259     -17563.061      1.0459787    
    443000   302.77814      60.982414      53907.917     -21079.944      3387.173      -17692.771      1.058239     
    444000   300.71178     -658.9917       54664.484     -21024.218      3364.0567     -17660.161      1.0435927    
    445000   297.11451     -366.35944      54517.192     -21012.827      3323.8141     -17689.013      1.0464123    
    446000   301.69981      769.81972      54450.805     -21075.995      3375.1098     -17700.885      1.0476881    
    447000   297.95024      1347.7991      53711.885     -20932.286      3333.1635     -17599.123      1.0621012    
    448000   296.18061     -169.87925      54502.474     -21056.933      3313.3666     -17743.566      1.0466948    
    449000   299.61623      298.44547      54396.885     -20906.635      3351.8008     -17554.834      1.0487265    
    450000   299.77222      660.46677      54136.741     -20999.122      3353.5459     -17645.576      1.053766     
    451000   306.53675     -57.071654      54006.478     -21036.327      3429.2206     -17607.106      1.0563077    
    452000   300.32        -769.37699      54422.622     -21093.561      3359.6739     -17733.887      1.0482306    
    453000   292.98807      508.66003      54270.824     -21092.694      3277.6518     -17815.042      1.0511626    
    454000   295.35089     -296.41876      54393.484     -21105.856      3304.0845     -17801.771      1.0487921    
    455000   301.78648     -26.58055       54374.255     -21142.039      3376.0793     -17765.96       1.049163     
    456000   298.3001      -404.01037      54925.735     -21023.459      3337.0773     -17686.382      1.0386289    
    457000   303.61571      1016.8878      54233.082     -21127.055      3396.5429     -17730.512      1.0518941    
    458000   305.9345       558.65571      53801.779     -21050.292      3422.4832     -17627.808      1.0603266    
    459000   304.67458      482.63712      53877.521     -21202.937      3408.3885     -17794.549      1.058836     
    460000   303.96025      515.13416      53955.958     -21206.29       3400.3973     -17805.892      1.0572967    
    461000   300.86125      62.502354      53810.592     -21101.309      3365.7288     -17735.58       1.0601529    
    462000   308.0064      -40.315391      54134.304     -21031.586      3445.6615     -17585.925      1.0538135    
    463000   297.27878     -112.10897      54164.05      -21080.459      3325.6518     -17754.807      1.0532347    
    464000   304.18876      44.331646      54178.414     -21043.957      3402.9536     -17641.003      1.0529555    
    465000   301.19234      423.15271      54416.756     -20964.803      3369.4327     -17595.37       1.0483436    
    466000   305.30814      798.19622      53982.578     -21021.091      3415.4761     -17605.615      1.0567753    
    467000   301.59802     -57.285547      54168.132     -21071.605      3373.9711     -17697.634      1.0531553    
    468000   301.78948     -452.19795      54454.775     -20946.429      3376.113      -17570.316      1.0476117    
    469000   299.84008     -279.92696      54276.911     -21031.168      3354.3051     -17676.863      1.0510447    
    470000   304.31304      269.25532      54109.115     -21090.045      3404.3439     -17685.701      1.054304     
    471000   302.6122       587.0658       53823.283     -21090.498      3385.3166     -17705.182      1.059903     
    472000   305.40912      586.84552      53727.588     -21045.919      3416.6058     -17629.313      1.0617908    
    473000   309.70646      410.49025      54162.541     -21024.23       3464.68       -17559.55       1.0532641    
    474000   294.57642     -262.34293      54795.778     -21087.384      3295.4205     -17791.964      1.0410922    
    475000   296.57628     -654.68662      54463.006     -21093.307      3317.793      -17775.514      1.0474533    
    476000   297.4294      -468.79163      54068.048     -21032.236      3327.3368     -17704.899      1.0551048    
    477000   305.88761      815.96397      54363.188     -21121.787      3421.9586     -17699.829      1.0493766    
    478000   299.73666      827.57973      54103.397     -21102.628      3353.1481     -17749.48       1.0544154    
    479000   298.25604      7.1942794      54394.474     -21116.912      3336.5844     -17780.328      1.048773     
    480000   300.22737      562.66787      54151.25      -21045.133      3358.6376     -17686.496      1.0534837    
    481000   303.14264      75.861434      55048.632     -20852.297      3391.2507     -17461.046      1.0363102    
    482000   296.68654     -411.66993      54035.076     -21014.379      3319.0264     -17695.353      1.0557486    
    483000   299.99023     -643.66087      54800.487     -21023.406      3355.9847     -17667.422      1.0410028    
    484000   304.2207      -383.30258      54051.788     -21031.389      3403.311      -17628.078      1.0554222    
    485000   303.22431      139.57086      54584.62      -21116.219      3392.1644     -17724.055      1.0451196    
    486000   294.49399      660.52741      54381.826     -21037.358      3294.4984     -17742.859      1.0490169    
    487000   304.18658      318.55784      54473.703     -21059.47       3402.9292     -17656.541      1.0472476    
    488000   293.53483      954.22803      53831.209     -21068.913      3283.7683     -17785.144      1.0597469    
    489000   300.73393      371.63849      54623.365     -21089.043      3364.3045     -17724.739      1.0443783    
    490000   300.69158     -706.05404      54385.82      -21010.001      3363.8308     -17646.17       1.0489399    
    491000   293.04179      137.50469      54019.527     -20985.639      3278.2526     -17707.387      1.0560525    
    492000   299.22817     -10.676772      54091.626     -21004.919      3347.4596     -17657.46       1.0546449    
    493000   291.26855      697.13308      53935.967     -21021.077      3258.4155     -17762.662      1.0576886    
    494000   308.72807     -234.03513      54518.485     -21058.307      3453.7347     -17604.573      1.0463874    
    495000   302.5109      -97.665291      54423.821     -21122.708      3384.1835     -17738.524      1.0482075    
    496000   305.17375      302.97335      54489.936     -21052.282      3413.9727     -17638.309      1.0469357    
    497000   300.36351     -518.29633      54271.902     -21139.875      3360.1606     -17779.715      1.0511417    
    498000   305.82851      59.956183      53817.022     -21054.508      3421.2975     -17633.21       1.0600263    
    499000   307.63349     -932.76224      54804.715     -21183.443      3441.4898     -17741.953      1.0409224    
    500000   303.49487     -854.15639      54275.483     -21005.646      3395.1911     -17610.455      1.0510723    
    501000   300.76835     -570.76892      54439.375     -21091.587      3364.6896     -17726.897      1.047908     
    502000   300.00498     -64.007049      54493.75      -21097.834      3356.1497     -17741.684      1.0468624    
    503000   300.09813      523.32636      54655.115     -21021.101      3357.1918     -17663.91       1.0437716    
    504000   303.13638     -3.1226243      54390.586     -21032.279      3391.1807     -17641.098      1.048848     
    505000   301.60278      482.87865      54244.668     -21076.974      3374.0243     -17702.95       1.0516694    
    506000   293.56659     -868.49397      54570.866     -21032.99       3284.1236     -17748.866      1.045383     
    507000   300.9677      -1175.0891      54177.396     -21108.598      3366.9197     -17741.678      1.0529753    
    508000   299.77016     -1101.6338      54787.892     -20962.284      3353.5228     -17608.761      1.0412421    
    509000   302.68654     -406.74883      54510.69      -21062.771      3386.1483     -17676.623      1.0465371    
    510000   300.35356     -520.73862      54844.564     -21028.833      3360.0493     -17668.783      1.0401661    
    511000   299.58168     -74.041577      54354.771     -21056.604      3351.4143     -17705.189      1.0495391    
    512000   300.92327     -409.83751      54367.818     -21074.941      3366.4227     -17708.518      1.0492872    
    513000   298.6428       161.51544      53890.656     -21075.637      3340.911      -17734.726      1.0585779    
    514000   303.03537     -224.43219      54377.949     -21133.345      3390.0507     -17743.294      1.0490918    
    515000   298.33164      293.83845      54195.226     -21245.067      3337.4301     -17907.637      1.0526288    
    516000   300.19551     -679.56364      54741.946     -21066.159      3358.2813     -17707.878      1.042116     
    517000   301.08667      54.588584      54450.88      -21012.19       3368.2506     -17643.94       1.0476866    
    518000   299.4822       448.18712      53837.698     -21089.085      3350.3014     -17738.784      1.0596192    
    519000   300.75826      383.92962      54127.015     -21101.272      3364.5767     -17736.695      1.0539554    
    520000   304.56311     -778.82913      54497.291     -21069.528      3407.1415     -17662.386      1.0467944    
    521000   298.97148      1397.4853      54420.181     -21050.185      3344.588      -17705.597      1.0482776    
    522000   301.73105     -813.32742      53928.169     -21102.436      3375.4593     -17726.977      1.0578415    
    523000   296.66237      381.14511      54461.701     -21067.105      3318.756      -17748.349      1.0474784    
    524000   301.8577       537.39926      54347.193     -21102.479      3376.8761     -17725.602      1.0496855    
    525000   302.30439     -1061.6081      54341.838     -21017.853      3381.8732     -17635.98       1.0497889    
    526000   297.12633     -30.462372      54981.254     -21039.206      3323.9463     -17715.259      1.0375801    
    527000   301.59223     -260.10411      54768.912     -21034.756      3373.9063     -17660.85       1.0416029    
    528000   291.12889     -405.25555      54215.237     -21045.931      3256.8531     -17789.077      1.0522403    
    529000   293.89429      732.9657       54457.817     -20976.287      3287.7896     -17688.497      1.0475531    
    530000   301.75797     -227.85543      54723.945     -21074.262      3375.7605     -17698.501      1.0424588    
    531000   296.81402     -545.41043      54684.658     -21060.114      3320.4525     -17739.662      1.0432077    
    532000   295.06451     -1.2635181      54834.318     -21136.621      3300.8808     -17835.74       1.0403605    
    533000   297.76978      86.741197      54694.465     -21175.418      3331.1446     -17844.274      1.0430207    
    534000   298.6431       137.20083      53914.369     -21075.795      3340.9144     -17734.881      1.0581123    
    535000   305.53829     -403.68473      54185.044     -20859.269      3418.0508     -17441.218      1.0528266    
    536000   293.96004     -150.27799      54520.887     -21142.539      3288.5251     -17854.014      1.0463413    
    537000   298.72742     -1031.7427      54950.023     -20903.427      3341.8577     -17561.57       1.0381699    
    538000   304.4727      -352.30977      54247.87      -20948.525      3406.1301     -17542.395      1.0516073    
    539000   300.50896     -509.23902      54353.62      -21058.148      3361.7878     -17696.36       1.0495613    
    540000   300.87377     -349.89562      54295.807     -21028.975      3365.8689     -17663.106      1.0506789    
    541000   300.00291      499.64232      53745.644     -21129.975      3356.1265     -17773.849      1.0614341    
    542000   298.44441     -1266.0158      54524.116     -20934.275      3338.6917     -17595.583      1.0462794    
    543000   293.85908      399.07761      54230.405     -21160.114      3287.3957     -17872.718      1.051946     
    544000   302.84021      510.02707      53642.729     -21144.256      3387.8674     -17756.389      1.0634705    
    545000   300.38488      540.18828      54277.115     -21037.139      3360.3997     -17676.739      1.0510407    
    546000   312.01491      390.91808      54312.18      -21085.688      3490.5046     -17595.184      1.0503621    
    547000   296.61915     -202.21647      54290.808     -21046.621      3318.2726     -17728.349      1.0507756    
    548000   300.76662     -584.73938      54096.362     -21012.998      3364.6702     -17648.328      1.0545526    
    549000   300.88272     -377.58677      54737.967     -21090.175      3365.969      -17724.206      1.0421917    
    550000   302.56942      818.89096      54466.839     -21165.38       3384.838      -17780.542      1.0473796    
    551000   293.43012      318.45402      54463.757     -21163.798      3282.5969     -17881.201      1.0474389    
    552000   299.05436     -10.626702      54164.38      -21053.693      3345.5152     -17708.178      1.0532283    
    553000   305.96581      440.84051      54145.797     -21070.483      3422.8334     -17647.65       1.0535898    
    554000   301.43479     -503.99499      55047.244     -20985.747      3372.1449     -17613.602      1.0363363    
    555000   305.18149      195.39298      54605.839     -21087.288      3414.0593     -17673.229      1.0447135    
    556000   301.10335     -54.145586      54823.365     -21052.889      3368.4372     -17684.452      1.0405683    
    557000   293.4933       136.28744      54711.585     -21013.644      3283.3037     -17730.34       1.0426943    
    558000   297.78058     -375.59098      54355.857     -21145.238      3331.2654     -17813.973      1.0495181    
    559000   303.68817      826.97981      54327.529     -20969.812      3397.3535     -17572.459      1.0500654    
    560000   298.15698     -227.678        54480.087     -21187.511      3335.4762     -17852.035      1.0471249    
    561000   295.96871     -964.10788      54754.341     -20963.379      3310.996      -17652.383      1.0418801    
    562000   298.61488     -231.23614      54436.437     -21125.787      3340.5987     -17785.189      1.0479646    
    563000   303.15974      507.43346      53951.624     -21126.248      3391.4419     -17734.806      1.0573817    
    564000   297.55599      88.722786      54183.844     -21061.553      3328.753      -17732.8        1.05285      
    565000   304.45771     -154.99106      54517.034     -20932.418      3405.9623     -17526.455      1.0464153    
    566000   299.02861      397.69219      54137.872     -21166.76       3345.2271     -17821.533      1.053744     
    567000   288.93918      523.31859      54599.646     -21145.921      3232.3568     -17913.564      1.044832     
    568000   306.64914      129.57323      53791.282     -21132.654      3430.4778     -17702.176      1.0605335    
    569000   296.8351       1222.3141      54238.409     -20978.402      3320.6884     -17657.714      1.0517908    
    570000   307.82189      388.81236      54124.874     -20987.364      3443.5974     -17543.767      1.053997     
    571000   306.33404     -236.98207      54818.453     -20984.897      3426.9528     -17557.944      1.0406616    
    572000   300.48175     -271.00338      54831.388     -21070.698      3361.4834     -17709.215      1.0404161    
    573000   301.13592      666.09915      53992.262     -21070.897      3368.8016     -17702.095      1.0565858    
    574000   303.35395     -18.315607      54623.317     -20950.787      3393.6146     -17557.173      1.0443792    
    575000   303.99056     -317.82006      54500.265     -20886.768      3400.7364     -17486.031      1.0467372    
    576000   304.51645      504.27444      54372.637     -21091.488      3406.6195     -17684.868      1.0491942    
    577000   301.57033      359.01148      54820.452     -20996.2        3373.6612     -17622.539      1.0406236    
    578000   303.85645     -270.07632      55053.286     -20985.018      3399.2361     -17585.782      1.0362226    
    579000   298.72841     -516.9779       54388         -21091.92       3341.8688     -17750.051      1.0488979    
    580000   304.64139     -185.1514       54700.566     -21024.067      3408.0172     -17616.05       1.0429043    
    581000   299.9351       278.23089      54470.61      -20940.897      3355.368      -17585.529      1.0473071    
    582000   298.51984      354.81029      54353.817     -21009.95       3339.5355     -17670.415      1.0495575    
    583000   300.80455      96.701526      54243.759     -21080.512      3365.0945     -17715.418      1.051687     
    584000   300.45235      1041.658       54282.493     -20971.283      3361.1545     -17610.129      1.0509366    
    585000   297.14749      1431.0007      54118.736     -21152.462      3324.1831     -17828.278      1.0541166    
    586000   305.11115      221.47324      54360.278     -21078.301      3413.2724     -17665.028      1.0494328    
    587000   296.82377     -307.81318      54139.057     -21038.659      3320.5616     -17718.098      1.0537209    
    588000   300.56611      484.5397       54193.421     -21078.974      3362.4271     -17716.547      1.0526639    
    589000   298.13923      322.33455      54456.405     -21173.901      3335.2776     -17838.623      1.0475803    
    590000   303.21845      804.20301      54409.365     -21195.156      3392.0988     -17803.057      1.048486     
    591000   295.34136     -582.60409      54557.207     -21115.748      3303.978      -17811.77       1.0456448    
    592000   301.20629      33.774438      55181.316     -21106.566      3369.5888     -17736.978      1.0338184    
    593000   297.79131      130.92008      54373.209     -21201.052      3331.3854     -17869.667      1.0491832    
    594000   293.31381      956.86503      53714.288     -21069.88       3281.2957     -17788.584      1.0620537    
    595000   297.5307      -73.504325      54375.068     -20998.01       3328.47       -17669.54       1.0491473    
    596000   300.61843     -592.77811      54696.284     -20931.838      3363.0124     -17568.826      1.042986     
    597000   305.21446      63.032171      54433.472     -21161.667      3414.4281     -17747.239      1.0480217    
    598000   297.93897     -1061.3221      54786.074     -21041.822      3333.0374     -17708.785      1.0412766    
    599000   304.37007      451.79608      55051.731     -20997.597      3404.9819     -17592.615      1.0362518    
    600000   290.35136      759.60858      54611.309     -21088.04       3248.1549     -17839.885      1.0446089    
    600010   293.76829      357.91503      54617.277     -21132.043      3286.38       -17845.663      1.0444947    
Loop time of 11713.1 on 10 procs for 300000 steps with 5541 atoms

Performance: 4.426 ns/day, 5.423 hours/ns, 25.612 timesteps/s, 141.919 katom-step/s
625.3% CPU use with 1 MPI tasks x 10 OpenMP threads

MPI task timing breakdown:
Section |  min time  |  avg time  |  max time  |%varavg| %total
---------------------------------------------------------------
Pair    | 268.22     | 268.22     | 268.22     |   0.0 |  2.29
Bond    | 3.5638     | 3.5638     | 3.5638     |   0.0 |  0.03
Kspace  | 5629.9     | 5629.9     | 5629.9     |   0.0 | 48.07
Neigh   | 0.56516    | 0.56516    | 0.56516    |   0.0 |  0.00
Comm    | 117.98     | 117.98     | 117.98     |   0.0 |  1.01
Output  | 1.4679     | 1.4679     | 1.4679     |   0.0 |  0.01
Modify  | 5640.8     | 5640.8     | 5640.8     |   0.0 | 48.16
Other   |            | 50.55      |            |       |  0.43

Nlocal:           5541 ave        5541 max        5541 min
Histogram: 1 0 0 0 0 0 0 0 0 0
Nghost:          35323 ave       35323 max       35323 min
Histogram: 1 0 0 0 0 0 0 0 0 0
Neighs:              0 ave           0 max           0 min
Histogram: 1 0 0 0 0 0 0 0 0 0

Total # of neighbors = 0
Ave neighs/atom = 0
Ave special neighs/atom = 2.4872767
Neighbor list builds = 27880
Dangerous builds = 0

undump npt_traj
undump npt_dcd
unfix mynpt_standard
unfix thermo_avg_npt

write_restart npt_complete.restart
System init for write_restart ...
PPPM initialization ...
  extracting TIP4P info from pair style
  using 12-bit tables for long-range coulomb
  G vector (1/distance) = 0.28821324
  grid = 50 50 50
  stencil order = 5
  estimated absolute RMS force accuracy = 0.00033175367
  estimated relative force accuracy = 9.9906633e-07
  using double precision FFTW3
  3d grid and FFT values/proc = 205379 125000
Generated 0 of 3 mixed pair_coeff terms from geometric mixing rule
write_data npt_complete.data
System init for write_data ...
PPPM initialization ...
  extracting TIP4P info from pair style
  using 12-bit tables for long-range coulomb
  G vector (1/distance) = 0.28821324
  grid = 50 50 50
  stencil order = 5
  estimated absolute RMS force accuracy = 0.00033175367
  estimated relative force accuracy = 9.9906633e-07
  using double precision FFTW3
  3d grid and FFT values/proc = 205379 125000
Generated 0 of 3 mixed pair_coeff terms from geometric mixing rule
WARNING: Not all mixed pair coeffs generated from mixing. Use write_data with 'pair ij' option to store all pair coeffs. (src/write_data.cpp:364)

# CRITICAL: Save NPT checkpoint for production restart capability
write_restart npt_equilibration_complete.restart
System init for write_restart ...
PPPM initialization ...
  extracting TIP4P info from pair style
  using 12-bit tables for long-range coulomb
  G vector (1/distance) = 0.28821324
  grid = 50 50 50
  stencil order = 5
  estimated absolute RMS force accuracy = 0.00033175367
  estimated relative force accuracy = 9.9906633e-07
  using double precision FFTW3
  3d grid and FFT values/proc = 205379 125000
Generated 0 of 3 mixed pair_coeff terms from geometric mixing rule
write_data npt_equilibration_complete.data
System init for write_data ...
PPPM initialization ...
  extracting TIP4P info from pair style
  using 12-bit tables for long-range coulomb
  G vector (1/distance) = 0.28821324
  grid = 50 50 50
  stencil order = 5
  estimated absolute RMS force accuracy = 0.00033175367
  estimated relative force accuracy = 9.9906633e-07
  using double precision FFTW3
  3d grid and FFT values/proc = 205379 125000
Generated 0 of 3 mixed pair_coeff terms from geometric mixing rule
WARNING: Not all mixed pair coeffs generated from mixing. Use write_data with 'pair ij' option to store all pair coeffs. (src/write_data.cpp:364)

variable current_dens equal density
variable current_vol equal vol
variable current_press equal press
variable current_temp equal temp
print ""

print "NPT equilibration complete (1000 ps total):"
NPT equilibration complete (1000 ps total):
print "  Temperature: ${current_temp} K"
  Temperature: 293.768291913073 K
print "  Density:     ${current_dens} g/cmÂ³"
  Density:     1.04449471453255 g/cm³
print "  Pressure:    ${current_press} atm"
  Pressure:    357.915027246643 atm
print "  Volume:      ${current_vol} Ã…Â³"
  Volume:      54617.2774476198 …³
print ""

print "âœ… CHECKPOINT: NPT equilibration complete"
œ… CHECKPOINT: NPT equilibration complete
print "   Files saved:"
   Files saved:
print "     - npt_complete.restart (legacy name)"
     - npt_complete.restart (legacy name)
print "     - npt_equilibration_complete.restart (for production restart)"
     - npt_equilibration_complete.restart (for production restart)
print "     - npt_equilibration_complete.data (structure file)"
     - npt_equilibration_complete.data (structure file)
print "     - npt_equilibration_thermo.dat (thermodynamics)"
     - npt_equilibration_thermo.dat (thermodynamics)
print ""


# Checkpoint: Verify density
if "${current_dens} < 0.85 || ${current_dens} > 1.15" then     "print 'ERROR: Density outside expected range (0.85-1.15 g/cmÂ³)'"     "print 'Current density: ${current_dens} g/cmÂ³'"     "quit 1"

print "âœ“ Density validation PASSED: ${current_dens} g/cmÂ³"
œ“ Density validation PASSED: 1.04449471453255 g/cm³

print ""


# ğŸ”§ CHECKPOINT #4: Final validation before production
variable current_dens equal density
variable current_press equal press
variable current_vol equal vol
variable current_boxsize equal vol^(1.0/3.0)

print ""

print "NPT equilibration complete. FINAL VALIDATION:"
NPT equilibration complete. FINAL VALIDATION:
print "  Density:  ${current_dens} g/cmÂ³"
  Density:  1.04449471453255 g/cm³
print "  Pressure: ${current_press} atm"
  Pressure: 357.915027246643 atm
print "  Volume:   ${current_vol} Ã…Â³"
  Volume:   54617.2774476198 …³
print "  Box size: ${current_boxsize} Ã…"
  Box size: 37.9411085588313 …
print ""

print "âœ… CHECKPOINT: NPT equilibration complete (1000 ps)"
œ… CHECKPOINT: NPT equilibration complete (1000 ps)
print "   Creating restart file: npt_equilibration_complete.restart"
   Creating restart file: npt_equilibration_complete.restart
print "   This checkpoint allows restarting from production stage if needed"
   This checkpoint allows restarting from production stage if needed
print ""


# Save NPT checkpoint for production restart capability
write_restart npt_equilibration_complete.restart
System init for write_restart ...
PPPM initialization ...
  extracting TIP4P info from pair style
  using 12-bit tables for long-range coulomb
  G vector (1/distance) = 0.28821324
  grid = 50 50 50
  stencil order = 5
  estimated absolute RMS force accuracy = 0.00033175367
  estimated relative force accuracy = 9.9906633e-07
  using double precision FFTW3
  3d grid and FFT values/proc = 205379 125000
Generated 0 of 3 mixed pair_coeff terms from geometric mixing rule
write_data npt_equilibration_complete.data
System init for write_data ...
PPPM initialization ...
  extracting TIP4P info from pair style
  using 12-bit tables for long-range coulomb
  G vector (1/distance) = 0.28821324
  grid = 50 50 50
  stencil order = 5
  estimated absolute RMS force accuracy = 0.00033175367
  estimated relative force accuracy = 9.9906633e-07
  using double precision FFTW3
  3d grid and FFT values/proc = 205379 125000
Generated 0 of 3 mixed pair_coeff terms from geometric mixing rule
WARNING: Not all mixed pair coeffs generated from mixing. Use write_data with 'pair ij' option to store all pair coeffs. (src/write_data.cpp:364)

print "âœ… NPT checkpoint saved successfully"
œ… NPT checkpoint saved successfully
print "   Files created:"
   Files created:
print "     - npt_equilibration_complete.restart (for continuation)"
     - npt_equilibration_complete.restart (for continuation)
print "     - npt_equilibration_complete.data (structure file)"
     - npt_equilibration_complete.data (structure file)
print ""


if "${current_dens} < 0.80" then     "print 'ğŸ”´ ERROR: Density ${current_dens} g/cmÂ³ is TOO LOW (gas phase)!'"     "print 'Expected: 0.95-1.05 g/cmÂ³ for liquid water'"     "print ''"     "print 'Possible causes:'"     "print '  1. System escaped to gas phase during equilibration'"     "print '  2. PPPM grid artifacts occurred later in simulation'"     "print '  3. Initial system was not properly solvated'"     "quit 1"

if "${current_dens} > 1.20" then     "print 'ğŸ”´ ERROR: Density ${current_dens} g/cmÂ³ is TOO HIGH (over-compressed)!'"     "print 'Expected: 0.95-1.05 g/cmÂ³ for liquid water'"     "print ''"     "print 'Possible causes:'"     "print '  1. Barostat not converging properly'"     "print '  2. System trapped in metastable compressed state'"     "quit 1"

print "âœ… Density validation PASSED: ${current_dens} g/cmÂ³"
œ… Density validation PASSED: 1.04449471453255 g/cm³
print "Current density: ${current_dens} g/cmÂ³"
Current density: 1.04449471453255 g/cm³

#==============================================================================
# STAGE 4: Production MD (4000 ps = 4 ns)
#==============================================================================
print ""

print "===== STAGE 4: Production MD (4000 ps = 4 ns, GPU) ====="
===== STAGE 4: Production MD (4000 ps = 4 ns, GPU) =====
print "Main data collection phase - RDF, MSD, trajectories"
Main data collection phase - RDF, MSD, trajectories
print ""

print "Pressure control strategy:"
Pressure control strategy:
print "  â€¢ Using MTK barostat for better ensemble accuracy"
  €¢ Using MTK barostat for better ensemble accuracy
print "  â€¢ Tdamp = 100 fs (standard for NosÃ©-Hoover)"
  €¢ Tdamp = 100 fs (standard for Nos©-Hoover)
print "  â€¢ Pdamp = 1000 fs (tighter control for stable production)"
  €¢ Pdamp = 1000 fs (tighter control for stable production)
print ""


# Production NPT with MTK barostat and tighter pressure control
# Using smaller pdamp (1000 fs vs 2000 fs) for more stable pressure
# ğŸ”§ CRITICAL: Using npt/gpu instead of npt for FULL GPU acceleration
fix mynpt all npt/gpu temp 300.0 300.0 100.0 iso 1.0 1.0 1000.0 mtk yes

# Main trajectory dump (every 1 ps for analysis)
# Trajectory output (every 1 ps) - using wrapped coordinates for proper visualization
dump prod_traj all custom 1000 production.lammpstrj id type xu yu zu
dump_modify prod_traj sort id

# DCD dump (every 0.5 ps for smooth visualization)
dump prod_dcd all dcd 500 production.dcd
dump_modify prod_dcd unwrap yes

# Detailed thermodynamics (every 1 ps)
fix thermo_avg all ave/time 100 10 1000 v_epsilon_co v_temp v_press v_pe v_ke v_etotal v_vol v_dens     file production_thermo.dat

# Very detailed thermodynamics (every 0.1 ps for fluctuation analysis)
fix thermo_detailed all ave/time 10 10 100 v_temp v_press v_pe v_ke v_vol v_dens     file production_detailed_thermo.dat

# Compute RDFs on-the-fly (C60-water, C60-C60, water-water)
# Syntax: compute ID group-ID rdf Nbin type1 type2 [cutoff]
# Type 1=C, Type 2=O, Type 3=H
compute rdf_CO all rdf 150 1 2  # C-O pairs (C60-water)
compute rdf_CC all rdf 150 1 1  # C-C pairs (C60-C60)
compute rdf_OO all rdf 150 2 2  # O-O pairs (water-water)

# Average RDFs over production run (every 10 ps)
# FIXED: Explicit column indexing (RDF outputs [1]=r, [2]=g(r), [3]=coordination)
fix rdf_CO_avg all ave/time 1000 10 10000 c_rdf_CO[1] c_rdf_CO[2] c_rdf_CO[3] file rdf_CO.dat mode vector
fix rdf_CC_avg all ave/time 1000 10 10000 c_rdf_CC[1] c_rdf_CC[2] c_rdf_CC[3] file rdf_CC.dat mode vector
fix rdf_OO_avg all ave/time 1000 10 10000 c_rdf_OO[1] c_rdf_OO[2] c_rdf_OO[3] file rdf_OO.dat mode vector

# Compute MSD for water oxygen (diffusion analysis)
# Need to use the oxygen group defined earlier
compute msd_water oxygen msd
# MSD compute outputs: [1]=dxÂ², [2]=dyÂ², [3]=dzÂ², [4]=total rÂ²
fix msd_avg all ave/time 100 10 1000 c_msd_water[1] c_msd_water[2] c_msd_water[3] c_msd_water[4] file msd_water.dat

# Dump images every 20 ps for visualization
dump prod_img all image 10000 production_*.ppm type type     axes yes 0.8 0.02 view 60 30 zoom 1.5     box no 0.01 shiny 0.5
dump_modify prod_img pad 6 backcolor white

run 2000000  # 4000 ps = 4 ns at 2 fs timestep
PPPM initialization ...
  extracting TIP4P info from pair style
  using 12-bit tables for long-range coulomb
  G vector (1/distance) = 0.28821324
  grid = 50 50 50
  stencil order = 5
  estimated absolute RMS force accuracy = 0.00033175367
  estimated relative force accuracy = 9.9906633e-07
  using double precision FFTW3
  3d grid and FFT values/proc = 205379 125000
Generated 0 of 3 mixed pair_coeff terms from geometric mixing rule
Neighbor list info ...
  update: every = 1 steps, delay = 5 steps, check = yes
  max neighbors/atom: 2000, page size: 100000
  master list distance cutoff = 14.3092
  ghost atom cutoff = 18
  binsize = 7.1546, bins = 6 6 6
  3 neighbor lists, perpetual/occasional/extra = 0 3 0
  (1) compute rdf, occasional
      attributes: half, newton off
      pair build: half/bin/newtoff
      stencil: full/bin/3d
      bin: standard
  (2) compute rdf, occasional
      attributes: half, newton off
      pair build: half/bin/newtoff
      stencil: full/bin/3d
      bin: standard
  (3) compute rdf, occasional
      attributes: half, newton off
      pair build: half/bin/newtoff
      stencil: full/bin/3d
      bin: standard
Per MPI rank memory allocation (min/avg/max) = 74.78 | 74.78 | 74.78 Mbytes
   Step          Temp          Press          Volume         PotEng         KinEng         TotEng        Density    
    600010   293.76829      363.34136      54617.277     -21132.066      3286.38       -17845.686      1.0444947    
    601000   302.55817      356.23144      54976.703     -21076.527      3384.7122     -17691.815      1.037666     
    602000   303.89506      331.07139      54294.742     -21084.922      3399.668      -17685.254      1.0506995    
    603000   297.3981       520.09281      54599.633     -21074.198      3326.9866     -17747.212      1.0448323    
    604000   302.28056      60.846473      54368.03      -21085.724      3381.6066     -17704.118      1.0492831    
    605000   299.55381     -486.99932      54556.202     -21006.122      3351.1025     -17655.019      1.045664     
    606000   299.34671     -104.18646      54495.19      -21002.756      3348.7856     -17653.971      1.0468347    
    607000   292.68444      790.47077      54655.783     -20971.761      3274.255      -17697.506      1.0437589    
    608000   299.18067      383.17042      54409.757     -21030.013      3346.9282     -17683.084      1.0484785    
    609000   299.09321     -585.58024      54467.236     -21023.302      3345.9498     -17677.352      1.047372     
    610000   301.00983     -125.95049      53761.908     -21061.161      3367.391      -17693.77       1.061113     
    611000   303.59682      76.206922      54222.989     -21081.276      3396.3316     -17684.944      1.0520899    
    612000   299.84013      727.12427      54473.091     -21012.09       3354.3056     -17657.784      1.0472594    
    613000   297.67839     -5.8845889      54217.539     -21078.804      3330.1223     -17748.682      1.0521956    
    614000   298.11517      94.561306      54416.758     -21131.063      3335.0084     -17796.054      1.0483436    
    615000   302.21024     -966.23273      54584.606     -20951.186      3380.8199     -17570.366      1.0451199    
    616000   306.92064      234.42476      54188.679     -21180.574      3433.5151     -17747.059      1.052756     
    617000   297.31969     -851.74189      54465.118     -21081.827      3326.1095     -17755.718      1.0474127    
    618000   298.65966     -79.991327      54571.797     -21169.68       3341.0996     -17828.581      1.0453652    
    619000   291.93731     -341.52403      54669.285     -21181.863      3265.8968     -17915.966      1.0435011    
    620000   306.43465     -172.13455      54458.917     -21039.628      3428.0784     -17611.55       1.047532     
    621000   299.03692      24.068621      54191.233     -21146.102      3345.3201     -17800.782      1.0527064    
    622000   301.52593     -452.18042      54474.251     -21108.174      3373.1646     -17735.009      1.0472371    
    623000   294.94086      89.504921      54011.673     -21068.778      3299.4976     -17769.28       1.0562061    
    624000   303.23416      103.24447      54084.648     -21078.69       3392.2746     -17686.415      1.054781     
    625000   298.75617     -48.954794      54404.391     -20896.235      3342.1793     -17554.056      1.0485819    
    626000   304.82628     -498.79737      54412.525     -21014.266      3410.0856     -17604.18       1.0484251    
    627000   299.09133      285.14423      53853.07      -21185.679      3345.9288     -17839.751      1.0593167    
    628000   294.26031      1167.3233      54063.262     -21156.02       3291.8842     -17864.136      1.0551982    
    629000   302.38149      413.67999      54323.207     -20965.575      3382.7357     -17582.839      1.0501489    
    630000   298.29124      446.6027       54173.652     -21097.938      3336.9781     -17760.959      1.053048     
    631000   305.36695      176.11981      54467.277     -21154.239      3416.134      -17738.105      1.0473712    
    632000   302.86341      327.73806      53970.784     -21119.729      3388.1269     -17731.602      1.0570063    
    633000   302.17533     -411.98081      54141.063     -21028.186      3380.4294     -17647.756      1.0536819    
    634000   298.26048     -418.26822      54561.44      -21009.867      3336.634      -17673.233      1.0455636    
    635000   298.37114     -287.31104      54378.917     -21055.816      3337.8721     -17717.944      1.0490731    
    636000   302.02219     -563.02983      54635.26      -21054.187      3378.7163     -17675.471      1.0441509    
    637000   305.74609      632.89197      54635.895     -21040.064      3420.3754     -17619.689      1.0441388    
    638000   301.34971      158.51765      54164.502     -20961.168      3371.1932     -17589.975      1.0532259    
    639000   303.01889      802.93607      54182.638     -21155.553      3389.8663     -17765.686      1.0528734    
    640000   301.83133     -19.33493       54647.855     -21082.993      3376.5811     -17706.412      1.0439103    
    641000   302.4686      -29.508735      54885.381     -21093.69       3383.7102     -17709.98       1.0393926    
    642000   295.9769       415.01884      54634.633     -21088.172      3311.0877     -17777.085      1.0441629    
    643000   301.53213      363.56668      54047.504     -21030.657      3373.2339     -17657.423      1.0555059    
    644000   295.74393      187.35858      54221.395     -21021.153      3308.4815     -17712.671      1.0521208    
    645000   294.29388      108.65022      53705.415     -21084.293      3292.2598     -17792.033      1.0622291    
    646000   306.09192      353.68811      53879.77      -21050.533      3424.2443     -17626.288      1.0587918    
    647000   306.03134      248.30387      53891.089     -21087.981      3423.5665     -17664.414      1.0585694    
    648000   298.54663      360.24164      53974.187     -21124.47       3339.8352     -17784.635      1.0569396    
    649000   312.17063      249.9053       54436.711     -20961.855      3492.2466     -17469.608      1.0479593    
    650000   296.94739      162.1271       54852.548     -21149.706      3321.9446     -17827.761      1.0400147    
    651000   299.83174     -89.430717      54813.893     -21015.357      3354.2117     -17661.145      1.0407481    
    652000   295.45174      449.62641      54312.414     -20999.088      3305.2128     -17693.875      1.0503576    
    653000   295.87669      576.10862      54594.25      -21038.303      3309.9666     -17728.337      1.0449353    
    654000   299.50004      31.956464      54536.582     -21046.919      3350.501      -17696.418      1.0460402    
    655000   298.41775      189.35873      54203.074     -21084.411      3338.3934     -17746.018      1.0524764    
    656000   292.5131      -301.01198      54178.574     -21095.864      3272.3383     -17823.526      1.0529524    
    657000   304.09091      612.60561      54250.738     -21111.59       3401.859      -17709.731      1.0515517    
    658000   294.3612       657.46788      54417.811     -20907.938      3293.0129     -17614.925      1.0483233    
    659000   298.98535     -303.20341      54458.537     -21133.337      3344.7431     -17788.594      1.0475393    
    660000   300.41505      1322.8297      54221.647     -21140.114      3360.7371     -17779.377      1.0521159    
    661000   306.35035      86.488048      54442.969     -20961.533      3427.1353     -17534.398      1.0478388    
    662000   306.16032     -83.400072      54517.086     -21109.233      3425.0095     -17684.223      1.0464143    
    663000   300.86196      236.18026      53884.435     -20950.858      3365.7367     -17585.121      1.0587001    
    664000   293.80692      288.75198      54448.195     -20974.046      3286.8122     -17687.234      1.0477383    
    665000   300.01911     -6.8790204      54123.033     -21034.648      3356.3078     -17678.34       1.0540329    
    666000   305.74736     -737.50321      54397.959     -20996.206      3420.3896     -17575.816      1.0487058    
    667000   297.77502      934.73293      54153.189     -21060.462      3331.2033     -17729.259      1.0534459    
    668000   307.67533     -494.41012      54660.749     -20875.965      3441.9578     -17434.007      1.043664     
    669000   302.09225     -711.82228      54751.738     -21049.84       3379.4999     -17670.34       1.0419296    
    670000   305.26943      9.5194173      54423.306     -20950.615      3415.0431     -17535.572      1.0482174    
    671000   299.29116     -321.54333      54638.436     -20875.214      3348.1643     -17527.05       1.0440902    
    672000   302.23361      390.54271      54372.293     -20920.422      3381.0814     -17539.341      1.0492009    
    673000   302.03075     -157.20365      54297.555     -21085.846      3378.812      -17707.034      1.0506451    
    674000   305.52362     -129.56275      54330.38      -21042.239      3417.8867     -17624.352      1.0500103    
    675000   298.15906     -768.18807      53754.471     -20974.315      3335.4995     -17638.815      1.0612598    
    676000   302.01886      416.79839      53978.193     -21020.392      3378.6789     -17641.713      1.0568612    
    677000   305.47488     -130.2809       54357.497     -21124.807      3417.3414     -17707.465      1.0494865    
    678000   305.34622      475.40595      54012.23      -21097.751      3415.9021     -17681.849      1.0561952    
    679000   302.45312     -362.12589      54303.001     -20902.904      3383.537      -17519.367      1.0505397    
    680000   299.63558     -412.4888       55191.036     -21028.086      3352.0172     -17676.069      1.0336363    
    681000   305.86787     -287.0346       54845.954     -20947.395      3421.7378     -17525.657      1.0401398    
    682000   302.71707      587.97013      54336.611     -21055.01       3386.4898     -17668.52       1.0498899    
    683000   299.72635     -462.38818      54053.945     -21073.634      3353.0328     -17720.601      1.0553801    
    684000   299.19341      18.170038      53987.119     -21021.442      3347.0707     -17674.371      1.0566865    
    685000   296.16466     -30.269393      54476.429     -20989.921      3313.1881     -17676.733      1.0471952    
    686000   293.16661      274.05801      54788.021     -21019.692      3279.6491     -17740.042      1.0412396    
    687000   304.54365     -145.20188      54493.511     -21121.266      3406.9238     -17714.342      1.046867     
    688000   297.91089      101.59317      54179.922     -21036.93       3332.7232     -17704.207      1.0529262    
    689000   296.90654      614.23819      54451.931     -21174.852      3321.4875     -17853.365      1.0476664    
    690000   293.10842      714.73116      54192.023     -21036.132      3278.9981     -17757.134      1.052691     
    691000   299.0264       536.00811      54451.132     -21014.02       3345.2023     -17668.818      1.0476818    
    692000   304.25644      143.19551      54159.025     -21055.677      3403.7108     -17651.966      1.0533324    
    693000   300.65205     -163.09992      54253.995     -21167.297      3363.3885     -17803.908      1.0514886    
    694000   301.49061     -565.95887      54548.224     -21052.168      3372.7694     -17679.398      1.045817     
    695000   302.31946      390.74355      54502.919     -21044.288      3382.0418     -17662.246      1.0466863    
    696000   302.68842      265.7818       54289.858     -21005.672      3386.1693     -17619.502      1.050794     
    697000   296.96447      796.59227      53884.471     -20999.356      3322.1357     -17677.22       1.0586994    
    698000   304.86608      310.65855      54102.115     -21044.274      3410.5308     -17633.743      1.0544404    
    699000   300.60768     -327.74283      54551.626     -21110.92       3362.8922     -17748.028      1.0457517    
    700000   291.87182      319.20203      54342.398     -21157.799      3265.1642     -17892.635      1.0497781    
    701000   302.56999     -550.40116      54496.055     -21078.117      3384.8444     -17693.273      1.0468181    
    702000   301.99286      593.02557      54102.511     -21069.656      3378.3882     -17691.268      1.0544327    
    703000   298.32462      494.60638      54352.585     -20984.919      3337.3516     -17647.567      1.0495813    
    704000   310.20399      789.28413      54336.862     -21033.212      3470.2459     -17562.966      1.049885     
    705000   292.52644      317.44011      54514.565     -21082.018      3272.4874     -17809.531      1.0464627    
    706000   300.18471     -165.14436      54566.192     -21171.918      3358.1604     -17813.758      1.0454726    
    707000   301.29631     -410.61124      54606.717     -20944.963      3370.5959     -17574.367      1.0446967    
    708000   295.71423     -163.0359       54557.077     -20973.326      3308.1492     -17665.177      1.0456473    
    709000   296.99798      76.584597      54672.571     -21013.8        3322.5105     -17691.29       1.0434384    
    710000   300.46562      498.88164      54763.938     -21169.579      3361.3029     -17808.276      1.0416975    
    711000   295.87617      186.4306       54832.868     -21048.903      3309.9608     -17738.942      1.040388     
    712000   308.09789      476.93285      54560.844     -21059.701      3446.6849     -17613.016      1.0455751    
    713000   298.63058     -559.83046      54380.201     -21038.54       3340.7743     -17697.765      1.0490483    
    714000   302.69285     -519.04532      54366.312     -20998.779      3386.2189     -17612.56       1.0493163    
    715000   300.21729      494.51729      53996.311     -21181.097      3358.5249     -17822.573      1.0565066    
    716000   299.474       -961.6362       54571.816     -21083.142      3350.2097     -17732.932      1.0453648    
    717000   297.03308     -141.12177      54772.8       -21074.923      3322.9032     -17752.02       1.041529     
    718000   300.1856      -798.23891      54625.59      -21154.823      3358.1703     -17796.653      1.0443358    
    719000   301.65697     -476.66007      54526.885     -21002.344      3374.6305     -17627.714      1.0462262    
    720000   294.43289     -301.08491      54756.468     -20981.54       3293.8149     -17687.726      1.0418396    
    721000   292.02543     -399.4716       54496.472     -20992.753      3266.8827     -17725.87       1.0468101    
    722000   298.38063      545.20748      54327.704     -21028.595      3337.9782     -17690.617      1.050062     
    723000   299.93108     -87.249152      54167.522     -21107.429      3355.323      -17752.106      1.0531672    
    724000   299.31713      1.0841568      54328.76      -21064.96       3348.4548     -17716.505      1.0500416    
    725000   299.79485     -490.04938      55339.324     -20999.257      3353.799      -17645.458      1.0308665    
    726000   296.45238      268.71179      54511.94      -21112.172      3316.4068     -17795.765      1.0465131    
    727000   297.27325     -197.63325      54411.518     -20981.385      3325.5899     -17655.795      1.0484445    
    728000   302.13225      168.48979      54080.323     -21120.987      3379.9475     -17741.039      1.0548653    
    729000   298.57578     -765.0328       54487.525     -21208.569      3340.1613     -17868.408      1.046982     
    730000   305.76173     -20.995495      54977.005     -21172.754      3420.5504     -17752.204      1.0376603    
    731000   301.62142      745.03598      54179.241     -21114.121      3374.2328     -17739.888      1.0529394    
    732000   300.46794     -345.70904      54509.911     -20957.618      3361.3288     -17596.289      1.046552     
    733000   298.49505      736.15552      54463.485     -21108.435      3339.2582     -17769.177      1.0474441    
    734000   301.04337      6.8206693      54432.279     -21080.695      3367.7662     -17712.929      1.0480446    
    735000   300.23887      364.42487      54757.004     -21008.718      3358.7663     -17649.952      1.0418294    
    736000   295.73909      630.62483      54352.544     -21133.559      3308.4273     -17825.132      1.0495821    
    737000   296.53113      151.24592      54204.478     -21006.425      3317.2878     -17689.137      1.0524492    
    738000   296.15625      120.24649      53692.291     -20993.049      3313.0941     -17679.955      1.0624888    
    739000   299.24206      84.659519      54392.99      -21096.271      3347.615      -17748.656      1.0488016    
    740000   303.26535      1043.0686      54330.243     -21143.653      3392.6235     -17751.03       1.0500129    
    741000   303.75886      96.206511      54672.727     -21115.786      3398.1443     -17717.642      1.0434354    
    742000   305.31139     -179.09901      54232.856     -20999.597      3415.5124     -17584.084      1.0518984    
    743000   298.67734      204.5465       54657.578     -21089.384      3341.2974     -17748.086      1.0437246    
    744000   297.52287      101.36582      54663.969     -21043.968      3328.3824     -17715.586      1.0436026    
    745000   298.41166      570.32733      54395.972     -21133.384      3338.3254     -17795.059      1.0487441    
    746000   304.88015     -872.73851      55146.749     -21040.053      3410.6882     -17629.365      1.0344664    
    747000   293.10498      19.311577      54092.803     -21059.772      3278.9596     -17780.812      1.054622     
    748000   294.35814     -233.61154      54033.214     -21064.845      3292.9786     -17771.867      1.055785     
    749000   299.76479      252.40875      54205.335     -21086.649      3353.4628     -17733.186      1.0524325    
    750000   305.95194      65.018881      54727.601     -21093.443      3422.6783     -17670.765      1.0423892    
    751000   303.02592      634.3455       54443.619     -20932.186      3389.9449     -17542.241      1.0478263    
    752000   298.10017     -559.47266      54389.287     -21093.585      3334.8407     -17758.745      1.0488731    
    753000   302.14999     -13.553104      54412.378     -21186.895      3380.146      -17806.749      1.0484279    
    754000   299.39281     -212.16384      54373.34      -21055.757      3349.3014     -17706.456      1.0491807    
    755000   301.45748     -60.671459      54495.093     -21167.272      3372.3988     -17794.873      1.0468366    
    756000   307.27845     -190.79647      54731.544     -21034.557      3437.5179     -17597.039      1.0423141    
    757000   305.14888      1614.7049      54174.131     -21156.149      3413.6945     -17742.454      1.0530387    
    758000   293.0678       537.18088      54591.984     -21172.419      3278.5437     -17893.876      1.0449786    
    759000   295.15204      588.57593      54934.397     -21036.679      3301.86       -17734.819      1.0384652    
    760000   296.72527     -6.8702386      54414.315     -21117.863      3319.4597     -17798.403      1.0483906    
    761000   301.4132      -102.04276      54034.507     -21040.117      3371.9034     -17668.213      1.0557597    
    762000   300.39316      296.85626      54741.082     -21103.696      3360.4924     -17743.203      1.0421325    
    763000   297.11478     -311.34249      54799.56      -21125.659      3323.8171     -17801.842      1.0410204    
    764000   290.86638     -862.97092      54337.565     -21047.294      3253.9164     -17793.377      1.0498714    
    765000   300.598       -789.49628      54335.445     -21054.807      3362.7838     -17692.023      1.0499124    
    766000   295.95904      627.9961       53593.81      -21107.255      3310.8879     -17796.367      1.0644412    
    767000   301.65215      85.71567       54214.978     -21062.346      3374.5766     -17687.769      1.0522453    
    768000   299.51329     -448.04599      54000.062     -21057.349      3350.6493     -17706.7        1.0564332    
    769000   297.45895     -704.3668       54451.885     -21049.543      3327.6673     -17721.876      1.0476673    
    770000   290.26688      293.21032      54333.974     -21100.874      3247.2098     -17853.665      1.0499408    
    771000   300.44148     -97.905342      54339.876     -21072.259      3361.0328     -17711.226      1.0498268    
    772000   296.94878      18.107773      54601.156     -21062.566      3321.96       -17740.606      1.0448031    
    773000   303.08956      601.9047       53923.046     -21027.095      3390.6569     -17636.438      1.0579421    
    774000   304.90871     -98.468177      54694.673     -21049.768      3411.0077     -17638.76       1.0430167    
    775000   299.05624     -703.23318      54506.635     -21130.621      3345.5362     -17785.085      1.0466149    
    776000   294.21014      202.21367      54567.379     -20988.892      3291.323      -17697.569      1.0454498    
    777000   297.17683     -476.58232      53940.075     -21123.364      3324.5113     -17798.852      1.0576081    
    778000   309.72691     -351.25773      54957.113     -21135.496      3464.9087     -17670.588      1.0380359    
    779000   300.42858      288.39713      54054.563     -21085.089      3360.8885     -17724.201      1.055368     
    780000   302.49779      653.24441      54304.486     -21036.972      3384.0368     -17652.935      1.050511     
    781000   294.08302     -411.01649      54912.378     -20957.32       3289.901      -17667.419      1.0388816    
    782000   305.23251      257.40527      54784.229     -20890.307      3414.63       -17475.677      1.0413117    
    783000   297.04247      359.37334      54745.868     -20971.411      3323.0082     -17648.403      1.0420413    
    784000   307.89862      379.2325       54431.62      -21078.114      3444.4557     -17633.658      1.0480573    
    785000   295.23137     -348.19386      54105.103     -21097.174      3302.7475     -17794.426      1.0543822    
    786000   300.24705     -373.94329      54456.056     -20951.141      3358.8577     -17592.283      1.047587     
    787000   299.48429      400.08733      54581.991     -21046.634      3350.3248     -17696.31       1.04517      
    788000   300.74286     -202.7562       54586.722     -21087.7        3364.4043     -17723.296      1.0450794    
    789000   295.34646      135.0711       54735.704     -20992.431      3304.035      -17688.396      1.0422348    
    790000   305.18567     -425.55945      54447.79      -21011.326      3414.1061     -17597.22       1.0477461    
    791000   302.75005     -115.93828      55142.114     -21004.307      3386.8588     -17617.448      1.0345533    
    792000   302.86821     -815.40636      55313.482     -21070.08       3388.1806     -17681.899      1.0313482    
    793000   302.20653      428.51094      54043.58      -21098.784      3380.7784     -17718.006      1.0555825    
    794000   298.39817     -10.39575       54336.961     -21104.362      3338.1744     -17766.188      1.0498831    
    795000   302.3134      -301.36728      54355.693     -21110.741      3381.974      -17728.767      1.0495213    
    796000   299.431        442.46223      54173.199     -20965.966      3349.7287     -17616.238      1.0530568    
    797000   300.16778     -446.2376       54450.253     -21086.336      3357.971      -17728.365      1.0476987    
    798000   293.32034     -302.53216      54451.588     -21073.307      3281.3688     -17791.938      1.047673     
    799000   298.95273      58.839931      54559.009     -21029.17       3344.3782     -17684.792      1.0456102    
    800000   293.72036      23.916496      54336.914     -21096.225      3285.8439     -17810.381      1.049884     
    801000   301.99885     -1042.499       54230.154     -21083.37       3378.4552     -17704.914      1.0519509    
    802000   294.85853     -418.75362      54462.213     -21049.411      3298.5765     -17750.834      1.0474686    
    803000   304.22467     -40.144708      53976.163     -21060.504      3403.3554     -17657.148      1.056901     
    804000   295.50195     -645.86272      54309.801     -20993.712      3305.7745     -17687.938      1.0504082    
    805000   304.4223       775.72606      54211.136     -21049.143      3405.5662     -17643.577      1.0523199    
    806000   305.42685     -46.936019      54986.184     -21034.67       3416.8041     -17617.866      1.0374871    
    807000   301.36531      264.84286      54729.597     -21115.997      3371.3677     -17744.629      1.0423511    
    808000   296.14949     -266.18962      54721.7       -21065.549      3313.0185     -17752.531      1.0425016    
    809000   299.301        461.86876      54519.267     -21130.181      3348.2744     -17781.906      1.0463724    
    810000   306.27466     -75.357607      54703.467     -21100.449      3426.2886     -17674.161      1.042849     
    811000   301.92055      130.36132      54646.921     -20945.427      3377.5792     -17567.848      1.0439281    
    812000   297.89647     -232.03787      54434.175     -21097.513      3332.5619     -17764.951      1.0480081    
    813000   297.4699      -320.68852      54213.152     -21023.56       3327.7898     -17695.77       1.0522808    
    814000   296.39589      90.569847      54032.753     -21044.834      3315.7749     -17729.059      1.055794     
    815000   295.55587      424.26653      54450.491     -21071.552      3306.3776     -17765.174      1.0476941    
    816000   299.13852     -118.87221      54599.512     -20952.617      3346.4567     -17606.16       1.0448346    
    817000   305.73799     -248.9332       54155.041     -21067.584      3420.2848     -17647.299      1.0534099    
    818000   304.11265      440.64577      54105.524     -21002.861      3402.1022     -17600.759      1.054374     
    819000   302.40546     -334.45009      54209.452     -20923.406      3383.0039     -17540.403      1.0523526    
    820000   304.30039      715.1656       54147.339     -21119.049      3404.2024     -17714.847      1.0535598    
    821000   298.32719      532.69641      54650.079     -20993.197      3337.3804     -17655.817      1.0438678    
    822000   298.32391      20.508798      54830.48      -20989.836      3337.3436     -17652.493      1.0404333    
    823000   302.66669      336.88846      54532.887     -21038.028      3385.9262     -17652.102      1.0461111    
    824000   300.97755      85.602764      54619.823     -20964.116      3367.0299     -17597.086      1.044446     
    825000   300.54692      729.11476      54460.096     -21041.081      3362.2125     -17678.869      1.0475093    
    826000   297.87217     -26.350725      54912.918     -21044.972      3332.29       -17712.682      1.0388714    
    827000   300.89         873.32052      54120.437     -21000.878      3366.0504     -17634.828      1.0540835    
    828000   301.76346      439.61954      54246.703     -20972.084      3375.8218     -17596.262      1.0516299    
    829000   289.8886      -208.99425      54346.711     -21039.229      3242.9781     -17796.251      1.0496947    
    830000   298.86988      97.520133      54271         -21136.053      3343.4514     -17792.602      1.0511591    
    831000   298.37901      569.60274      53951.736     -21033.774      3337.9601     -17695.814      1.0573795    
    832000   303.80025     -429.41094      54535.261     -20964.085      3398.6073     -17565.478      1.0460656    
    833000   304.37586      818.47081      54503.373     -21060.248      3405.0467     -17655.201      1.0466776    
    834000   310.91289      553.26097      54134.582     -20984.692      3478.1763     -17506.516      1.053808     
    835000   301.4622       396.85929      53982.511     -21073.66       3372.4516     -17701.208      1.0567767    
    836000   300.21497      459.64178      54214.594     -21160.662      3358.4989     -17802.163      1.0522528    
    837000   294.29184      1371.1425      54603.725     -21138.642      3292.2369     -17846.405      1.044754     
    838000   296.02943     -209.90719      54130.285     -21175.531      3311.6753     -17863.856      1.0538917    
    839000   297.78753      298.19063      54017.383     -21027.328      3331.3432     -17695.985      1.0560944    
    840000   289.32306      274.16059      54175.767     -20992.875      3236.6513     -17756.223      1.0530069    
    841000   298.30915     -762.93786      54289.47      -21132.022      3337.1786     -17794.843      1.0508015    
    842000   295.60637      597.58365      53952.775     -21154.943      3306.9425     -17848          1.0573591    
    843000   303.7946      -593.16503      54757.48      -21066.314      3398.5441     -17667.77       1.0418204    
    844000   296.775       -680.31126      54550.391     -21030.529      3320.0161     -17710.513      1.0457754    
    845000   298.64268      27.742442      54614.703     -21084.609      3340.9097     -17743.7        1.0445439    
    846000   296.30935     -53.064996      54504.21      -21074.645      3314.8068     -17759.838      1.0466615    
    847000   307.31691      671.5386       54743.892     -20995.709      3437.9481     -17557.761      1.0420789    
    848000   304.75943     -400.46927      54658.697     -21004.143      3409.3376     -17594.806      1.0437032    
    849000   306.58868      51.039814      54585.301     -21103.28       3429.8015     -17673.478      1.0451066    
    850000   300.83432     -14.67683       54487.302     -21016.221      3365.4276     -17650.793      1.0469863    
    851000   295.92595      112.85045      53895.486     -21036.575      3310.5177     -17726.057      1.058483     
    852000   294.44227      81.295184      54242.101     -21031.75       3293.9198     -17737.83       1.0517192    
    853000   296.18336      791.95669      53954.934     -21058.257      3313.3973     -17744.86       1.0573168    
    854000   297.77215     -165.71951      54257.586     -20931.812      3331.1711     -17600.641      1.051419     
    855000   295.71627     -890.87909      54144.614     -21007.706      3308.172      -17699.534      1.0536128    
    856000   304.67417     -119.22145      54788.095     -21064.467      3408.3839     -17656.083      1.0412382    
    857000   304.2075       697.58538      55026.354     -20925.148      3403.1633     -17521.984      1.0367297    
    858000   294.64334     -3.4162672      54975.037     -21118.538      3296.1691     -17822.369      1.0376975    
    859000   295.14236      652.51857      54448.025     -21054.062      3301.7517     -17752.31       1.0477415    
    860000   301.89344     -250.10272      54391.135     -21001.737      3377.276      -17624.461      1.0488374    
    861000   293.81793      180.69711      54780.671     -21041.139      3286.9353     -17754.204      1.0413793    
    862000   302.64206     -76.593757      54907.09      -21063.753      3385.6507     -17678.103      1.0389816    
    863000   301.43673     -220.58271      54570.54      -21119.704      3372.1667     -17747.538      1.0453893    
    864000   304.05889     -243.2168       55112.753     -21010.328      3401.5007     -17608.827      1.0351045    
    865000   308.30969     -659.81201      54634.739     -21089.514      3449.0544     -17640.459      1.0441609    
    866000   302.37131     -514.303        54550.375     -21068.639      3382.6218     -17686.018      1.0457757    
    867000   297.87555      435.85776      54307.475     -21034.606      3332.3278     -17702.278      1.0504531    
    868000   295.93258      338.4494       54481.532     -21093.338      3310.5919     -17782.746      1.0470972    
    869000   295.41341     -27.633543      54300.73      -21131.868      3304.784      -17827.084      1.0505836    
    870000   304.19448      26.722653      54460.481     -20903.672      3403.0176     -17500.654      1.0475019    
    871000   294.57978     -554.51011      54314.171     -20931.236      3295.4581     -17635.778      1.0503236    
    872000   291.38572      1064.7166      53807.596     -21047.805      3259.7262     -17788.079      1.060212     
    873000   296.28393      431.71632      54196.393     -21116.655      3314.5224     -17802.133      1.0526062    
    874000   299.81232     -676.39805      54944.778     -21093.466      3353.9945     -17739.472      1.038269     
    875000   301.00257     -319.97569      54711.782     -21174.454      3367.3098     -17807.144      1.0426905    
    876000   299.30372     -14.288547      54357.167     -21156.32       3348.3048     -17808.015      1.0494928    
    877000   295.02204      65.218934      54452.48      -21122.941      3300.4057     -17822.535      1.0476558    
    878000   303.44037      330.32512      54178.68      -20975.154      3394.5814     -17580.573      1.0529503    
    879000   296.63453     -273.36185      54339.744     -20987.415      3318.4446     -17668.97       1.0498293    
    880000   303.01126     -297.93261      54101.233     -21059.436      3389.7809     -17669.655      1.0544576    
    881000   298.48136      575.81858      54239.506     -21071.657      3339.1051     -17732.552      1.0517695    
    882000   295.69679      83.148833      54770.047     -21006.557      3307.9541     -17698.603      1.0415813    
    883000   296.41847      72.243939      54176.089     -21121.935      3316.0276     -17805.908      1.0530007    
    884000   302.53685     -533.82055      54681.999     -21030.044      3384.4738     -17645.57       1.0432585    
    885000   294.73169      194.60014      54490.808     -21069.809      3297.1576     -17772.651      1.0469189    
    886000   299.11528      53.570236      54215.163     -21111.969      3346.1966     -17765.773      1.0522417    
    887000   304.16857      962.84039      54255.285     -21062.179      3402.7278     -17659.451      1.0514636    
    888000   300.433       -329.53451      54191.512     -21055.705      3360.938      -17694.766      1.052701     
    889000   302.95369      676.53811      54295.141     -21072.337      3389.1369     -17683.2        1.0506918    
    890000   295.56563     -362.3081       54410.047     -21051.093      3306.4868     -17744.606      1.0484729    
    891000   299.67619     -51.65438       54584.997     -21096.309      3352.4716     -17743.838      1.0451124    
    892000   297.77629     -129.57952      54244.263     -21044.067      3331.2175     -17712.85       1.0516773    
    893000   293.93259     -410.1227       54904.069     -20994.876      3288.218      -17706.658      1.0390388    
    894000   295.21023     -528.22391      54886.413     -20967.347      3302.511      -17664.836      1.039373     
    895000   304.96491     -565.48716      55017.598     -20985.859      3411.6364     -17574.223      1.0368947    
    896000   296.75888     -646.54446      54694.033     -21121.834      3319.8356     -17801.998      1.0430289    
    897000   297.72951     -207.0764       54645.939     -20895.17       3330.6941     -17564.476      1.0439469    
    898000   294.60408      728.15746      54156.624     -20975.506      3295.73       -17679.776      1.0533791    
    899000   306.60166      228.4059       54333.07      -21066.466      3429.9467     -17636.519      1.0499583    
    900000   298.0545       959.70473      54851.614     -21061.805      3334.3298     -17727.475      1.0400324    
    901000   301.26729     -431.19723      54308.925     -21046.656      3370.2712     -17676.385      1.0504251    
    902000   295.5743      -572.39249      54568.826     -20934.355      3306.5838     -17627.771      1.0454221    
    903000   299.24162     -349.30163      54225.944     -21063.636      3347.61       -17716.026      1.0520325    
    904000   302.57279      30.079953      54531.604     -20998.934      3384.8758     -17614.058      1.0461357    
    905000   291.31501     -161.29966      54761.081     -21169.692      3258.9352     -17910.757      1.0417519    
    906000   298.64292      134.87061      54829.397     -21115.788      3340.9124     -17774.876      1.0404539    
    907000   301.00495     -297.5869       54191.528     -21138.536      3367.3364     -17771.2        1.0527007    
    908000   303.79795      351.35043      53977.414     -21022.089      3398.5816     -17623.507      1.0568765    
    909000   300.94419     -207.89507      54335.651     -21076.673      3366.6566     -17710.017      1.0499084    
    910000   304.0285      -737.14052      54719.611     -21025.141      3401.1607     -17623.98       1.0425414    
    911000   299.41592     -445.45566      54904.751     -21082.205      3349.56       -17732.645      1.0390259    
    912000   301.15692     -633.98303      54629.525     -21101.616      3369.0364     -17732.579      1.0442605    
    913000   296.37218      68.265997      53938.693     -21120.754      3315.5097     -17805.245      1.0576351    
    914000   297.86826     -143.30446      54390.25      -20969.744      3332.2463     -17637.497      1.0488545    
    915000   299.60187      704.0105       54593.39      -21078.539      3351.6402     -17726.899      1.0449517    
    916000   299.27298     -481.84694      54614.046     -21059.211      3347.9609     -17711.25       1.0445565    
    917000   302.63977     -384.42945      55203.824     -20937.031      3385.6251     -17551.406      1.0333968    
    918000   300.34389     -138.82302      54475.463     -21147.818      3359.9411     -17787.877      1.0472138    
    919000   299.75261     -420.64046      54155.01      -21085.905      3353.3265     -17732.579      1.0534105    
    920000   296.18714     -211.78959      54271.628     -21085.882      3313.4396     -17772.442      1.051147     
    921000   295.99271      899.12851      54015.104     -21107.682      3311.2646     -17796.417      1.056139     
    922000   302.89592      358.1599       54340.255     -21053.003      3388.4907     -17664.512      1.0498195    
    923000   301.60137     -347.25299      54293.784     -21126.098      3374.0085     -17752.09       1.050718     
    924000   298.90216      908.88626      54527.523     -21010.576      3343.8126     -17666.763      1.046214     
    925000   304.34821      666.04461      53767.622     -21179.067      3404.7374     -17774.33       1.0610002    
    926000   297.66127     -28.364683      54306.09      -21108.005      3329.9308     -17778.075      1.0504799    
    927000   297.98441      1207.7147      53870.16      -21027.024      3333.5457     -17693.478      1.0589807    
    928000   303.95985      103.62927      54300.899     -21129.193      3400.3928     -17728.8        1.0505804    
    929000   300.58908      24.292698      54490.977     -21077.89       3362.684      -17715.206      1.0469157    
    930000   295.86677      101.36167      54354.075     -20947.28       3309.8557     -17637.424      1.0495525    
    931000   300.76697      55.402799      54153.356     -20998.785      3364.6742     -17634.111      1.0534427    
    932000   298.51486      163.52478      53828.415     -21014.383      3339.4798     -17674.903      1.0598019    
    933000   297.83424     -264.55878      54537.59      -21044.296      3331.8657     -17712.43       1.0460209    
    934000   306.5635       165.30201      54204.225     -20977.533      3429.5197     -17548.013      1.0524541    
    935000   300.84618      356.03466      54344.545     -21002.584      3365.5602     -17637.024      1.0497366    
    936000   299.45147     -229.96653      54778.437     -20987.91       3349.9576     -17637.952      1.0414218    
    937000   306.45798      429.09995      54329.255     -20933.204      3428.3393     -17504.864      1.050032     
    938000   296.89075      763.54024      53961.285     -21160.93       3321.311      -17839.619      1.0571924    
    939000   294.76656      259.95698      54817.87      -21140.858      3297.5477     -17843.31       1.0406726    
    940000   304.29225     -66.701925      54384.673     -21147.999      3404.1114     -17743.887      1.048962     
    941000   288.44043     -469.94818      54278.449     -20994.458      3226.7773     -17767.681      1.0510149    
    942000   301.82488      474.07504      54703.226     -21055.787      3376.5089     -17679.278      1.0428536    
    943000   297.37046      367.2891       54764.4       -21083.982      3326.6774     -17757.304      1.0416887    
    944000   299.3373       686.2039       54326.31      -21043.397      3348.6804     -17694.716      1.0500889    
    945000   299.96365      292.40476      54859.814     -21018.748      3355.6874     -17663.06       1.039877     
    946000   294.5552      -153.90063      54976.359     -21037.413      3295.1832     -17742.229      1.0376725    
    947000   301.28012     -603.81404      55456.395     -20963.364      3370.4148     -17592.949      1.0286903    
    948000   288.3709      -243.21386      54352.858     -21030.828      3225.9995     -17804.829      1.049576     
    949000   295.45404      514.79958      54169.104     -21085.749      3305.2385     -17780.51       1.0531364    
    950000   301.82093     -456.19088      54477.066     -21222.852      3376.4647     -17846.387      1.047183     
    951000   305.65004     -538.70272      54419.498     -21035.158      3419.3009     -17615.857      1.0482908    
    952000   297.76866      277.80603      54408.682     -21105.105      3331.132      -17773.973      1.0484992    
    953000   293.86619      28.059226      54468.397     -21084.532      3287.4752     -17797.057      1.0473497    
    954000   296.14269     -358.07294      54174.864     -21135.068      3312.9424     -17822.125      1.0530245    
    955000   304.07975     -110.46922      54564.317     -21191.295      3401.7342     -17789.56       1.0455085    
    956000   304.69094     -548.93771      54166.261     -21114.258      3408.5715     -17705.686      1.0531917    
    957000   294.36716     -666.08852      54615.785     -21066.823      3293.0796     -17773.743      1.0445233    
    958000   299.59083     -434.16751      54551.837     -21098.721      3351.5167     -17747.204      1.0457477    
    959000   302.67015      721.23396      54284.98      -21091.832      3385.965      -17705.867      1.0508884    
    960000   299.03628      227.09505      54533.817     -21248.329      3345.313      -17903.016      1.0460932    
    961000   308.30609     -48.758055      54470.042     -21101.382      3449.014      -17652.368      1.047318     
    962000   301.8667       240.78545      54003.534     -21244.7        3376.9768     -17867.724      1.0563653    
    963000   297.77513     -941.83898      54675.284     -21126.906      3331.2045     -17795.701      1.0433866    
    964000   305.29862     -17.365302      54778.074     -20996.321      3415.3696     -17580.951      1.0414287    
    965000   297.9553       391.14875      54185.632     -21191.099      3333.22       -17857.879      1.0528152    
    966000   297.54234     -168.68964      54397.847     -20891.024      3328.6002     -17562.424      1.048708     
    967000   288.28067      673.15404      53870.944     -21000.602      3224.9901     -17775.612      1.0589653    
    968000   305.3187      -377.54785      54235.143     -21138.853      3415.5943     -17723.259      1.0518541    
    969000   303.25187     -446.47162      54293.768     -21051.025      3392.4726     -17658.553      1.0507183    
    970000   302.59529      147.53892      54382.296     -21040.436      3385.1275     -17655.308      1.0490079    
    971000   302.679       -90.899555      54258.513     -21050.072      3386.064      -17664.008      1.051401     
    972000   300.61727     -355.53361      54324.355     -21031.576      3362.9994     -17668.577      1.0501267    
    973000   304.16171     -108.56964      54278.079     -21030.178      3402.651      -17627.527      1.051022     
    974000   298.31282     -391.1805       54096.029     -20934.733      3337.2196     -17597.514      1.0545591    
    975000   299.08413     -296.62757      54178.653     -21038.81       3345.8482     -17692.962      1.0529508    
    976000   303.17428      647.90521      53691.48      -21087.856      3391.6046     -17696.251      1.0625048    
    977000   304.04114      85.126444      54143.123     -20917.676      3401.3021     -17516.374      1.0536418    
    978000   301.68722      197.17368      54040.669     -21101.781      3374.9689     -17726.812      1.0556394    
    979000   298.02808     -151.89522      54544.125     -21082.184      3334.0342     -17748.15       1.0458955    
    980000   309.09867     -1022.7881      54374.312     -21176.634      3457.8806     -17718.754      1.0491619    
    981000   296.83111     -239.32338      54419.721     -21025.518      3320.6437     -17704.874      1.0482865    
    982000   297.20718      203.78554      54953.556     -21025.43       3324.8508     -17700.58       1.0381031    
    983000   297.89907     -85.960528      54720.181     -21025.856      3332.5909     -17693.265      1.0425305    
    984000   304.88597     -26.22796       54448.279     -21038.115      3410.7533     -17627.362      1.0477367    
    985000   302.79032      95.28004       54627.434     -21041.341      3387.3093     -17654.031      1.0443005    
    986000   298.91428      297.85797      54483.175     -21061.607      3343.9481     -17717.658      1.0470656    
    987000   301.18771      96.409899      54490.02      -21023.726      3369.3809     -17654.345      1.0469341    
    988000   302.45998     -657.92825      54470.139     -20980.086      3383.6137     -17596.472      1.0473162    
    989000   298.75013     -576.44085      54862.417     -21057.567      3342.1118     -17715.455      1.0398276    
    990000   307.30045      157.45813      54500.172     -21021.564      3437.764      -17583.8        1.046739     
    991000   307.24713      221.69839      54202.652     -20985.421      3437.1675     -17548.254      1.0524846    
    992000   303.93118      97.797226      54177.039     -21013.785      3400.0721     -17613.713      1.0529822    
    993000   295.48622     -85.633905      54629.343     -21030.389      3305.5985     -17724.791      1.044264     
    994000   296.79831     -370.88368      54259.546     -21009.778      3320.2768     -17689.502      1.051381     
    995000   298.32821     -158.14722      54562.74      -20994.979      3337.3918     -17657.587      1.0455387    
    996000   310.85979     -1122.7852      54669.621     -20964.028      3477.5823     -17486.446      1.0434947    
    997000   299.97291      861.54223      54178.26      -21087.134      3355.791      -17731.343      1.0529585    
    998000   303.85069      239.9051       54176.741     -20987.946      3399.1716     -17588.775      1.052988     
    999000   302.39443      181.0193       54433.208     -21058.392      3382.8804     -17675.511      1.0480267    
   1000000   299.14413     -535.34076      54489.188     -21074.7        3346.5194     -17728.181      1.04695      
   1001000   303.0426       183.47067      54337.007     -21105.043      3390.1316     -17714.912      1.0498822    
   1002000   296.0861      -211.96542      53954.473     -21097.104      3312.3094     -17784.795      1.0573258    
   1003000   295.72468      165.96811      54550.1       -21089.975      3308.2661     -17781.709      1.045781     
   1004000   293.86833      607.23518      54257.225     -21066.904      3287.4992     -17779.405      1.051426     
   1005000   307.4511       646.1682       54637.889     -21156.244      3439.4493     -17716.794      1.0441007    
   1006000   305.66356      508.91275      54481.986     -21094.141      3419.4522     -17674.689      1.0470884    
   1007000   300.3981      -44.971771      54936.518     -20940.076      3360.5476     -17579.528      1.0384251    
   1008000   298.28078      217.78407      54665.913     -21107.216      3336.8612     -17770.355      1.0435654    
   1009000   305.08666     -37.200732      54133.443     -21010.989      3412.9984     -17597.991      1.0538302    
   1010000   303.75052     -292.83302      54614.639     -21008.506      3398.0511     -17610.455      1.0445452    
   1011000   293.44179     -673.02295      54614.889     -21118.216      3282.7274     -17835.488      1.0445404    
   1012000   302.3306       317.49346      54300.785     -21098.496      3382.1664     -17716.33       1.0505825    
   1013000   296.802        232.74145      54984.322     -21044.917      3320.318      -17724.599      1.0375223    
   1014000   299.00392     -558.19566      54693.238     -21005.759      3344.9509     -17660.808      1.0430441    
   1015000   290.24935     -560.85286      54361.163     -20996.949      3247.0137     -17749.935      1.0494157    
   1016000   301.11614     -471.61141      54427.808     -21100.407      3368.5803     -17731.826      1.0481307    
   1017000   292.76792     -52.85116       54682.436     -21062.899      3275.1888     -17787.71       1.0432501    
   1018000   303.22948      10.80675       54112.74      -20986.508      3392.2222     -17594.286      1.0542334    
   1019000   301.20865     -10.497726      54634.254     -20971.019      3369.6151     -17601.404      1.0441702    
   1020000   296.91053      184.90339      54482.329     -21062.021      3321.5322     -17740.489      1.0470818    
   1021000   297.39914      647.52459      54271.388     -20942.935      3326.9982     -17615.937      1.0511516    
   1022000   295.69791      148.20083      54524.338     -21068.726      3307.9666     -17760.759      1.0462751    
   1023000   292.42972     -114.07473      54982.613     -21071.589      3271.4055     -17800.183      1.0375545    
   1024000   293.64103      767.26041      53914.866     -20987.704      3284.9563     -17702.748      1.0581025    
   1025000   298.62415      63.857277      54406.137     -21082.501      3340.7024     -17741.799      1.0485482    
   1026000   301.29615     -743.6813       54809.64      -21093.056      3370.594      -17722.462      1.0408289    
   1027000   310.02947     -521.8022       54538.255     -21097.103      3468.2935     -17628.81       1.0460081    
   1028000   300.73853     -152.79242      53884.651     -21123.219      3364.3559     -17758.864      1.0586959    
   1029000   299.69429     -560.72211      54830.504     -20965.648      3352.6741     -17612.974      1.0404329    
   1030000   301.45861     -937.62234      55103.757     -21110.533      3372.4115     -17738.122      1.0352735    
   1031000   298.28416      476.97474      53717.585     -21094.718      3336.899      -17757.819      1.0619885    
   1032000   305.57361      102.54859      54316.005     -20934.445      3418.4459     -17515.999      1.0502882    
   1033000   302.41437      450.84372      54467.065     -21084.758      3383.1035     -17701.654      1.0473753    
   1034000   299.27655     -392.45059      54170.204     -21162.064      3348.0008     -17814.064      1.0531151    
   1035000   298.97605     -503.57897      54478.726     -20852.99       3344.6391     -17508.351      1.0471511    
   1036000   296.50276     -278.42188      54251.975     -20950.64       3316.9705     -17633.669      1.0515278    
   1037000   300.95349     -814.60249      54776.081     -21018.619      3366.7607     -17651.859      1.0414666    
   1038000   296.60885      169.43151      53973.861     -20975.664      3318.1573     -17657.507      1.056946     
   1039000   303.30345      795.12232      54393.66      -21037.63       3393.0497     -17644.58       1.0487887    
   1040000   297.80545     -1113.3124      54321.532     -21082.548      3331.5436     -17751.004      1.0501813    
   1041000   303.67103     -477.71131      55010.724     -21016.344      3397.1617     -17619.183      1.0370243    
   1042000   303.42907     -448.14368      54804.392     -21071.032      3394.455      -17676.577      1.0409286    
   1043000   296.84531      291.95968      54603.055     -20999.137      3320.8025     -17678.334      1.0447668    
   1044000   304.81726      663.86203      54165.915     -20991.951      3409.9846     -17581.966      1.0531984    
   1045000   297.47217      192.71602      54368.956     -21049.073      3327.8152     -17721.257      1.0492653    
   1046000   305.12655     -411.16203      54598.888     -20982.516      3413.4447     -17569.071      1.0448465    
   1047000   292.81819      688.0597       53991.413     -21141.562      3275.7513     -17865.81       1.0566024    
   1048000   305.07769      328.53591      54544.516     -20969.99       3412.898      -17557.092      1.0458881    
   1049000   297.60478     -297.06422      54897.062     -20979.506      3329.2988     -17650.207      1.0391714    
   1050000   299.74041     -320.48235      54296.512     -21039.205      3353.19       -17686.015      1.0506652    
   1051000   301.99259     -351.51411      54944.402     -21043.407      3378.3851     -17665.022      1.0382761    
   1052000   302.04233      22.687019      54512.228     -21000.738      3378.9415     -17621.796      1.0465075    
   1053000   300.39169     -165.39086      53902.35      -21070.082      3360.4758     -17709.607      1.0583482    
   1054000   297.53768      635.27204      54081.065     -21056.084      3328.5481     -17727.536      1.0548508    
   1055000   300.41503      394.57513      53910.407     -21070.656      3360.737      -17709.919      1.0581901    
   1056000   303.75032      264.4349       54189.76      -21072.012      3398.0488     -17673.963      1.052735     
   1057000   304.53843     -493.36213      54607.451     -21098.105      3406.8653     -17691.24       1.0446827    
   1058000   310.16264     -406.58351      54597.669     -21088.544      3469.7833     -17618.761      1.0448698    
   1059000   297.06595      1020.279       54002.541     -21023.463      3323.2709     -17700.192      1.0563847    
   1060000   300.06872      108.09548      54448.305     -20968.999      3356.8628     -17612.136      1.0477362    
   1061000   307.16763      297.3506       54560.087     -21067.612      3436.2781     -17631.334      1.0455896    
   1062000   307.2529      -271.26111      54540.385     -21065.134      3437.232      -17627.902      1.0459673    
   1063000   296.40442     -34.769869      54245.267     -21115.545      3315.8704     -17799.675      1.0516578    
   1064000   297.42595      111.32633      54307.772     -20996.972      3327.2982     -17669.674      1.0504474    
   1065000   297.66944     -295.405        54788.563     -21104.424      3330.0221     -17774.402      1.0412293    
   1066000   310.45157     -170.25111      55203.638     -21094.263      3473.0156     -17621.248      1.0334003    
   1067000   298.9682      -452.48669      54861.943     -21024.122      3344.5514     -17679.57       1.0398366    
   1068000   298.64574      124.96561      54610.085     -20989.087      3340.9439     -17648.143      1.0446323    
   1069000   293.64709     -857.67202      54724.083     -21058.144      3285.0241     -17773.12       1.0424562    
   1070000   291.80093     -104.38503      54959.675     -20959.899      3264.3712     -17695.527      1.0379875    
   1071000   300.18245     -232.94267      54158.728     -21083.538      3358.135      -17725.403      1.0533382    
   1072000   299.48461      587.77598      54430.06      -20991.051      3350.3284     -17640.722      1.0480874    
   1073000   305.72987      290.9419       54669.849     -21107.176      3420.194      -17686.983      1.0434903    
   1074000   296.92161     -530.22402      54871.945     -21093.837      3321.6562     -17772.18       1.0396471    
   1075000   300.31792     -588.66059      54145.101     -21091.555      3359.6506     -17731.904      1.0536033    
   1076000   302.80155      410.99445      53971.522     -21110.303      3387.435      -17722.868      1.0569918    
   1077000   290.20919     -219.74375      54221.911     -21119.082      3246.5644     -17872.518      1.0521108    
   1078000   298.55653     -257.32294      54264.004     -21026.247      3339.946      -17686.301      1.0512947    
   1079000   305.17248      1065.5569      54373.305     -21002.657      3413.9585     -17588.699      1.0491814    
   1080000   296.80595      319.50056      54187.151     -21017.869      3320.3623     -17697.507      1.0527857    
   1081000   297.61024     -308.88041      54742.365     -21091.878      3329.3598     -17762.518      1.042108     
   1082000   299.5192       482.48236      54278.405     -20995.823      3350.7153     -17645.108      1.0510157    
   1083000   301.43183     -52.782508      54023.962     -20988.713      3372.1119     -17616.601      1.0559658    
   1084000   298.54391      352.75797      54091.835     -21038.021      3339.8047     -17698.217      1.0546408    
   1085000   303.3695      -115.31008      54239.362     -20994.532      3393.7885     -17600.744      1.0517723    
   1086000   302.23246      205.26597      53782.074     -21012.29       3381.0685     -17631.222      1.0607151    
   1087000   296.8582      -233.90491      54535.407     -21012.755      3320.9468     -17691.808      1.0460627    
   1088000   299.39452      982.44159      54249.241     -21070.998      3349.3205     -17721.678      1.0515808    
   1089000   295.12376     -325.81907      54376.919     -21085.848      3301.5436     -17784.304      1.0491116    
   1090000   303.67379      918.87921      54312.858     -21027.045      3397.1926     -17629.852      1.050349     
   1091000   295.8124      -89.700464      53988.73      -21163.477      3309.2474     -17854.229      1.0566549    
   1092000   300.22571      734.29019      54046.963     -21006.225      3358.619      -17647.606      1.0555164    
   1093000   297.95698      385.25729      54397.4       -20952.186      3333.2388     -17618.948      1.0487166    
   1094000   299.29769      679.55555      54266.728     -21106.976      3348.2373     -17758.739      1.0512419    
   1095000   298.56392     -568.67073      54364.231     -21017.227      3340.0286     -17677.199      1.0493565    
   1096000   298.22643      690.0076       53891.616     -21007.68       3336.2531     -17671.427      1.058559     
   1097000   299.6769      -286.00756      54137.197     -21050.338      3352.4795     -17697.858      1.0537571    
   1098000   298.59446     -763.7257       53545.642     -21000.404      3340.3703     -17660.034      1.0653987    
   1099000   313.39826     -396.10238      54534.533     -21188.754      3505.9801     -17682.774      1.0460795    
   1100000   298.43033      380.6725       54141.787     -21103.582      3338.5341     -17765.048      1.0536678    
   1101000   303.06782     -300.31731      54411.084     -21034.458      3390.4137     -17644.044      1.0484529    
   1102000   305.22641      509.20486      54319.732     -21082.2        3414.5617     -17667.639      1.0502161    
   1103000   306.03531      467.47217      54773.54      -20999.101      3423.611      -17575.49       1.0415149    
   1104000   301.60092      37.228263      54509.82      -20955.945      3374.0035     -17581.941      1.0465538    
   1105000   301.13648      337.17131      54362.202     -21146.441      3368.8078     -17777.633      1.0493956    
   1106000   302.76467     -65.410303      54269.8       -21145.499      3387.0223     -17758.476      1.0511824    
   1107000   304.6398       8.5937286      53802.312     -20965.138      3407.9994     -17557.139      1.0603161    
   1108000   301.92895      548.94733      54182.792     -21050.939      3377.6732     -17673.265      1.0528704    
   1109000   293.48654      250.68131      54880.696     -20969.232      3283.2281     -17686.004      1.0394813    
   1110000   303.11943      48.409438      54588.504     -21070.065      3390.991      -17679.074      1.0450453    
   1111000   298.74233     -88.118657      54326.341     -21170.894      3342.0245     -17828.869      1.0500884    
   1112000   307.11463      201.3455       54634.338     -21124.059      3435.6853     -17688.374      1.0441685    
   1113000   300.47927     -196.97158      55114.322     -20996.144      3361.4556     -17634.689      1.035075     
   1114000   304.58333     -507.32427      54621.914     -21000.127      3407.3676     -17592.759      1.0444061    
   1115000   304.68377      28.741915      54466.685     -21148.367      3408.4912     -17739.876      1.0473826    
   1116000   294.81791     -76.094975      54478.174     -21251.076      3298.122      -17952.954      1.0471617    
   1117000   300.10317      709.64482      54249.146     -21073.386      3357.2482     -17716.137      1.0515826    
   1118000   304.57392      924.07869      53757.507     -21135.37       3407.2624     -17728.107      1.0611998    
   1119000   302.31038      583.59572      54136.579     -21145.837      3381.9402     -17763.897      1.0537692    
   1120000   301.81461      109.69735      54592.644     -20962.619      3376.394      -17586.225      1.044966     
   1121000   300.91573     -179.44362      54007.597     -21086.633      3366.3383     -17720.295      1.0562858    
   1122000   299.56931     -907.75451      55081.235     -21046.187      3351.2759     -17694.912      1.0356968    
   1123000   296.34785      318.77782      54527.28      -20873.026      3315.2375     -17557.789      1.0462187    
   1124000   301.63519      200.84592      54620.861     -21008.684      3374.3868     -17634.297      1.0444262    
   1125000   292.2204      -370.10662      54205.297     -21125.949      3269.0638     -17856.885      1.0524333    
   1126000   304.93543     -879.26539      54425.263     -21007.227      3411.3065     -17595.92       1.0481797    
   1127000   298.05314      104.05857      53845.214     -21098.247      3334.3146     -17763.932      1.0594713    
   1128000   303.8895      -650.64744      54357.268     -21009.864      3399.6058     -17610.258      1.0494909    
   1129000   303.91655     -25.197096      54497.002     -21026.308      3399.9084     -17626.4        1.0467999    
   1130000   295.02343     -138.47821      54704.153     -21023.847      3300.4212     -17723.425      1.042836     
   1131000   300.00474      599.36309      54194.548     -20985.457      3356.147      -17629.31       1.052642     
   1132000   307.08356      863.00245      54127.912     -21137.242      3435.3377     -17701.904      1.0539379    
   1133000   295.32987     -331.60656      54228.066     -20997.098      3303.8494     -17693.249      1.0519914    
   1134000   304.59189     -149.30972      54612.987     -21112.669      3407.4634     -17705.206      1.0445768    
   1135000   296.92865     -516.55126      54337.729     -21116.419      3321.7349     -17794.684      1.0498683    
   1136000   300.17462     -511.6816       54697.997     -21016.521      3358.0475     -17658.474      1.0429533    
   1137000   299.86489     -136.1628       54533.334     -21042.51       3354.5826     -17687.928      1.0461025    
   1138000   305.59447      365.74802      54229.755     -21125.595      3418.6793     -17706.916      1.0519586    
   1139000   299.83995     -361.0929       54595.556     -21034.741      3354.3035     -17680.437      1.0449103    
   1140000   292.76742      176.28458      54535.509     -21010.54       3275.1834     -17735.357      1.0460608    
   1141000   304.10414      303.2536       54522.193     -21037.366      3402.007      -17635.359      1.0463163    
   1142000   306.45872      873.03581      54155.294     -21058.203      3428.3476     -17629.855      1.053405     
   1143000   304.12444      206.05885      54468.541     -20913.073      3402.2341     -17510.839      1.0473469    
   1144000   305.72752     -918.963        54741.544     -21038.806      3420.1677     -17618.638      1.0421236    
   1145000   306.48629      1124.7173      54542.999     -21050.828      3428.6561     -17622.172      1.0459171    
   1146000   302.36621     -1179.9034      54647.03      -21057.529      3382.5648     -17674.964      1.043926     
   1147000   295.93696     -322.06543      53935.85      -21066.115      3310.6409     -17755.474      1.0576909    
   1148000   296.40849      645.57582      54557.712     -21011.98       3315.9158     -17696.064      1.0456351    
   1149000   304.44325     -577.54745      54648.424     -21047.726      3405.8006     -17641.926      1.0438994    
   1150000   299.92268     -18.463819      54036.572     -21154.626      3355.2291     -17799.396      1.0557194    
   1151000   303.24535     -10.457289      54546.744     -20983.55       3392.3997     -17591.15       1.0458453    
   1152000   304.07055      110.20104      54174.017     -21048.488      3401.6312     -17646.857      1.0530409    
   1153000   298.38077      98.807322      54766.736     -20983.391      3337.9798     -17645.411      1.0416443    
   1154000   297.84456      493.04468      54638.873     -21115.982      3331.9812     -17784.001      1.0440819    
   1155000   298.60495      368.3386       54607.377     -21119.332      3340.4877     -17778.844      1.0446841    
   1156000   299.87262      177.23837      54081.213     -21052.155      3354.669      -17697.486      1.054848     
   1157000   293.28968     -463.83946      54460.928     -20939.567      3281.0258     -17658.542      1.0474933    
   1158000   297.46763     -179.58944      54367.744     -21037.8        3327.7644     -17710.036      1.0492887    
   1159000   299.79965     -181.44438      54170.929     -21039.556      3353.8528     -17685.703      1.053101     
   1160000   298.12723     -100.86544      54097.868     -21150.539      3335.1434     -17815.395      1.0545232    
   1161000   300.20382     -257.36408      55179.895     -21071.071      3358.3741     -17712.697      1.033845     
   1162000   303.19987     -818.06792      54524.057     -21094.831      3391.8909     -17702.941      1.0462805    
   1163000   299.16616      274.2788       53995.037     -21162.011      3346.7659     -17815.245      1.0565315    
   1164000   296.32575      978.63381      54337.239     -21007.592      3314.9903     -17692.601      1.0498777    
   1165000   299.84634      349.15298      54912.891     -20861.81       3354.375      -17507.435      1.0388719    
   1166000   304.28489      123.65073      54671.554     -21032.865      3404.0291     -17628.836      1.0434578    
   1167000   305.95303      539.45013      53680.76      -21152.478      3422.6904     -17729.788      1.062717     
   1168000   305.03361     -1175.6686      54560.309     -20994.723      3412.4049     -17582.318      1.0455853    
   1169000   296.50618      389.05282      54357.598     -21038.358      3317.0087     -17721.349      1.0494845    
   1170000   295.56354     -188.6433       54445.262     -21069.066      3306.4634     -17762.603      1.0477947    
   1171000   299.54482     -40.812989      54595.463     -21063.083      3351.002      -17712.082      1.0449121    
   1172000   296.06738     -272.77871      54555.32      -21062.396      3312.0999     -17750.297      1.0456809    
   1173000   304.28167      75.876676      54119.819     -21086.213      3403.993      -17682.22       1.0540955    
   1174000   301.26368     -100.48776      54355.043     -21024.266      3370.2308     -17654.035      1.0495338    
   1175000   294.9687      -999.36121      54599.896     -20963.65       3299.809      -17663.841      1.0448272    
   1176000   298.12815      85.271001      53950.279     -21070.365      3335.1537     -17735.211      1.057408     
   1177000   300.93042      545.50731      54176.678     -21062.644      3366.5027     -17696.141      1.0529892    
   1178000   298.77998      253.79133      54106.919     -21021.503      3342.4457     -17679.057      1.0543468    
   1179000   305.96532     -858.7864       54435.211     -20989.904      3422.828      -17567.076      1.0479882    
   1180000   301.31674     -561.16909      54419.089     -21134.32       3370.8243     -17763.496      1.0482987    
   1181000   299.40132      228.1777       54066.859     -20991.973      3349.3966     -17642.576      1.055128     
   1182000   299.47481      3.3985269      54649.492     -21100.137      3350.2187     -17749.918      1.043879     
   1183000   296.39433     -784.60373      54488.174     -21062.668      3315.7575     -17746.91       1.0469695    
   1184000   300.55296      984.58844      54533.058     -21071.319      3362.28       -17709.039      1.0461078    
   1185000   296.88233     -744.17544      54530.673     -21064.084      3321.2167     -17742.867      1.0461536    
   1186000   302.75305      388.49607      53854.963     -21011.445      3386.8923     -17624.553      1.0592795    
   1187000   297.40751     -365.27449      54208.741     -20911.308      3327.092      -17584.216      1.0523664    
   1188000   307.15045     -501.40746      54476.715     -21004.91       3436.086      -17568.824      1.0471898    
   1189000   296.09956     -465.74178      54352.654     -21032.695      3312.4599     -17720.235      1.04958      
   1190000   299.50954      96.941657      54083.793     -21061.702      3350.6072     -17711.095      1.0547976    
   1191000   300.65278      520.97587      54002.187     -21127.953      3363.3967     -17764.556      1.0563916    
   1192000   298.56999      433.42794      54256.176     -20990.207      3340.0965     -17650.111      1.0514463    
   1193000   306.42872     -393.97351      54352.961     -21068.816      3428.012      -17640.804      1.049574     
   1194000   299.8849      -400.17544      54480.714     -21118.784      3354.8064     -17763.978      1.0471129    
   1195000   296.66139      23.653476      54222.533     -21092.754      3318.7451     -17774.009      1.0520987    
   1196000   295.719        596.68092      54411.096     -21120.418      3308.2026     -17812.216      1.0484527    
   1197000   302.03182      41.226569      54521.247     -21205.019      3378.824      -17826.195      1.0463344    
   1198000   303.96621      1443.137       53853.718     -21057.189      3400.4639     -17656.725      1.059304     
   1199000   302.5173       275.07682      54386.317     -21105.036      3384.255      -17720.781      1.0489303    
   1200000   297.00159     -320.44502      54795.536     -21042.301      3322.5509     -17719.75       1.0410968    
   1201000   300.22456     -276.61153      54379.362     -21067.935      3358.6062     -17709.329      1.0490645    
   1202000   300.44697      354.58652      54507.859     -21064.975      3361.0942     -17703.881      1.0465914    
   1203000   302.57782      126.7318       54857.34      -21057.456      3384.9321     -17672.524      1.0399239    
   1204000   301.50174      877.93243      54729.965     -20909.61       3372.8939     -17536.716      1.0423441    
   1205000   300.01018     -309.69205      54388.2       -21067.732      3356.2079     -17711.524      1.048894     
   1206000   299.98447      105.70786      54748.187     -20972.035      3355.9203     -17616.115      1.0419972    
   1207000   301.42308      98.3306        54568.702     -21020.833      3372.014      -17648.819      1.0454245    
   1208000   305.47983      10.338221      54678.225     -21056.415      3417.3968     -17639.018      1.0433305    
   1209000   299.03063      120.79393      55059.722     -21084.014      3345.2497     -17738.764      1.0361015    
   1210000   301.90195      15.448271      54024.258     -21166.389      3377.3711     -17789.018      1.05596      
   1211000   303.59244     -22.244061      54640.452     -21076.743      3396.2826     -17680.46       1.0440517    
   1212000   304.07138      95.348631      54121.657     -21137.238      3401.6405     -17735.597      1.0540597    
   1213000   299.45433      55.314783      54506.957     -21107.803      3349.9897     -17757.813      1.0466087    
   1214000   299.81113      453.8979       54494.849     -20987.119      3353.9812     -17633.138      1.0468413    
   1215000   290.40378     -263.46372      54093.883     -21038.894      3248.7413     -17790.153      1.0546009    
   1216000   301.69301      43.833242      54492.022     -21039.601      3375.0337     -17664.568      1.0468956    
   1217000   297.48371      245.83979      54207.48      -21044.998      3327.9443     -17717.054      1.0523909    
   1218000   298.67836     -706.77562      54238.262     -21134.769      3341.3089     -17793.46       1.0517936    
   1219000   300.32661     -84.572271      54956.775     -21002.918      3359.7478     -17643.17       1.0380423    
   1220000   301.68965     -318.07238      54698.392     -21113.099      3374.9961     -17738.103      1.0429458    
   1221000   297.23352     -731.57464      54487.404     -21106.492      3325.1455     -17781.346      1.0469843    
   1222000   302.63016      201.92994      54421.633     -21063.16       3385.5175     -17677.643      1.0482497    
   1223000   309.15394      305.15937      54073.984     -21203.649      3458.499      -17745.15       1.054989     
   1224000   299.05139     -210.51301      54370.312     -20952.89       3345.482      -17607.408      1.0492391    
   1225000   294.85777      492.21672      54508.89      -21165.441      3298.568      -17866.873      1.0465716    
   1226000   295.24644     -213.34579      54258.627     -21173.192      3302.916      -17870.276      1.0513988    
   1227000   301.49936      229.20264      54389.069     -21049.56       3372.8674     -17676.693      1.0488773    
   1228000   296.53697     -29.427028      54439.793     -21026.35       3317.3532     -17708.997      1.0479       
   1229000   300.08515      312.52832      54340.152     -21092.495      3357.0466     -17735.449      1.0498215    
   1230000   299.44386      199.44971      54523.613     -21100.754      3349.8725     -17750.881      1.046289     
   1231000   300.29131      509.49848      54662.068     -21116.07       3359.3529     -17756.717      1.0436388    
   1232000   296.40604      518.40243      54454.366     -21113.531      3315.8885     -17797.643      1.0476195    
   1233000   297.60334     -51.167877      54608.376     -21046.001      3329.2827     -17716.718      1.044665     
   1234000   296.45861     -83.722715      54403.165     -21098.748      3316.4765     -17782.272      1.0486055    
   1235000   302.29552     -590.0832       54608.266     -21071.076      3381.774      -17689.302      1.0446671    
   1236000   297.6438      -138.2108       54143.233     -21198.055      3329.7353     -17868.32       1.0536397    
   1237000   304.88785      349.80678      53944.677     -20939.54       3410.7743     -17528.765      1.0575178    
   1238000   302.19475     -335.87957      54020.703     -21080.286      3380.6467     -17699.639      1.0560295    
   1239000   304.83124      164.07329      54571.908     -21041.585      3410.141      -17631.444      1.0453631    
   1240000   301.25835     -698.30985      54711.978     -20932.126      3370.1712     -17561.954      1.0426868    
   1241000   300.76642     -130.84443      54381.972     -21085.168      3364.6679     -17720.5        1.0490141    
   1242000   299.94774     -267.95539      54145.25      -21120.243      3355.5094     -17764.734      1.0536004    
   1243000   294.98218      417.98809      54698.22      -20889.572      3299.9598     -17589.612      1.0429491    
   1244000   302.54518     -46.781866      54820.76      -21021.305      3384.5669     -17636.738      1.0406178    
   1245000   295.28021     -636.18219      54631.038     -21052.276      3303.2939     -17748.982      1.0442316    
   1246000   305.11571      540.56801      53927.398     -21114.478      3413.3234     -17701.155      1.0578567    
   1247000   296.2344       547.23642      54008.874     -21011.613      3313.9683     -17697.645      1.0562608    
   1248000   298.42655     -1093.5719      54355.642     -21129.863      3338.4919     -17791.371      1.0495223    
   1249000   300.57009     -17.170755      54014.453     -21025.634      3362.4716     -17663.162      1.0561517    
   1250000   301.77826     -205.60515      54733.405     -21127.884      3375.9874     -17751.897      1.0422786    
   1251000   298.65346     -85.692194      54824.496     -21081.721      3341.0303     -17740.691      1.0405469    
   1252000   294.42317     -621.96156      54441.817     -20955.767      3293.7061     -17662.061      1.047861     
   1253000   302.06327      430.74599      54185.242     -20881.288      3379.1758     -17502.113      1.0528228    
   1254000   292.40756      365.8513       54525.53      -21123.173      3271.1575     -17852.015      1.0462522    
   1255000   293.39701     -641.89076      54299.46      -21110.69       3282.2265     -17828.464      1.0506082    
   1256000   300.02639     -112.37121      54734.443     -20962.338      3356.3892     -17605.949      1.0422589    
   1257000   298.05621      283.49392      54677.302     -20992.185      3334.3489     -17657.837      1.0433481    
   1258000   295.354       -780.28127      53992.578     -21081.837      3304.1194     -17777.718      1.0565796    
   1259000   307.0237      -176.6267       53810.912     -21172.748      3434.668      -17738.08       1.0601466    
   1260000   296.1978       249.04057      53851.064     -21083.125      3313.5589     -17769.566      1.0593562    
   1261000   301.96264      301.48707      54504.996     -21083.676      3378.05       -17705.626      1.0466464    
   1262000   301.61505     -341.62261      54353.916     -21031.358      3374.1616     -17657.196      1.0495556    
   1263000   295.30944      11.414744      54390.623     -21113.029      3303.6209     -17809.408      1.0488473    
   1264000   303.42086     -95.390312      54364.971     -21080.192      3394.3631     -17685.829      1.0493422    
   1265000   299.60658      828.55003      54045.7       -21087.542      3351.6929     -17735.849      1.0555411    
   1266000   295.40502      204.72044      54503.018     -21001.915      3304.69       -17697.225      1.0466844    
   1267000   304.88807      450.57064      54500.03      -21052.414      3410.7768     -17641.637      1.0467418    
   1268000   298.6432      -21.632521      53993.895     -21110.906      3340.9155     -17769.99       1.0565539    
   1269000   298.54101      91.24933       54156.756     -21167.97       3339.7723     -17828.197      1.0533766    
   1270000   292.1028      -751.47239      54673.962     -20932.676      3267.7483     -17664.928      1.0434118    
   1271000   297.20477     -565.3466       54230.787     -21097.413      3324.8238     -17772.589      1.0519386    
   1272000   295.97573      310.23329      54463.471     -21021.153      3311.0746     -17710.078      1.0474444    
   1273000   307.2407       342.97146      54254.834     -20950.751      3437.0956     -17513.656      1.0514723    
   1274000   296.17819      43.222599      54390.561     -21130.558      3313.3395     -17817.218      1.0488485    
   1275000   300.2135       311.47477      54740.489     -21047.552      3358.4825     -17689.069      1.0421437    
   1276000   302.10822      351.73279      54357.538     -21086.505      3379.6787     -17706.826      1.0494857    
   1277000   313.19188      727.46639      54683.215     -21102.589      3503.6713     -17598.917      1.0432353    
   1278000   293.01586      6.8932326      54388.773     -21167.632      3277.9627     -17889.669      1.048883     
   1279000   301.25177      242.8124       54119.61      -21048.863      3370.0975     -17678.765      1.0540996    
   1280000   300.20618     -390.64884      54541.101     -21133.443      3358.4005     -17775.043      1.0459535    
   1281000   296.38981     -16.920984      54337.421     -21105.292      3315.7069     -17789.585      1.0498742    
   1282000   300.03294      75.57343       54111.493     -21263.19       3356.4625     -17906.727      1.0542577    
   1283000   302.1021       402.56283      54008.719     -21122.513      3379.6102     -17742.903      1.0562638    
   1284000   298.94311     -1301.7976      55052.317     -20974.083      3344.2706     -17629.812      1.0362408    
   1285000   301.59346     -28.910204      54583.74      -21048.714      3373.92       -17674.794      1.0451365    
   1286000   295.51286      163.23938      54241.139     -21009.482      3305.8965     -17703.585      1.0517378    
   1287000   299.00908      578.94571      53776.961     -21112.803      3345.0086     -17767.794      1.060816     
   1288000   298.80615     -471.68928      54112.7       -21041.524      3342.7384     -17698.786      1.0542342    
   1289000   307.11715     -235.25192      53620.664     -21047.871      3435.7135     -17612.157      1.0639081    
   1290000   309.01393     -212.0291       54507.043     -21083.967      3456.9326     -17627.035      1.0466071    
   1291000   300.83882     -69.507716      54505.059     -21144.673      3365.4779     -17779.195      1.0466452    
   1292000   298.55272     -66.648052      54994.236     -21083.939      3339.9034     -17744.035      1.0373352    
   1293000   294.49378     -230.96043      54377.391     -21140.546      3294.496      -17846.05       1.0491025    
   1294000   300.21341      921.56512      54118.098     -21109.636      3358.4814     -17751.154      1.054129     
   1295000   296.61065      297.38935      54076.106     -21001.303      3318.1774     -17683.125      1.0549476    
   1296000   297.92481     -175.87706      54055.224     -21032.816      3332.8789     -17699.937      1.0553551    
   1297000   305.00959      465.94484      54074.755     -21074.991      3412.1362     -17662.855      1.054974     
   1298000   296.14464     -868.97271      54608.953     -21037.326      3312.9642     -17724.362      1.0446539    
   1299000   304.25343     -215.09915      54647.05      -21084.629      3403.6771     -17680.952      1.0439257    
   1300000   299.01233     -906.34704      54704.154     -20937.662      3345.045      -17592.617      1.0428359    
   1301000   301.71394      374.7194       54590.047     -21005.819      3375.2679     -17630.551      1.0450157    
   1302000   297.16855     -411.29231      54406.535     -21046.297      3324.4187     -17721.878      1.0485405    
   1303000   302.12244     -149.26465      54534.982     -21154.826      3379.8378     -17774.988      1.0460709    
   1304000   306.38955      83.543971      54305.088     -21015.417      3427.5738     -17587.843      1.0504993    
   1305000   306.81226      229.99419      54231.315     -21111          3432.3027     -17678.697      1.0519284    
   1306000   300.2617       1161.64        54283.872     -21040.556      3359.0216     -17681.534      1.0509099    
   1307000   295.64866     -686.13339      54755.329     -21106.793      3307.4157     -17799.378      1.0418613    
   1308000   300.24017      53.360388      54226.206     -21090.046      3358.7808     -17731.265      1.0520275    
   1309000   295.87711      84.805633      54395.801     -21011.118      3309.9714     -17701.147      1.0487475    
   1310000   289.18881     -612.064        54792.556     -20985.007      3235.1494     -17749.857      1.0411534    
   1311000   295.0984      -333.41445      54248.91      -21039.241      3301.26       -17737.981      1.0515872    
   1312000   303.39321      164.18547      53974.722     -21118.784      3394.0538     -17724.73       1.0569292    
   1313000   303.96433      266.28006      54015.933     -21110.882      3400.4429     -17710.439      1.0561228    
   1314000   300.3545       228.25425      54922.887     -21087.526      3360.0598     -17727.467      1.0386828    
   1315000   300.86762     -80.764546      54946.868     -20951.181      3365.8001     -17585.381      1.0382295    
   1316000   302.83104     -240.40134      54447.795     -20997.21       3387.7649     -17609.445      1.047746     
   1317000   305.41377      474.40749      54367.806     -21134.322      3416.6577     -17717.664      1.0492875    
   1318000   304.20107     -1.7869824      54805.452     -21011.15       3403.0913     -17608.058      1.0409084    
   1319000   299.78657      608.45233      53996.021     -21133.295      3353.7064     -17779.588      1.0565123    
   1320000   302.6258       656.2264       54538.866     -21070.629      3385.4688     -17685.161      1.0459964    
   1321000   306.93711      350.45134      53997.163     -21046.738      3433.6993     -17613.039      1.0564899    
   1322000   296.55551     -407.93566      53973.145     -21065.181      3317.5605     -17747.621      1.05696      
   1323000   306.0619      -1167.3888      54894.023     -21028.978      3423.9084     -17605.07       1.0392289    
   1324000   302.90718     -81.094186      54764.524     -21061.802      3388.6166     -17673.185      1.0416864    
   1325000   301.60339     -1100.0707      54905.474     -20898.73       3374.0311     -17524.699      1.0390122    
   1326000   297.94099     -455.14743      54685.451     -21121.495      3333.0599     -17788.435      1.0431926    
   1327000   304.756       -62.483084      54355.054     -21141.687      3409.2993     -17732.387      1.0495336    
   1328000   298.59385     -44.513209      54313.802     -21191.441      3340.3635     -17851.077      1.0503308    
   1329000   299.27763      504.35547      54339.494     -21139.57       3348.0129     -17791.557      1.0498342    
   1330000   311.71766     -22.119019      54379.172     -21010.119      3487.1792     -17522.94       1.0490682    
   1331000   305.50573     -118.27139      54548.298     -20889.593      3417.6865     -17471.907      1.0458155    
   1332000   298.33854      693.3913       53931.586     -21114.834      3337.5073     -17777.327      1.0577745    
   1333000   299.68225      209.70325      53938.696     -21005.76       3352.5394     -17653.221      1.0576351    
   1334000   298.88316     -1036.5963      53892.256     -21037.889      3343.5999     -17694.289      1.0585465    
   1335000   306.2445       232.03476      54172.448     -21028.668      3425.9511     -17602.717      1.0530714    
   1336000   298.24809     -164.45777      54450.126     -21086.216      3336.4954     -17749.721      1.0477011    
   1337000   300.12713      465.3284       53868.161     -21047.693      3357.5162     -17690.177      1.05902      
   1338000   298.37468     -400.60206      54309.486     -20991.871      3337.9116     -17653.959      1.0504142    
   1339000   300.90556     -615.4009       55144.774     -20990.547      3366.2245     -17624.323      1.0345034    
   1340000   306.00965     -323.34607      54270.784     -21084.939      3423.3238     -17661.616      1.0511633    
   1341000   303.24546      320.94647      54004.818     -20992.24       3392.4009     -17599.839      1.0563401    
   1342000   300.33114     -595.90084      54916.842     -20989.466      3359.7984     -17629.668      1.0387971    
   1343000   303.10206      137.61214      54283.66      -21186.837      3390.7967     -17796.04       1.050914     
   1344000   303.73885     -78.027048      54448.101     -21136.242      3397.9204     -17738.322      1.0477401    
   1345000   294.34035     -504.136        54487.967     -21020.768      3292.7796     -17727.988      1.0469735    
   1346000   294.83737     -405.89308      54590.072     -21008.547      3298.3397     -17710.207      1.0450152    
   1347000   300.51408      80.899222      54078.415     -21098.177      3361.8451     -17736.332      1.0549025    
   1348000   298.6478      -150.99794      53783.324     -21150.717      3340.967      -17809.75       1.0606904    
   1349000   299.18185      930.29918      54272.85      -21253.963      3346.9414     -17907.022      1.0511233    
   1350000   303.30699     -210.16258      54443.581     -21051.952      3393.0893     -17658.862      1.0478271    
   1351000   297.68088     -70.705571      54508.257     -21020.672      3330.1501     -17690.522      1.0465838    
   1352000   306.73405     -164.3672       54431.559     -20993.046      3431.4278     -17561.618      1.0480585    
   1353000   296.56354      751.38519      54044.049     -21005.477      3317.6504     -17687.827      1.0555733    
   1354000   301.35524      144.68622      53950.315     -21001.983      3371.2551     -17630.727      1.0574073    
   1355000   302.67942      332.19962      53946.57      -21067.065      3386.0686     -17680.996      1.0574807    
   1356000   299.2681       108.9952       54193.923     -21119.923      3347.9063     -17772.017      1.0526541    
   1357000   292.223        517.09758      54604.842     -21101.969      3269.0929     -17832.876      1.0447326    
   1358000   293.60646      332.20459      54766.52      -21050.57       3284.5696     -17766.001      1.0416484    
   1359000   297.34301     -569.59035      54603.092     -21160.466      3326.3703     -17834.096      1.0447661    
   1360000   301.44438      1007.9033      54936.016     -21002.339      3372.2523     -17630.086      1.0384346    
   1361000   301.01916      633.78931      54273.456     -21005.231      3367.4953     -17637.736      1.0511116    
   1362000   304.40959     -1491.4873      54382.282     -21025.875      3405.424      -17620.451      1.0490082    
   1363000   297.30443      105.98277      54459.025     -20993.917      3325.9388     -17667.978      1.0475299    
   1364000   298.99289     -318.55635      54879.522     -21071.712      3344.8275     -17726.885      1.0395035    
   1365000   298.44492      888.95458      54414.914     -21014.99       3338.6974     -17676.292      1.0483791    
   1366000   293.5522       228.77157      54562.471     -20950.917      3283.9626     -17666.954      1.0455439    
   1367000   291.40593      38.588131      54101.994     -20974.048      3259.9524     -17714.095      1.0544428    
   1368000   302.20978      359.93926      54761.855     -20955.393      3380.8148     -17574.578      1.0417371    
   1369000   298.47119      177.43671      54415.282     -21074.03       3338.9913     -17735.039      1.048372     
   1370000   300.52681     -82.235596      54412.19      -21118.62       3361.9874     -17756.632      1.0484316    
   1371000   299.54862     -386.55454      54927.112     -21033.512      3351.0444     -17682.467      1.0386029    
   1372000   290.61087      29.10527       54832.086     -20994.356      3251.058      -17743.298      1.0404028    
   1373000   310.41084     -69.693021      54579.185     -20968.126      3472.5599     -17495.567      1.0452237    
   1374000   294.65849      147.63981      54305.724     -20951.99       3296.3387     -17655.651      1.050487     
   1375000   298.66588     -555.59483      54961.178     -21079.58       3341.1693     -17738.411      1.0379591    
   1376000   302.86813     -39.557078      54569.955     -21113.756      3388.1797     -17725.576      1.0454005    
   1377000   294.50518     -277.31867      54729.136     -21106.211      3294.6235     -17811.587      1.0423599    
   1378000   296.92461     -383.97642      54991.425     -21006.573      3321.6897     -17684.884      1.0373882    
   1379000   303.6823       185.27125      54592.894     -20975.319      3397.2879     -17578.031      1.0449612    
   1380000   297.0478       305.44916      54469.857     -21036.504      3323.0679     -17713.436      1.0473216    
   1381000   301.03693     -935.23917      54197.688     -21005.348      3367.6941     -17637.654      1.052581     
   1382000   303.04079      601.43918      54020.71      -21108.372      3390.1112     -17718.26       1.0560294    
   1383000   305.95019     -693.85987      54604.144     -21032.541      3422.6587     -17609.883      1.0447459    
   1384000   297.39192     -598.75201      54539.275     -21082.295      3326.9175     -17755.378      1.0459886    
   1385000   298.55981     -565.10759      53877.387     -21066.793      3339.9826     -17726.81       1.0588386    
   1386000   297.84955      434.50372      54534.171     -20970.653      3332.037      -17638.616      1.0460864    
   1387000   299.91491     -90.455359      54246.947     -21088.715      3355.1422     -17733.573      1.0516252    
   1388000   297.29442      514.03987      54822.891     -21010.148      3325.8268     -17684.321      1.0405773    
   1389000   296.19735     -139.51918      54290.038     -21108.127      3313.5538     -17794.574      1.0507905    
   1390000   299.0013      -942.47837      54753.766     -20989.624      3344.9216     -17644.703      1.041891     
   1391000   304.10883      165.95633      54398.204     -20963.844      3402.0595     -17561.784      1.0487011    
   1392000   302.61408      1082.3302      54114.846     -20990.19       3385.3377     -17604.852      1.0541924    
   1393000   302.43099     -684.71385      54441.446     -21068.101      3383.2895     -17684.811      1.0478682    
   1394000   294.46905     -104.12686      54418.334     -21107.337      3294.2195     -17813.118      1.0483132    
   1395000   306.70884     -202.36971      54145.021     -21285.004      3431.1457     -17853.858      1.0536049    
   1396000   301.51712      1156.7015      54496.052     -21061.417      3373.0661     -17688.351      1.0468182    
   1397000   297.4049       95.900173      54773.49      -21088.523      3327.0628     -17761.46       1.0415158    
   1398000   307.65741      421.81209      54805         -21169.305      3441.7574     -17727.548      1.040917     
   1399000   305.35085      109.3944       54875.746     -21150.85       3415.9539     -17734.897      1.0395751    
   1400000   300.56319      205.35397      54510.625     -20987.537      3362.3945     -17625.142      1.0465383    
   1401000   294.09789     -63.071001      54259.789     -21148.479      3290.0673     -17858.412      1.0513763    
   1402000   303.70441      250.6686       54194.162     -21116.61       3397.5352     -17719.074      1.0526495    
   1403000   309.4165       801.01916      54271.584     -21126.007      3461.4363     -17664.571      1.0511478    
   1404000   303.76124      1022.059       53879.216     -21062.448      3398.1709     -17664.277      1.0588027    
   1405000   297.41812      254.56419      54339.218     -21060.544      3327.2106     -17733.333      1.0498395    
   1406000   289.49066     -93.409604      54215.948     -21058.347      3238.5262     -17819.821      1.0522265    
   1407000   310.44383      32.931478      54397.543     -21002.585      3472.929      -17529.656      1.0487139    
   1408000   303.47735     -391.94572      54644.562     -21111.489      3394.9951     -17716.494      1.0439732    
   1409000   298.09685     -23.12908       54615.079     -21016.771      3334.8035     -17681.967      1.0445368    
   1410000   302.65257      142.0995       54900.439     -21167.754      3385.7683     -17781.986      1.0391075    
   1411000   303.17594      635.08367      54316.618     -21127.991      3391.6232     -17736.368      1.0502763    
   1412000   299.54329      6.6837531      54579.712     -21068.187      3350.9849     -17717.203      1.0452136    
   1413000   305.20799     -466.29477      54413.91      -20906.621      3414.3558     -17492.265      1.0483984    
   1414000   308.19677      402.53572      54395.886     -21022.729      3447.7911     -17574.938      1.0487458    
   1415000   303.98212     -1127.9781      54335.755     -21143.807      3400.6419     -17743.165      1.0499064    
   1416000   298.81386      493.78163      54474.171     -20916.467      3342.8247     -17573.643      1.0472387    
   1417000   303.5646       348.91075      54428.153     -20990.189      3395.9712     -17594.218      1.0481241    
   1418000   306.1187       193.13535      54469.917     -21003.644      3424.5438     -17579.1        1.0473204    
   1419000   303.17434      230.89819      54353.506     -21065.064      3391.6053     -17673.459      1.0495635    
   1420000   305.55425     -746.91305      54789.765     -21112.015      3418.2294     -17693.785      1.0412065    
   1421000   302.09323     -178.47747      54883.567     -21103.473      3379.511      -17723.962      1.0394269    
   1422000   303.95405      253.54951      54380.808     -21092.607      3400.328      -17692.279      1.0490366    
   1423000   300.62294     -595.26371      54924         -21132.032      3363.0628     -17768.969      1.0386617    
   1424000   298.43375     -29.166999      54621.46      -20987.578      3338.5725     -17649.005      1.0444147    
   1425000   299.95105      626.52876      54178.252     -21038.319      3355.5464     -17682.772      1.0529586    
   1426000   295.17193      447.80634      54471.067     -20979.947      3302.0826     -17677.864      1.0472983    
   1427000   298.19189     -196.93014      54227.747     -21114.22       3335.8667     -17778.354      1.0519976    
   1428000   295.2443       137.18064      54047.779     -20997.905      3302.8921     -17695.013      1.0555005    
   1429000   300.45619      521.53469      54397.728     -21061.221      3361.1974     -17700.024      1.0487103    
   1430000   299.6031       1209.2933      54160.673     -20976.573      3351.6539     -17624.919      1.0533004    
   1431000   300.26533     -406.23938      54602.147     -21013.239      3359.0623     -17654.176      1.0447841    
   1432000   300.02626     -66.707743      54841.918     -20911.17       3356.3878     -17554.782      1.0402163    
   1433000   304.96491      1187.7471      54458.002     -21113.223      3411.6364     -17701.586      1.0475496    
   1434000   287.88529     -640.72797      54472.405     -21068.965      3220.567      -17848.398      1.0472726    
   1435000   307.55412     -120.26538      54410.157     -21153.25       3440.6019     -17712.649      1.0484707    
   1436000   298.10969     -248.97151      54637.988     -21044.307      3334.9472     -17709.36       1.0440988    
   1437000   295.99039     -164.28306      54261.242     -21089.784      3311.2387     -17778.545      1.0513482    
   1438000   296.05882      191.50683      54107.141     -21141.578      3312.0041     -17829.574      1.0543425    
   1439000   304.03326     -183.47217      54686.527     -20930.844      3401.214      -17529.63       1.0431721    
   1440000   296.44978      51.671798      55006.003     -21058.722      3316.3778     -17742.344      1.0371133    
   1441000   304.50682      499.53682      54590.818     -20983.959      3406.5118     -17577.447      1.045001     
   1442000   303.0142      -587.0739       54340.375     -21091.503      3389.8139     -17701.689      1.0498172    
   1443000   305.89898      365.63193      54286.811     -21095.276      3422.0858     -17673.19       1.050853     
   1444000   301.89349      207.4161       54212.014     -21053.443      3377.2765     -17676.166      1.0523029    
   1445000   298.90813     -426.41461      54948.586     -20963.118      3343.8793     -17619.239      1.038197     
   1446000   305.22381      685.15756      54666.42      -21108.819      3414.5327     -17694.287      1.0435558    
   1447000   304.72238     -71.076947      54362.603     -21109.404      3408.9232     -17700.481      1.0493879    
   1448000   304.08727      139.42499      53981.232     -20936.097      3401.8182     -17534.278      1.0568017    
   1449000   295.87563      3.4212729      54216.809     -20969.988      3309.9547     -17660.034      1.0522098    
   1450000   299.83499     -1013.28        54453.592     -21070.162      3354.2481     -17715.914      1.0476344    
   1451000   300.86316     -160.32796      54475.453     -21109.992      3365.7502     -17744.242      1.047214     
   1452000   293.83284      1369.8781      53922.985     -21153.265      3287.1021     -17866.163      1.0579432    
   1453000   295.42542      14.755367      54559.822     -21049.528      3304.9183     -17744.61       1.0455946    
   1454000   302.01861      27.53624       54769.937     -21061.838      3378.6761     -17683.162      1.0415834    
   1455000   300.22209      630.1552       54416.564     -20870.565      3358.5786     -17511.987      1.0483473    
   1456000   305.25656      416.23096      54563.096     -21172.108      3414.8991     -17757.209      1.0455319    
   1457000   299.55267      247.56359      54784.465     -21085.755      3351.0897     -17734.665      1.0413072    
   1458000   292.14285      698.95623      54180.103     -21040.95       3268.1962     -17772.754      1.0529227    
   1459000   303.51211     -316.29098      54559.746     -20842.872      3395.3839     -17447.488      1.0455961    
   1460000   297.74086     -337.97982      54251.868     -21102.316      3330.821      -17771.494      1.0515298    
   1461000   304.59127     -621.86313      54623.824     -21000.152      3407.4565     -17592.696      1.0443695    
   1462000   294.46638     -473.74986      54451.108     -21008.077      3294.1895     -17713.887      1.0476822    
   1463000   298.2371      -589.80878      54412.142     -21147.965      3336.3725     -17811.592      1.0484325    
   1464000   297.23307      269.57198      54414.689     -20965.878      3325.1405     -17640.738      1.0483834    
   1465000   302.27045     -593.38349      54561.28      -21078.288      3381.4935     -17696.795      1.0455667    
   1466000   300.42201      464.97161      54469.129     -21014.864      3360.815      -17654.049      1.0473356    
   1467000   304.62529      1026.7695      53790.875     -21008.592      3407.8371     -17600.755      1.0605415    
   1468000   295.66331      530.96759      54649.314     -21067.543      3307.5796     -17759.964      1.0438824    
   1469000   298.63003      294.9214       54580.226     -20959.781      3340.7682     -17619.013      1.0452038    
   1470000   299.21271     -126.14948      54511.146     -21020.207      3347.2866     -17672.921      1.0465283    
   1471000   300.1729      -511.67137      54275.757     -21005.012      3358.0283     -17646.983      1.051067     
   1472000   307.20246      494.95345      54187.588     -21090.892      3436.6679     -17654.224      1.0527772    
   1473000   301.8308       466.72136      54320.075     -21076.775      3376.5752     -17700.2        1.0502095    
   1474000   297.15518      212.6449       54388.796     -21018.628      3324.2691     -17694.359      1.0488825    
   1475000   297.79407      320.86883      54708.411     -20947.143      3331.4164     -17615.727      1.0427548    
   1476000   303.42003      281.57265      54476.539     -21011.829      3394.3539     -17617.475      1.0471931    
   1477000   302.85743     -521.19182      54585.756     -21106.046      3388.0601     -17717.986      1.0450979    
   1478000   297.26466     -220.51127      54610.771     -21046.225      3325.4938     -17720.731      1.0446192    
   1479000   301.56813     -13.646308      54153.158     -21174.459      3373.6367     -17800.823      1.0534466    
   1480000   302.36777     -311.30275      54499.675     -20953.438      3382.5822     -17570.856      1.0467486    
   1481000   301.9176       1061.9686      54975.76      -21006.02       3377.5462     -17628.473      1.0376838    
   1482000   304.03063      514.66323      54814.94      -21056.565      3401.1846     -17655.38       1.0407283    
   1483000   303.15111      407.3201       54529.404     -21045.917      3391.3455     -17654.572      1.0461779    
   1484000   295.22128      221.54356      54329.837     -20995.589      3302.6346     -17692.955      1.0500208    
   1485000   296.73382      989.39425      54321.552     -21143.694      3319.5554     -17824.139      1.0501809    
   1486000   301.84226     -14.326371      54653.522     -21167.433      3376.7034     -17790.729      1.043802     
   1487000   301.89183      427.44182      54109.957     -20971.608      3377.2579     -17594.351      1.0542876    
   1488000   295.1917       255.89475      54332.716     -20933.32       3302.3037     -17631.016      1.0499651    
   1489000   299.55969     -592.85781      53895.354     -21063.438      3351.1683     -17712.27       1.0584856    
   1490000   296.93882     -476.78748      54172.448     -21121.53       3321.8487     -17799.682      1.0530714    
   1491000   297.30417      145.48758      53679.687     -21046.549      3325.9359     -17720.613      1.0627383    
   1492000   296.29144     -399.30761      54628.094     -21040.733      3314.6064     -17726.127      1.0442879    
   1493000   296.65201      137.47432      54442.874     -21006.217      3318.6401     -17687.576      1.0478407    
   1494000   298.48449     -699.26595      54710.945     -21023.68       3339.1401     -17684.54       1.0427065    
   1495000   296.47005     -66.156108      54867.749     -21117.193      3316.6046     -17800.589      1.0397266    
   1496000   299.36386     -588.00057      54740.332     -20987.495      3348.9776     -17638.518      1.0421467    
   1497000   298.70615     -12.054885      54082.329     -21189.325      3341.6198     -17847.705      1.0548262    
   1498000   307.91081     -612.36364      54799.441     -21083.597      3444.5921     -17639.005      1.0410226    
   1499000   298.63697      506.64423      54127.294     -21041.852      3340.8458     -17701.006      1.0539499    
   1500000   297.07443      195.64716      53725.106     -21098.189      3323.3658     -17774.823      1.0618398    
   1501000   296.48436     -150.86048      54047.572     -21176.62       3316.7646     -17859.856      1.0555045    
   1502000   302.94554     -181.96604      53900.183     -21083.203      3389.0457     -17694.157      1.0583908    
   1503000   301.05728      457.72855      54722.087     -21019.628      3367.9218     -17651.706      1.0424942    
   1504000   300.41858     -919.69554      54799.255     -21170.42       3360.7767     -17809.643      1.0410262    
   1505000   298.18843      710.98971      54894.031     -21027.336      3335.828      -17691.508      1.0392288    
   1506000   297.25885     -168.07534      54576.015     -21096.983      3325.4289     -17771.554      1.0452844    
   1507000   300.21515      225.55161      54576.087     -20993.695      3358.5009     -17635.194      1.045283     
   1508000   301.4714      -746.22255      54523.992     -21004.216      3372.5546     -17631.661      1.0462818    
   1509000   301.86668      563.2739       54309.461     -21028.142      3376.9766     -17651.166      1.0504147    
   1510000   299.70018     -1068.295       54682.462     -21118.805      3352.7399     -17766.065      1.0432496    
   1511000   302.35927      834.70427      54156.661     -20984.98       3382.4871     -17602.493      1.0533784    
   1512000   297.45855     -217.59264      54783.578     -21197.568      3327.6628     -17869.905      1.041324     
   1513000   302.25315      271.82951      54335.251     -21103.047      3381.2999     -17721.747      1.0499161    
   1514000   299.48452     -253.29994      54419.412     -21158.344      3350.3274     -17808.017      1.0482924    
   1515000   301.51323      322.79503      53988.474     -20976.62       3373.0225     -17603.598      1.0566599    
   1516000   301.33019      509.05672      54436.857     -21054.851      3370.9748     -17683.876      1.0479565    
   1517000   300.81699     -270.53125      54061.146     -21136.964      3365.2337     -17771.73       1.0552395    
   1518000   308.20851      282.46753      53644.737     -21101.693      3447.9224     -17653.77       1.0634307    
   1519000   299.20619      318.42338      54182.993     -21051.817      3347.2137     -17704.603      1.0528665    
   1520000   305.5468       107.85872      54533.663     -21013.404      3418.146      -17595.258      1.0460962    
   1521000   301.59656      135.70611      54094.701     -21086.675      3373.9547     -17712.721      1.054585     
   1522000   297.70338      550.06239      54655.846     -21083.145      3330.4018     -17752.743      1.0437577    
   1523000   306.66517      610.45718      53983.95      -21176.945      3430.6571     -17746.288      1.0567485    
   1524000   297.0433       387.34616      54273.11      -21105.108      3323.0175     -17782.091      1.0511183    
   1525000   301.12535      321.51199      54397.465     -21203.836      3368.6833     -17835.153      1.0487154    
   1526000   295.53008     -248.76516      54656.593     -21007.803      3306.0891     -17701.714      1.0437434    
   1527000   300.91454     -812.9534       54488.207     -21052.314      3366.325      -17685.989      1.0469689    
   1528000   299.20815      293.97723      55185.97      -21168.479      3347.2357     -17821.243      1.0337312    
   1529000   307.36663     -70.528051      54926.576     -21026.183      3438.5043     -17587.679      1.038613     
   1530000   291.53469      424.09252      54715.615     -20990.282      3261.3928     -17728.89       1.0426175    
   1531000   299.09972     -155.15685      54833.65      -21051.377      3346.0226     -17705.355      1.0403732    
   1532000   305.33993      413.2632       54531.525     -21044.097      3415.8317     -17628.265      1.0461372    
   1533000   300.44644     -316.15215      54039.168     -21124.993      3361.0884     -17763.904      1.0556687    
   1534000   302.67215      558.15909      53929.892     -21017.93       3385.9873     -17631.943      1.0578077    
   1535000   294.77198      330.12176      54678.202     -21020.83       3297.6083     -17723.222      1.0433309    
   1536000   301.83803      740.04441      54471.729     -21102.112      3376.656      -17725.456      1.0472856    
   1537000   297.29045     -94.127584      54248.464     -20960.227      3325.7823     -17634.445      1.0515958    
   1538000   296.23842      237.20639      53986.419     -21023.009      3314.0133     -17708.995      1.0567002    
   1539000   299.12726      438.49904      53713.003     -21139.937      3346.3307     -17793.606      1.0620791    
   1540000   296.68925      813.04084      54303.791     -21188.028      3319.0567     -17868.971      1.0505244    
   1541000   299.48013      1209.6893      54258.582     -21058.976      3350.2783     -17708.698      1.0513997    
   1542000   306.12159      178.43338      54317.699     -20977.846      3424.5762     -17553.27       1.0502554    
   1543000   299.26485      401.43009      53656.313     -21107.255      3347.87       -17759.385      1.0632012    
   1544000   300.03143     -819.30264      54806.341     -21158.724      3356.4456     -17802.278      1.0408916    
   1545000   295.89493      53.836063      54391.08      -21047.92       3310.1707     -17737.749      1.0488385    
   1546000   302.31946     -69.354655      54216.314     -21135.654      3382.0417     -17753.613      1.0522194    
   1547000   308.05775      430.19524      54510.748     -20984.888      3446.2359     -17538.652      1.046536     
   1548000   295.37395      179.40033      54522.087     -21072.484      3304.3425     -17768.142      1.0463183    
   1549000   303.91975      383.87452      54485         -21123.951      3399.9442     -17724.007      1.0470305    
   1550000   296.55863      53.085686      55071.418     -21096.412      3317.5956     -17778.817      1.0358814    
   1551000   297.26884      460.9483       54488.805     -21041.227      3325.5406     -17715.687      1.0469574    
   1552000   301.92318      1066.606       54202.416     -21054.996      3377.6086     -17677.387      1.0524892    
   1553000   303.78722     -485.62696      54459.985     -21045.286      3398.4616     -17646.825      1.0475114    
   1554000   298.6993       109.42844      54297.113     -21136.287      3341.5431     -17794.744      1.0506536    
   1555000   301.37131     -171.72365      54105.952     -21130.53       3371.4349     -17759.095      1.0543656    
   1556000   304.46966     -440.56433      54339.882     -20972.452      3406.096      -17566.356      1.0498267    
   1557000   305.41924      33.70144       53995.65      -21096.429      3416.7189     -17679.71       1.0565195    
   1558000   292.37036     -360.92898      53914.464     -21160.876      3270.7414     -17890.134      1.0581105    
   1559000   297.98195      336.78656      54715.945     -21065.515      3333.5182     -17731.997      1.0426112    
   1560000   297.26197     -316.97101      54518.844     -21003.336      3325.4637     -17677.872      1.0463805    
   1561000   295.34974      114.40992      54704.32      -21024.807      3304.0716     -17720.735      1.0428328    
   1562000   300.8052       243.32748      53898.208     -20976.516      3365.1018     -17611.414      1.0584296    
   1563000   294.68835      770.6964       53826.345     -21052.551      3296.6727     -17755.879      1.0598427    
   1564000   295.01722      400.14852      54597.967     -21113.675      3300.3518     -17813.323      1.0448641    
   1565000   303.31437      298.37281      54606.022     -21005.057      3393.1718     -17611.885      1.04471      
   1566000   293.84938     -18.642724      54465.523     -21042.215      3287.2872     -17754.928      1.0474049    
   1567000   296.17175     -42.096969      54224.851     -21048.246      3313.2675     -17734.978      1.0520537    
   1568000   306.82953      110.31038      54604.488     -21004.73       3432.4959     -17572.234      1.0447394    
   1569000   300.89762      43.88187       54685.814     -21125.271      3366.1357     -17759.135      1.0431857    
   1570000   302.92896      387.92058      53847.479     -21053.165      3388.8603     -17664.304      1.0594267    
   1571000   293.34168     -494.63977      54826.092     -21020.326      3281.6076     -17738.718      1.0405166    
   1572000   303.3817       438.21994      54997.168     -20975.372      3393.925      -17581.447      1.0372799    
   1573000   304.78245      701.40483      54546.617     -21063.332      3409.5952     -17653.737      1.0458478    
   1574000   301.03965      337.09824      54666.874     -21030.636      3367.7246     -17662.912      1.0435471    
   1575000   295.35294     -297.83281      54267.304     -21263.097      3304.1075     -17958.989      1.0512307    
   1576000   294.37396     -466.53646      54189.536     -21097.622      3293.1557     -17804.466      1.0527394    
   1577000   305.01183     -25.844674      54490.157     -20911.948      3412.1613     -17499.787      1.0469314    
   1578000   297.27882      564.8221       54535.816     -21048.83       3325.6523     -17723.177      1.0460549    
   1579000   298.69038     -904.70154      54713.168     -21024.939      3341.4433     -17683.496      1.0426641    
   1580000   300.39816     -159.58603      54736.667     -20980.356      3360.5482     -17619.808      1.0422165    
   1581000   297.4702       472.52672      54231.68      -21049.034      3327.7932     -17721.241      1.0519213    
   1582000   296.43341     -797.26827      54093.269     -21072.958      3316.1947     -17756.764      1.0546129    
   1583000   294.24306     -552.91554      54364.743     -21091.805      3291.6913     -17800.113      1.0493466    
   1584000   301.85524      113.28186      54677.92      -20942.382      3376.8485     -17565.534      1.0433363    
   1585000   295.79248      187.33197      54498.667     -21111.682      3309.0246     -17802.657      1.0467679    
   1586000   301.26042     -1083.4803      54501.239     -21148.499      3370.1943     -17778.305      1.0467186    
   1587000   301.87058      819.16243      54108.541     -21100.893      3377.0202     -17723.873      1.0543152    
   1588000   300.0563       971.71829      54252.099     -21227.947      3356.7239     -17871.223      1.0515253    
   1589000   303.62924      506.65044      53993.871     -21178.594      3396.6942     -17781.9        1.0565543    
   1590000   296.82736      386.35948      54597.048     -21124.299      3320.6018     -17803.697      1.0448817    
   1591000   305.21212     -340.08156      54623.546     -21100.654      3414.4019     -17686.252      1.0443749    
   1592000   297.09596     -7.4165668      54587.837     -21089.477      3323.6065     -17765.87       1.045058     
   1593000   299.96521      523.51262      53839.197     -21119.55       3355.7049     -17763.845      1.0595897    
   1594000   298.98914      341.88598      54250.058     -21013.428      3344.7855     -17668.643      1.0515649    
   1595000   292.63012      437.91969      54361.773     -21025.571      3273.6473     -17751.924      1.0494039    
   1596000   296.42745      501.33752      54113.845     -21123.245      3316.128      -17807.117      1.0542119    
   1597000   304.91105      218.01029      54632.186     -21233.177      3411.0338     -17822.143      1.0442097    
   1598000   306.69358     -320.69753      55709.059     -20940.826      3430.975      -17509.851      1.0240248    
   1599000   297.72682     -541.53625      54989.157     -20998.253      3330.6641     -17667.589      1.037431     
   1600000   295.68121      270.75415      54222.731     -21002.07       3307.7798     -17694.29       1.0520949    
   1601000   303.29244      496.08758      54583.692     -20941.991      3392.9265     -17549.064      1.0451374    
   1602000   297.41025      442.23113      54321.521     -21083.958      3327.1225     -17756.835      1.0501815    
   1603000   296.71197     -487.23465      54519.977     -20882.477      3319.3109     -17563.166      1.0463588    
   1604000   296.73411      664.6565       54231.131     -21065.337      3319.5586     -17745.778      1.0519319    
   1605000   312.9509      -121.32447      54039.909     -21066.795      3500.9755     -17565.82       1.0556542    
   1606000   305.94057      341.66307      54529.206     -21044.262      3422.551      -17621.711      1.0461817    
   1607000   304.04772      124.30499      53985.82      -21064.471      3401.3758     -17663.095      1.0567119    
   1608000   297.48898     -799.14052      55050.715     -20991.723      3328.0033     -17663.72       1.036271     
   1609000   301.12436      465.02877      54397.441     -21035.476      3368.6723     -17666.804      1.0487158    
   1610000   294.86499     -23.938439      54133.718     -21105.917      3298.6488     -17807.268      1.0538249    
   1611000   299.93829     -203.94312      54242.539     -21105.251      3355.4037     -17749.847      1.0517107    
   1612000   307.09222      318.59797      53838.923     -21109.881      3435.4346     -17674.447      1.0595951    
   1613000   304.44546      701.35042      53940.028     -21059.885      3405.8253     -17654.06       1.057609     
   1614000   294.2238       75.119695      54602.318     -21016.572      3291.4758     -17725.096      1.0447809    
   1615000   298.76568      0.29613675     54735.362     -21142.375      3342.2858     -17800.089      1.0422414    
   1616000   305.71046      7.2845701      55052.984     -21041.493      3419.9768     -17621.516      1.0362282    
   1617000   302.12051      265.49465      54453.694     -21123.174      3379.8162     -17743.357      1.0476325    
   1618000   298.45596      93.536468      54240.378     -21129.908      3338.8209     -17791.087      1.0517526    
   1619000   300.09429     -414.49527      54887.82      -21096.556      3357.1489     -17739.407      1.0393464    
   1620000   293.2544       448.59199      54428.947     -21108.121      3280.6312     -17827.49       1.0481088    
   1621000   305.19565     -268.38784      54605.737     -21110.482      3414.2177     -17696.264      1.0447155    
   1622000   295.16374     -452.47298      54069.404     -21107.648      3301.9909     -17805.657      1.0550784    
   1623000   304.60501      798.16273      54664.728     -21116.977      3407.6101     -17709.367      1.0435881    
   1624000   302.55363     -46.530896      54319.87      -21029.742      3384.6614     -17645.081      1.0502134    
   1625000   302.34935     -95.087517      54251.785     -21046.197      3382.3762     -17663.821      1.0515314    
   1626000   308.50469     -54.970047      54378.632     -21027.813      3451.2358     -17576.577      1.0490786    
   1627000   301.59498     -503.89315      54714.608     -21062.678      3373.937      -17688.741      1.0426367    
   1628000   296.82577      163.11828      54761.321     -20838.556      3320.584      -17517.972      1.0417473    
   1629000   296.51859     -721.39596      54412.489     -21000.303      3317.1476     -17683.155      1.0484258    
   1630000   300.88378     -554.02452      54250.531     -21047.885      3365.9809     -17681.904      1.0515557    
   1631000   305.41006     -535.47024      54766.001     -21194.308      3416.6163     -17777.692      1.0416583    
   1632000   294.73503     -333.51762      54411.324     -20996.515      3297.1949     -17699.32       1.0484482    
   1633000   300.84983     -205.40835      54880.634     -21003.975      3365.6011     -17638.374      1.0394825    
   1634000   298.53641      563.3976       54399.923     -21090.491      3339.7208     -17750.771      1.048668     
   1635000   297.71941      343.57365      54402.478     -20895.227      3330.5812     -17564.646      1.0486187    
   1636000   302.57524     -297.97563      53957.222     -20993.212      3384.9032     -17608.309      1.057272     
   1637000   301.44307      902.69912      54280.616     -21132.619      3372.2376     -17760.382      1.0509729    
   1638000   303.12442      349.16175      54446.722     -21150.475      3391.0469     -17759.428      1.0477666    
   1639000   307.148        201.20481      54392.357     -21043.644      3436.0586     -17607.586      1.0488139    
   1640000   294.62884      359.02838      54181.53      -21070.592      3296.007      -17774.585      1.0528949    
   1641000   297.22263      205.49625      54544.313     -21104.661      3325.0237     -17779.638      1.045892     
   1642000   302.88978     -186.8527       54385.956     -21180.321      3388.4219     -17791.899      1.0489373    
   1643000   292.5054      -417.38095      54857.714     -21093.837      3272.2521     -17821.585      1.0399168    
   1644000   300.1033       287.09229      54021.221     -21074.426      3357.2497     -17717.177      1.0560194    
   1645000   293.31806      156.96714      53742.574     -21045.772      3281.3434     -17764.429      1.0614947    
   1646000   302.1099      -215.87347      54283.113     -21016.633      3379.6975     -17636.935      1.0509246    
   1647000   303.10357      123.43186      54248.779     -21037.623      3390.8136     -17646.809      1.0515897    
   1648000   299.7113       148.6018       54117.913     -20994.221      3352.8643     -17641.357      1.0541326    
   1649000   300.00786     -138.97426      54118.507     -21088.098      3356.1819     -17731.917      1.0541211    
   1650000   295.09575     -239.74881      54528.124     -21081.158      3301.2303     -17779.928      1.0462025    
   1651000   302.39244      192.76963      54550.858     -21101.931      3382.8582     -17719.073      1.0457665    
   1652000   299.2804       4.0172783      54631.568     -21102.688      3348.0439     -17754.644      1.0442215    
   1653000   298.09536     -66.093769      54310.643     -21076.628      3334.7868     -17741.842      1.0503919    
   1654000   292.74463      447.71559      54730.123     -20998.018      3274.9284     -17723.09       1.0423411    
   1655000   299.39737     -507.39022      54569.631     -20982.905      3349.3525     -17633.553      1.0454067    
   1656000   307.4497       363.02691      54403.804     -21145.512      3439.4337     -17706.078      1.0485932    
   1657000   296.83184      226.58567      54330.302     -21034.439      3320.6519     -17713.788      1.0500118    
   1658000   300.44175     -419.93397      54171.107     -21104.065      3361.0359     -17743.029      1.0530975    
   1659000   311.23907      129.85638      53970.883     -21007.2        3481.8253     -17525.374      1.0570043    
   1660000   297.75868      944.69738      54096.834     -21075.799      3331.0204     -17744.778      1.0545434    
   1661000   300.82974     -182.35036      53779.991     -21106.012      3365.3764     -17740.636      1.0607562    
   1662000   304.4749       468.84019      54268.62      -21054.434      3406.1546     -17648.28       1.0512052    
   1663000   303.95823     -557.17972      54380.569     -21069.821      3400.3747     -17669.446      1.0490412    
   1664000   295.45759     -456.05786      54438.085     -20977.179      3305.2782     -17671.901      1.0479328    
   1665000   301.80113      1471.253       54018.113     -21102.126      3376.2433     -17725.883      1.0560802    
   1666000   299.61184      544.62375      54117.953     -21060.132      3351.7517     -17708.38       1.0541318    
   1667000   300.28304     -103.0724       54298.59      -21164.647      3359.2604     -17805.386      1.050625     
   1668000   307.49292      586.14684      53892.855     -21109.718      3439.9171     -17669.801      1.0585347    
   1669000   302.14555      882.03158      54254.4       -21044.291      3380.0963     -17664.195      1.0514808    
   1670000   297.44599     -165.68044      54217.915     -21118.46       3327.5223     -17790.938      1.0521883    
   1671000   297.54764     -689.98721      54322.527     -20993.461      3328.6595     -17664.802      1.0501621    
   1672000   295.38086     -723.13644      54705.581     -20997.082      3304.4198     -17692.662      1.0428087    
   1673000   303.96235     -220.12119      54600.903     -20932.249      3400.4208     -17531.828      1.0448079    
   1674000   298.20467     -209.35613      54162.768     -21061.727      3336.0097     -17725.717      1.0532596    
   1675000   305.75766     -252.79919      54245.011     -21068.364      3420.5049     -17647.859      1.0516628    
   1676000   303.50433      351.73717      54506.06      -21164.446      3395.2969     -17769.149      1.046626     
   1677000   300.28343      615.5741       54416.836     -21110.248      3359.2648     -17750.983      1.048342     
   1678000   299.606        89.139463      54053.484     -21091.077      3351.6864     -17739.391      1.0553891    
   1679000   300.49499     -182.84851      54530.841     -21084.432      3361.6314     -17722.801      1.0461503    
   1680000   302.25415      50.71274       54276.103     -21238.646      3381.3112     -17857.334      1.0510603    
   1681000   300.94036      282.79725      53956.136     -21125.971      3366.6138     -17759.358      1.0572932    
   1682000   300.35149     -49.354137      54407.397     -21144.213      3360.0261     -17784.187      1.0485239    
   1683000   296.84529     -759.85087      55013.78      -21081.831      3320.8023     -17761.029      1.0369667    
   1684000   300.27         541.01766      53999.696     -21042.533      3359.1145     -17683.418      1.0564403    
   1685000   311.32447      235.8478       54895.371     -21134.821      3482.7807     -17652.04       1.0392034    
   1686000   302.86712      348.31485      53843.79      -21125.921      3388.1684     -17737.752      1.0594993    
   1687000   304.24963     -38.660295      54472.753     -21126.749      3403.6346     -17723.114      1.0472659    
   1688000   305.20361      241.24768      53913.537     -21124.968      3414.3067     -17710.661      1.0581286    
   1689000   288.33591      102.40074      54365.438     -21002.455      3225.6081     -17776.847      1.0493332    
   1690000   297.61755     -187.84273      54863.597     -20978.591      3329.4417     -17649.15       1.0398053    
   1691000   308.61567     -236.64264      54426.832     -21104.011      3452.4774     -17651.533      1.0481495    
   1692000   294.15278      25.27585       54506.826     -20987.291      3290.6813     -17696.61       1.0466113    
   1693000   298.20879      720.63112      54483.652     -21066.298      3336.0558     -17730.242      1.0470564    
   1694000   297.49167     -309.59251      54416.805     -21089.923      3328.0334     -17761.889      1.0483427    
   1695000   300.69665     -26.043047      54560.464     -21028.169      3363.8875     -17664.282      1.0455823    
   1696000   299.9782       369.17002      54614.181     -21223.523      3355.8502     -17867.673      1.0445539    
   1697000   304.1516      -728.16025      55018.264     -21095.755      3402.5379     -17693.217      1.0368822    
   1698000   303.65324      582.38001      54348.94      -21050.647      3396.9628     -17653.685      1.0496517    
   1699000   308.96611     -483.57464      54597.273     -21039.538      3456.3977     -17583.141      1.0448774    
   1700000   303.60492     -696.95663      54845.734     -21189.983      3396.4222     -17793.561      1.0401439    
   1701000   302.76879     -251.59501      54786.361     -20861.049      3387.0684     -17473.981      1.0412712    
   1702000   300.53874     -767.94737      54332.316     -20915.676      3362.121      -17553.555      1.0499729    
   1703000   309.30461      665.01993      54021.088     -21065.943      3460.1846     -17605.758      1.056022     
   1704000   301.4937      -285.43687      54130.173     -20963.728      3372.804      -17590.924      1.0538939    
   1705000   306.29125     -310.10395      54548.163     -21055.116      3426.4742     -17628.642      1.0458181    
   1706000   301.11815      543.81856      54650.118     -20973.317      3368.6027     -17604.714      1.043867     
   1707000   302.20851      250.4506       54213.783     -21122.868      3380.8005     -17742.067      1.0522685    
   1708000   300.5532       185.74015      54359.066     -21197.853      3362.2827     -17835.57       1.0494562    
   1709000   296.8745      -82.172168      54680.559     -20970.05       3321.1291     -17648.921      1.0432859    
   1710000   299.32484     -258.1911       54041.064     -21042.139      3348.5411     -17693.598      1.0556317    
   1711000   299.84815     -528.94595      54998.816     -21076.709      3354.3953     -17722.314      1.0372488    
   1712000   297.08998      336.22635      54023.585     -21043.033      3323.5397     -17719.493      1.0559732    
   1713000   301.71785     -661.7957       54206.546     -21039.965      3375.3116     -17664.654      1.052409     
   1714000   304.53206     -77.898546      54301.742     -21047.67       3406.7941     -17640.876      1.050564     
   1715000   298.63803      243.76858      54432.476     -21048.361      3340.8577     -17707.503      1.0480408    
   1716000   294.79414      944.27479      54186.052     -21148.82       3297.8562     -17850.964      1.0528071    
   1717000   296.05265     -537.76185      54700.609     -21038.557      3311.9351     -17726.622      1.0429035    
   1718000   294.75556      197.2085       54401.2       -21145.682      3297.4246     -17848.257      1.0486434    
   1719000   302.17256      130.99693      54255.185     -21075.48       3380.3984     -17695.081      1.0514655    
   1720000   308.69536     -467.57396      54296.826     -21048.035      3453.3689     -17594.666      1.0506592    
   1721000   303.25209     -183.51977      54357.493     -20955.781      3392.4751     -17563.306      1.0494865    
   1722000   297.49953     -252.9755       54175.914     -20921.006      3328.1213     -17592.885      1.0530041    
   1723000   298.96812     -255.4991       54458.204     -21162.68       3344.5505     -17818.129      1.0475457    
   1724000   298.01282      464.07976      54137.627     -21169.027      3333.8635     -17835.163      1.0537488    
   1725000   297.47593     -730.90191      54189.645     -21061.433      3327.8573     -17733.575      1.0527372    
   1726000   300.73551      881.2343       54623.536     -21035.832      3364.3222     -17671.51       1.044375     
   1727000   299.19312      92.987781      54370.574     -20987.829      3347.0675     -17640.762      1.049234     
   1728000   301.87539     -142.62456      54468.158     -21132.47       3377.074      -17755.396      1.0473543    
   1729000   300.63251     -443.68369      54884.129     -21080.768      3363.1699     -17717.598      1.0394163    
   1730000   298.66169      1092.4163      54185.491     -21002.089      3341.1224     -17660.967      1.052818     
   1731000   296.52345     -520.61377      54988.839     -21016.279      3317.202      -17699.077      1.037437     
   1732000   300.35679      525.55424      54521.08      -21038.612      3360.0855     -17678.526      1.0463376    
   1733000   294.15454      108.79805      54521.732     -21024.21       3290.701      -17733.509      1.0463251    
   1734000   303.06095     -47.079754      54373.143     -21020.239      3390.3369     -17629.902      1.0491845    
   1735000   301.80106      322.05217      54459.86      -20994.422      3376.2425     -17618.179      1.0475138    
   1736000   301.30207      199.12222      54578.314     -20930.468      3370.6602     -17559.808      1.0452404    
   1737000   298.27058      355.64185      54790.126     -21039.595      3336.747      -17702.848      1.0411996    
   1738000   297.34394      225.06113      54720.636     -21031.612      3326.3808     -17705.231      1.0425218    
   1739000   303.47837     -451.25451      54267.09      -21028.652      3395.0065     -17633.646      1.0512349    
   1740000   308.70627      87.983258      54047.803     -21068.905      3453.491      -17615.414      1.0555       
   1741000   303.75441     -849.23627      54491.023     -21063.689      3398.0945     -17665.595      1.0469148    
   1742000   302.61149      490.24254      54558.242     -21030.697      3385.3087     -17645.388      1.0456249    
   1743000   297.50871     -402.88992      53941.751     -21087.93       3328.224      -17759.706      1.0575752    
   1744000   296.55372      293.20536      54406.791     -20988.135      3317.5406     -17670.594      1.0485356    
   1745000   303.91985      2.4178118      54149.727     -21084.834      3399.9453     -17684.889      1.0535133    
   1746000   304.38874      33.589655      54732.65      -20999.21       3405.1907     -17594.019      1.042293     
   1747000   298.00088      243.43699      54574.912     -21037.243      3333.7299     -17703.513      1.0453055    
   1748000   299.21617      468.59306      54372.703     -21138.208      3347.3253     -17790.882      1.049193     
   1749000   301.33396      905.3425       54251.417     -21143.789      3371.017      -17772.772      1.0515386    
   1750000   300.21922      392.4921       54567.477     -20995.154      3358.5464     -17636.608      1.045448     
   1751000   301.19193      45.437832      54675.494     -21021.07       3369.4281     -17651.641      1.0433826    
   1752000   297.05447      762.22787      54407.433     -21060.344      3323.1425     -17737.201      1.0485232    
   1753000   295.76281      951.99464      53588.481     -20939.319      3308.6926     -17630.626      1.064547     
   1754000   291.14254      191.23368      54122.072     -21058.513      3257.0058     -17801.507      1.0540516    
   1755000   302.19019     -304.50885      53943.377     -21131.668      3380.5957     -17751.073      1.0575433    
   1756000   299.41057     -82.689257      54580.096     -20913.158      3349.5        -17563.658      1.0452063    
   1757000   297.1932       82.010666      54143.527     -21071.668      3324.6944     -17746.974      1.0536339    
   1758000   307.84676      755.88796      54002.635     -21059.739      3443.8756     -17615.863      1.0563829    
   1759000   295.40055     -21.320867      54335.949     -21046.975      3304.64       -17742.335      1.0499027    
   1760000   304.73694     -245.88088      54647.114     -21042.781      3409.086      -17633.695      1.0439244    
   1761000   301.64073     -52.853773      54734.756     -21051.992      3374.4489     -17677.544      1.0422529    
   1762000   303.66624      238.39154      54476.067     -21024.863      3397.1082     -17627.755      1.0472022    
   1763000   302.68275     -320.75453      54290.037     -21058.892      3386.1059     -17672.786      1.0507906    
   1764000   299.82191     -44.794922      54260.095     -20882.886      3354.1017     -17528.784      1.0513704    
   1765000   288.73728     -440.89036      54716.736     -21068.757      3230.0982     -17838.659      1.0425961    
   1766000   293.68385     -907.69977      54797.162     -21184.406      3285.4353     -17898.97       1.0410659    
   1767000   300.30144     -741.25416      54179.606     -21026.635      3359.4663     -17667.168      1.0529323    
   1768000   304.87154      375.33635      54533.637     -20918.829      3410.5918     -17508.237      1.0460967    
   1769000   296.74391      97.568196      54477.984     -20987.657      3319.6682     -17667.989      1.0471654    
   1770000   296.6436       298.75862      54414.015     -21104.577      3318.5461     -17786.031      1.0483964    
   1771000   297.49399     -597.34438      54331.128     -21124.726      3328.0594     -17796.666      1.0499958    
   1772000   302.41674     -38.898039      54277.974     -21195.827      3383.13       -17812.697      1.0510241    
   1773000   293.29925     -598.32718      54381.771     -20977.726      3281.1329     -17696.593      1.049018     
   1774000   297.4255       587.5794       54347.5       -21013.016      3327.2931     -17685.723      1.0496795    
   1775000   298.37571      403.22554      54124.027     -21079.799      3337.9231     -17741.876      1.0540135    
   1776000   303.29463     -994.57235      54200.888     -21150.511      3392.951      -17757.56       1.0525189    
   1777000   303.0263      -173.0425       54880.961     -21026.855      3389.9492     -17636.905      1.0394763    
   1778000   307.48353     -916.45269      54677.078     -21058.126      3439.8122     -17618.314      1.0433524    
   1779000   303.04324     -476.92054      54258.059     -21097.121      3390.1387     -17706.982      1.0514098    
   1780000   303.76815      254.06924      54206.915     -21115.417      3398.2483     -17717.169      1.0524019    
   1781000   300.8352      -693.71331      54876.891     -21089.397      3365.4374     -17723.96       1.0395534    
   1782000   289.25383      248.11943      55008.628     -20993.204      3235.8768     -17757.327      1.0370638    
   1783000   298.30215     -30.78521       53928.233     -21109.314      3337.1002     -17772.214      1.0578403    
   1784000   304.64264      102.22232      54149.72      -20974.964      3408.0311     -17566.933      1.0535134    
   1785000   292.28011      29.065453      54728.972     -21016.177      3269.7317     -17746.445      1.042363     
   1786000   297.64785     -642.31428      54268.275     -20979.379      3329.7806     -17649.598      1.0512119    
   1787000   298.1829       227.25997      54369.187     -20993.221      3335.7662     -17657.455      1.0492608    
   1788000   295.22644      561.80136      54591.355     -20858.645      3302.6923     -17555.953      1.0449907    
   1789000   300.7613       475.4252       54400.107     -20930.182      3364.6107     -17565.571      1.0486644    
   1790000   303.43483      137.76221      54503.073     -20973.351      3394.5194     -17578.831      1.0466833    
   1791000   297.49707      386.73212      54342.716     -21004.497      3328.0938     -17676.403      1.0497719    
   1792000   299.79697      1094.3787      54242.164     -21127.923      3353.8227     -17774.101      1.0517179    
   1793000   290.97341      181.35322      54217.652     -21118.05       3255.1138     -17862.936      1.0521934    
   1794000   289.52632     -335.55973      54532.294     -21045.652      3238.9252     -17806.727      1.0461225    
   1795000   301.11253     -454.97574      54499.778     -21078.463      3368.5399     -17709.923      1.0467466    
   1796000   295.57457      1247.7696      54603.377     -21009.332      3306.5869     -17702.745      1.0447606    
   1797000   300.20907     -799.20742      54573.17      -21073.322      3358.4329     -17714.889      1.0453389    
   1798000   301.89387      1155.0775      54245.051     -21191.273      3377.2807     -17813.992      1.051662     
   1799000   302.199        298.02712      54452.303     -21154.42       3380.6942     -17773.726      1.0476592    
   1800000   303.21878      154.91236      54367.003     -21220.217      3392.1025     -17828.115      1.049303     
   1801000   302.34256      892.11153      54104.03      -21151.048      3382.3002     -17768.747      1.0544031    
   1802000   297.7512       544.96517      53892.01      -21116.832      3330.9368     -17785.896      1.0585513    
   1803000   300.99106     -1188.3377      54949.223     -21065.168      3367.181      -17697.987      1.038185     
   1804000   301.37303     -216.92624      54454.427     -21095.705      3371.4541     -17724.251      1.0476184    
   1805000   301.67148      937.40077      54453.139     -21021.914      3374.7929     -17647.121      1.0476431    
   1806000   294.69137     -16.097412      54178.715     -21088.944      3296.7065     -17792.237      1.0529496    
   1807000   298.71122     -93.321738      54150.662     -21111.92       3341.6765     -17770.243      1.0534951    
   1808000   296.82944      187.23536      54242.079     -21136.744      3320.6251     -17816.119      1.0517196    
   1809000   296.29491     -2.5222774      54446.745     -21019.602      3314.6453     -17704.957      1.0477662    
   1810000   298.59472     -257.8101       54602.289     -20981.041      3340.3732     -17640.668      1.0447814    
   1811000   300.67914      114.60794      54801.099     -21099.373      3363.6916     -17735.681      1.0409911    
   1812000   301.90181      164.11582      54838.03      -21056.203      3377.3695     -17678.833      1.0402901    
   1813000   303.20853      533.4542       54699.618     -21093.982      3391.9878     -17701.994      1.0429224    
   1814000   301.9988      -841.08534      54846.483     -21010.295      3378.4546     -17631.84       1.0401297    
   1815000   295.88885     -944.78095      54622.912     -21037.956      3310.1027     -17727.854      1.044387     
   1816000   299.13815     -227.34704      54500.045     -21053.54       3346.4525     -17707.088      1.0467415    
   1817000   295.21133     -301.42094      54497.745     -21075.742      3302.5233     -17773.219      1.0467857    
   1818000   301.34399     -88.571246      54138.101     -21104.023      3371.1292     -17732.894      1.0537395    
   1819000   289.27594     -523.52225      54077.573     -21197.804      3236.1241     -17961.68       1.054919     
   1820000   298.38791      207.5139       54748.954     -21206.936      3338.0596     -17868.876      1.0419826    
   1821000   306.12512      625.13095      54491.238     -21010.258      3424.6156     -17585.642      1.0469107    
   1822000   300.825        439.14862      53942.696     -21139.988      3365.3233     -17774.665      1.0575567    
   1823000   298.70704     -354.12874      54531.076     -21163.644      3341.6297     -17822.014      1.0461458    
   1824000   301.97748      130.36882      54432.731     -21143.868      3378.216      -17765.652      1.0480359    
   1825000   298.17422      503.55901      54493.604     -21027.858      3335.6691     -17692.189      1.0468652    
   1826000   297.5733      -85.239131      54777.291     -21098.664      3328.9466     -17769.717      1.0414436    
   1827000   299.55781     -857.49106      54710.202     -21131.472      3351.1473     -17780.325      1.0427207    
   1828000   301.92453      82.505104      54414.5       -21052.732      3377.6237     -17675.109      1.0483871    
   1829000   291.88118     -18.654266      54329.984     -21180.798      3265.269      -17915.529      1.0500179    
   1830000   298.64006     -478.06821      54319.177     -21164.413      3340.8804     -17823.533      1.0502268    
   1831000   295.39938      602.31735      54244.804     -21090.103      3304.627      -17785.476      1.0516668    
   1832000   304.96448      561.60632      54058.732     -21144.558      3411.6316     -17732.926      1.0552866    
   1833000   296.822        278.50082      54321.751     -20944.789      3320.5418     -17624.247      1.0501771    
   1834000   298.1413       155.47363      54852.844     -21129.248      3335.3008     -17793.947      1.0400091    
   1835000   297.43178     -378.05635      54102.689     -21115.558      3327.3634     -17788.194      1.0544292    
   1836000   300.87652      36.762815      54064.631     -20981.688      3365.8996     -17615.789      1.0551715    
   1837000   301.41172     -437.13541      54536.596     -21120.476      3371.887      -17748.589      1.0460399    
   1838000   300.13841     -1791.2301      54495.052     -21110.408      3357.6424     -17752.766      1.0468374    
   1839000   303.32368     -194.8707       54215.964     -21039.911      3393.276      -17646.635      1.0522262    
   1840000   297.95735     -52.636978      54270.496     -21139.677      3333.243      -17806.434      1.0511689    
   1841000   295.23621      9.9795818      54507.477     -21016.746      3302.8016     -17713.945      1.0465988    
   1842000   303.86019      184.47658      54745.544     -21103.898      3399.2779     -17704.62       1.0420475    
   1843000   307.15619      380.37855      54665.466     -21138.51       3436.1502     -17702.36       1.043574     
   1844000   303.4413       267.50658      54567.534     -21146.856      3394.5918     -17752.264      1.0454469    
   1845000   295.3407      -18.947587      54672.352     -21114.945      3303.9705     -17810.975      1.0434425    
   1846000   307.11366      793.97597      54168.917     -21021.478      3435.6744     -17585.804      1.0531401    
   1847000   301.16559      357.17346      54556.522     -21104.046      3369.1335     -17734.913      1.0456579    
   1848000   302.25962      293.36057      54357.537     -21050.482      3381.3724     -17669.109      1.0494857    
   1849000   303.5016       292.38696      54287.514     -21104.385      3395.2664     -17709.119      1.0508394    
   1850000   299.66854     -334.14982      54154.582     -21020.474      3352.386      -17668.088      1.0534188    
   1851000   304.31078     -291.76001      54834.337     -20874.24       3404.3187     -17469.922      1.0403601    
   1852000   305.08392     -903.7668       54375.553     -20978.355      3412.9678     -17565.387      1.049138     
   1853000   300.51373      361.37406      54254.013     -21092.825      3361.8411     -17730.984      1.0514883    
   1854000   298.01227      559.06657      54061.881     -20923.582      3333.8573     -17589.725      1.0552252    
   1855000   297.57145     -1004.775       54456.967     -21038.299      3328.9259     -17709.374      1.0475695    
   1856000   300.84156      245.63493      54311.681     -21067.005      3365.5085     -17701.496      1.0503718    
   1857000   297.12569     -561.55966      54901.602     -21159.377      3323.9391     -17835.438      1.0390855    
   1858000   300.1228      -279.93941      54749.1       -21115.496      3357.4677     -17758.028      1.0419798    
   1859000   301.25596      126.62891      54351.281     -20976.589      3370.1444     -17606.445      1.0496065    
   1860000   305.50322     -175.05785      53938.029     -21124.574      3417.6585     -17706.915      1.0576482    
   1861000   296.86242      1136.7403      54247.006     -21057.198      3320.994      -17736.204      1.0516241    
   1862000   294.8199       205.17841      54707.738     -21023.484      3298.1443     -17725.34       1.0427676    
   1863000   307.98937      569.51343      54121.449     -21013.9        3445.4709     -17568.43       1.0540637    
   1864000   294.7533       301.24536      54345.153     -21139.275      3297.3993     -17841.876      1.0497249    
   1865000   305.52482     -138.00464      54052.59      -21022.305      3417.9        -17604.405      1.0554066    
   1866000   302.5594      -278.23746      54779.11      -20891.801      3384.726      -17507.075      1.041409     
   1867000   296.64422     -293.05669      54279.614     -21001.881      3318.5529     -17683.328      1.0509923    
   1868000   297.97877      25.335364      54700.618     -21067.141      3333.4826     -17733.658      1.0429033    
   1869000   299.70544     -818.68443      54857.859     -21010.426      3352.7988     -17657.627      1.039914     
   1870000   300.51552      272.06309      54012.618     -21069.348      3361.8612     -17707.487      1.0561876    
   1871000   305.77035      278.84472      54760.771     -20977.562      3420.6469     -17556.915      1.0417578    
   1872000   302.86263      385.93834      54253.368     -21059.112      3388.1182     -17670.994      1.0515008    
   1873000   302.67712      580.50883      54035.713     -21065.097      3386.0429     -17679.054      1.0557362    
   1874000   305.2779       29.223511      54558         -21089.275      3415.1378     -17674.137      1.0456296    
   1875000   301.71268     -279.10689      54686.957     -21014.089      3375.2537     -17638.836      1.0431639    
   1876000   300.77784      1260.85        54049.291     -21137.249      3364.7957     -17772.454      1.055471     
   1877000   300.52541     -231.70467      54905.659     -21068.653      3361.9718     -17706.681      1.0390087    
   1878000   299.92677      1157.9064      54344.635     -21090.936      3355.2748     -17735.662      1.0497349    
   1879000   303.55038     -1.2743382      54500.109     -20869.18       3395.8121     -17473.368      1.0467402    
   1880000   303.30821     -591.23131      54534.494     -21052.182      3393.1029     -17659.079      1.0460803    
   1881000   303.13581      267.68265      54181.285     -21024.162      3391.1743     -17632.987      1.0528997    
   1882000   295.295        371.14174      54430.878     -21076.808      3303.4593     -17773.348      1.0480716    
   1883000   296.01601     -332.41819      54325.231     -21073.432      3311.5252     -17761.906      1.0501098    
   1884000   298.99921      143.8799       54241.875     -21004.294      3344.8982     -17659.396      1.0517236    
   1885000   296.68954      641.92088      54314.237     -21103.053      3319.0599     -17783.993      1.0503224    
   1886000   302.36174      306.08501      54803.597     -21097.156      3382.5148     -17714.641      1.0409437    
   1887000   304.1328       159.40413      54568.457     -21063.245      3402.3276     -17660.917      1.0454292    
   1888000   304.67848     -244.6495       54519.756     -21010.385      3408.432      -17601.953      1.046363     
   1889000   306.38165      701.34835      54065.088     -20980.679      3427.4854     -17553.193      1.0551626    
   1890000   305.38226      299.8707       54630.84      -20939.211      3416.3053     -17522.906      1.0442354    
   1891000   290.59318     -1221.0629      54114.468     -21040.933      3250.8601     -17790.073      1.0541997    
   1892000   302.30696      996.40331      54391.3       -20969.221      3381.9019     -17587.32       1.0488342    
   1893000   306.29828      557.30523      54234.783     -21045.502      3426.5528     -17618.949      1.0518611    
   1894000   298.85656     -410.85285      54466.727     -21142.151      3343.3024     -17798.849      1.0473818    
   1895000   298.45413      508.45009      54296.918     -21043.61       3338.8005     -17704.81       1.0506574    
   1896000   300.93605     -85.326095      54945.602     -20973.002      3366.5656     -17606.437      1.0382534    
   1897000   302.27691     -291.94464      54421.143     -20996.569      3381.5658     -17615.003      1.0482591    
   1898000   297.92863     -736.56984      54677.445     -20939.241      3332.9217     -17606.319      1.0433454    
   1899000   305.79782     -101.6719       54159.699     -21041.474      3420.9541     -17620.52       1.0533193    
   1900000   299.13124      434.92269      54136.867     -21008.223      3346.3752     -17661.848      1.0537636    
   1901000   301.55323      452.13475      54218.036     -21006.695      3373.47       -17633.225      1.052186     
   1902000   293.27442      135.1727       55103.198     -21061.138      3280.8552     -17780.283      1.035284     
   1903000   302.15608     -172.93935      54598.919     -21133.586      3380.2141     -17753.372      1.0448459    
   1904000   292.10185     -149.97248      54318.34      -21126.01       3267.7376     -17858.272      1.050243     
   1905000   305.25288     -754.66374      54824.273     -21065.142      3414.8579     -17650.284      1.0405511    
   1906000   301.55954      118.40852      54524.417     -21136.806      3373.5406     -17763.265      1.0462736    
   1907000   297.53898     -983.43714      54410.512     -21091.836      3328.5627     -17763.273      1.0484639    
   1908000   298.88123      287.72952      54637.239     -21033.328      3343.5784     -17689.749      1.0441131    
   1909000   299.4736       29.697317      54274.261     -21224.604      3350.2052     -17874.399      1.051096     
   1910000   295.22878      424.04364      54080.493     -21136.091      3302.7185     -17833.372      1.054862     
   1911000   297.58002     -874.19584      55073.075     -21088.348      3329.0217     -17759.327      1.0358502    
   1912000   303.12862      82.883486      54224.163     -21062.72       3391.0939     -17671.626      1.0520671    
   1913000   300.50442      185.38352      54394.296     -21091.788      3361.7369     -17730.052      1.0487765    
   1914000   303.11965      488.75023      54067.351     -21001.348      3390.9935     -17610.355      1.0551184    
   1915000   300.21617     -51.7519        54332.176     -21087.966      3358.5123     -17729.454      1.0499756    
   1916000   301.23306      584.51889      54500.054     -20983.022      3369.8882     -17613.134      1.0467413    
   1917000   297.79431      75.100946      54809.859     -21059.314      3331.4191     -17727.895      1.0408247    
   1918000   302.8007       582.77488      54249.325     -20989.095      3387.4254     -17601.67       1.0515791    
   1919000   298.53212      183.07463      54533.276     -21026.305      3339.6729     -17686.632      1.0461036    
   1920000   303.66686      925.25755      54363.252     -21188.253      3397.1151     -17791.138      1.0493754    
   1921000   297.93929      340.27299      54148.623     -21108.492      3333.0409     -17775.452      1.0535348    
   1922000   299.05702     -12.479004      54454.749     -21051.921      3345.5449     -17706.377      1.0476122    
   1923000   304.0275      -141.30242      54556.544     -21010.836      3401.1496     -17609.686      1.0456575    
   1924000   295.17203     -233.86403      54359.95      -20974.166      3302.0836     -17672.082      1.0494391    
   1925000   304.54705      142.51224      54300.419     -21031.902      3406.9618     -17624.94       1.0505896    
   1926000   296.78528     -69.480068      54225.474     -21089.566      3320.131      -17769.435      1.0520417    
   1927000   301.50347     -498.91742      54529.132     -21010.508      3372.9134     -17637.595      1.0461831    
   1928000   300.64507     -717.95707      54749.318     -21140.451      3363.3104     -17777.14       1.0419757    
   1929000   296.51488      491.78499      54552.343     -21207.184      3317.106      -17890.078      1.045738     
   1930000   302.35842      487.3825       54572.519     -21149.499      3382.4776     -17767.022      1.0453514    
   1931000   292.06651      283.22124      54430.016     -21096.842      3267.3423     -17829.5        1.0480882    
   1932000   299.56811     -161.99622      54940.859     -21005.316      3351.2625     -17654.053      1.038343     
   1933000   294.80983     -509.08099      54642.667     -21027.026      3298.0317     -17728.994      1.0440094    
   1934000   296.24538      22.922833      54342.778     -21098.592      3314.0911     -17784.501      1.0497707    
   1935000   292.5732      -137.81749      55037.069     -21061.015      3273.0106     -17788.004      1.0365279    
   1936000   303.02498     -715.24791      54614.409     -21050.951      3389.9344     -17661.017      1.0445496    
   1937000   305.9257       493.52493      54631.999     -21095.217      3422.3847     -17672.832      1.0442133    
   1938000   303.5428       280.51061      54808.477     -21104.791      3395.7272     -17709.063      1.040851     
   1939000   304.98553     -693.21313      55121.681     -21026.063      3411.867      -17614.196      1.0349368    
   1940000   296.82826     -509.40624      54299.542     -21088.888      3320.6119     -17768.276      1.0506066    
   1941000   307.9843      -91.123002      54595.294     -21004.742      3445.4142     -17559.328      1.0449153    
   1942000   303.27803     -1116.6923      54278.25      -21029.412      3392.7653     -17636.646      1.0510187    
   1943000   302.41876      414.74473      53676.125     -21018.983      3383.1526     -17635.831      1.0628088    
   1944000   302.14851      405.05964      54252.689     -21049.524      3380.1294     -17669.395      1.0515139    
   1945000   298.84255      201.64546      54112.982     -20943.615      3343.1456     -17600.469      1.0542287    
   1946000   303.59312      232.49452      54503.925     -21077.169      3396.2902     -17680.879      1.046667     
   1947000   296.51467     -170.56907      54492.289     -21049.301      3317.1038     -17732.198      1.0468905    
   1948000   293.6319      -347.0193       54335.752     -21138.334      3284.8542     -17853.48       1.0499065    
   1949000   301.20494      328.51635      54335.965     -21093.543      3369.5737     -17723.969      1.0499024    
   1950000   302.31221      417.25581      54434.756     -20999.088      3381.9607     -17617.127      1.0479969    
   1951000   299.06203     -361.35749      54712.586     -21096.514      3345.601      -17750.913      1.0426752    
   1952000   308.55325     -480.23373      54175.072     -21040.89       3451.7791     -17589.111      1.0530204    
   1953000   294.13685      599.12259      54607.231     -21013.715      3290.5031     -17723.212      1.0446869    
   1954000   293.79791     -596.89441      54316.456     -20872.493      3286.7114     -17585.782      1.0502794    
   1955000   302.56274      8.6499845      54359.454     -20986.907      3384.7634     -17602.144      1.0494487    
   1956000   303.05167     -726.31671      54427.606     -21054.782      3390.233      -17664.549      1.0481346    
   1957000   303.37172      255.45922      54109.535     -20994.333      3393.8135     -17600.52       1.0542958    
   1958000   300.46831     -434.54247      54529.065     -20963.166      3361.3331     -17601.833      1.0461844    
   1959000   305.9028      -429.00364      53890.48      -20985.14       3422.1285     -17563.012      1.0585814    
   1960000   298.72622     -998.01065      54453.591     -20983.55       3341.8443     -17641.706      1.0476344    
   1961000   298.35267     -312.76755      54541.818     -21135.477      3337.6654     -17797.812      1.0459398    
   1962000   305.47732     -850.09205      54565.839     -21037.235      3417.3687     -17619.866      1.0454793    
   1963000   297.58327      531.77637      54889.77      -21182.383      3329.0582     -17853.325      1.0393095    
   1964000   294.24685      647.42065      53865.228     -21123.672      3291.7336     -17831.938      1.0590776    
   1965000   297.65734      505.3026       53910.858     -21133.804      3329.8868     -17803.917      1.0581812    
   1966000   298.05057      30.662126      54150.912     -21024.946      3334.2858     -17690.66       1.0534902    
   1967000   299.79381     -376.45336      54504.519     -21005.888      3353.7874     -17652.101      1.0466556    
   1968000   298.56466      320.13496      54081.713     -20973.247      3340.0369     -17633.21       1.0548382    
   1969000   312.73789     -408.64486      54626.271     -20980.389      3498.5925     -17481.796      1.0443227    
   1970000   297.54337      883.67969      54218.329     -20993.061      3328.6118     -17664.449      1.0521803    
   1971000   292.15506      542.91479      54122.458     -20991.08       3268.3328     -17722.747      1.0540441    
   1972000   300.77806     -203.62821      54677.78      -20971.951      3364.7981     -17607.153      1.0433389    
   1973000   304.21494      185.68649      54393.114     -21079.83       3403.2465     -17676.583      1.0487993    
   1974000   303.69376      324.62486      54271.124     -21071.1        3397.416      -17673.684      1.0511567    
   1975000   307.84693      492.58275      54132.116     -21108.541      3443.8775     -17664.664      1.0538561    
   1976000   304.17549      192.82692      54384.881     -21055.526      3402.8052     -17652.721      1.048958     
   1977000   298.51585     -444.43835      54611.699     -21112.318      3339.4909     -17772.827      1.0446014    
   1978000   302.36455     -136.09335      54609.469     -21014.729      3382.5463     -17632.183      1.0446441    
   1979000   304.42429     -806.25049      54776.319     -21000.416      3405.5885     -17594.828      1.0414621    
   1980000   304.20466     -107.19677      54695.503     -21006.405      3403.1315     -17603.273      1.0430009    
   1981000   298.16889      431.82479      54275.276     -21038.769      3335.6094     -17703.159      1.0510763    
   1982000   295.81675     -117.28933      53882.424     -20966.205      3309.2961     -17656.909      1.0587396    
   1983000   295.67464      646.00932      54277.712     -21066.104      3307.7063     -17758.397      1.0510292    
   1984000   303.89689      242.0298       54177.472     -20950.273      3399.6885     -17550.585      1.0529738    
   1985000   298.35411     -122.37549      54552.777     -21018.855      3337.6815     -17681.174      1.0457297    
   1986000   305.01683      899.2462       53869.654     -21166.977      3412.2172     -17754.76       1.0589906    
   1987000   299.07612     -38.284941      54729.755     -21042.904      3345.7586     -17697.145      1.0423481    
   1988000   299.09417     -130.11777      55338.066     -21054.607      3345.9605     -17708.646      1.03089      
   1989000   302.53403     -213.4437       54674.282     -21056.348      3384.4422     -17671.905      1.0434057    
   1990000   307.10716     -8.0133885      54168.824     -21073.978      3435.6017     -17638.376      1.0531419    
   1991000   294.8775      -362.46291      54526.32      -21054.451      3298.7887     -17755.662      1.0462371    
   1992000   299.47894     -203.50403      54741.651     -20996.192      3350.2649     -17645.927      1.0421216    
   1993000   300.21494     -979.2188       55066.929     -20972.107      3358.4986     -17613.608      1.0359658    
   1994000   300.23639      381.12412      54719.87      -21042.478      3358.7386     -17683.739      1.0425364    
   1995000   305.24316      174.82021      54449.372     -21059.308      3414.7492     -17644.559      1.0477156    
   1996000   289.95151     -442.3773       54250.28      -21015.015      3243.6818     -17771.333      1.0515606    
   1997000   304.35024     -51.292357      54804.411     -20969.483      3404.7601     -17564.723      1.0409282    
   1998000   297.06484      38.622799      54489.183     -21048.858      3323.2585     -17725.6        1.0469501    
   1999000   304.87926      173.42979      54501.415     -21045.614      3410.6782     -17634.936      1.0467152    
   2000000   303.3204      -140.0861       54413.912     -21009.478      3393.2393     -17616.239      1.0483984    
   2001000   296.21995     -234.99207      54567.607     -21047.867      3313.8067     -17734.06       1.0454455    
   2002000   301.71771     -962.88349      54743.265     -20885.484      3375.3101     -17510.174      1.0420909    
   2003000   298.77946     -906.83382      54502.175     -21016.51       3342.4399     -17674.07       1.0467006    
   2004000   304.36406     -345.22803      53999.155     -21127.164      3404.9147     -17722.249      1.0564509    
   2005000   294.9405      -481.86752      54514.511     -20995.64       3299.4935     -17696.147      1.0464637    
   2006000   293.8259      -619.56453      54721.323     -21047.739      3287.0245     -17760.715      1.0425087    
   2007000   302.69937      669.27806      54237.763     -21017.003      3386.2918     -17630.711      1.0518033    
   2008000   304.45986     -211.00172      54143.869     -20986.323      3405.9864     -17580.336      1.0536273    
   2009000   306.41246     -563.10373      54444.362     -21080.036      3427.8301     -17652.206      1.047812     
   2010000   295.98162     -93.459302      54230.011     -21105.813      3311.1405     -17794.673      1.0519537    
   2011000   308.53804     -412.64698      54747.539     -21067.376      3451.609      -17615.767      1.0420095    
   2012000   292.17556     -113.89323      54416.984     -21211.33       3268.5621     -17942.768      1.0483392    
   2013000   302.70723     -102.07889      54341.733     -21061.921      3386.3798     -17675.541      1.0497909    
   2014000   301.37388     -96.082823      54619.241     -21121.554      3371.4636     -17750.09       1.0444572    
   2015000   302.38549     -511.39699      54096.783     -21152.92       3382.7804     -17770.139      1.0545444    
   2016000   305.60546      598.7051       53984.945     -21066.851      3418.8022     -17648.049      1.056729     
   2017000   303.21501      536.29803      53911.015     -21004.353      3392.0603     -17612.293      1.0581782    
   2018000   301.24504      206.09846      54571.136     -20977.762      3370.0223     -17607.74       1.0453779    
   2019000   299.42402     -168.1527       54454.547     -20976.086      3349.6506     -17626.436      1.0476161    
   2020000   288.68027      194.01934      54684.621     -20908.684      3229.4604     -17679.223      1.0432084    
   2021000   292.07742     -793.27402      54330.564     -20994.775      3267.4643     -17727.31       1.0500067    
   2022000   301.64857      93.190841      54286.438     -20979.774      3374.5366     -17605.238      1.0508602    
   2023000   295.19063     -479.1102       54717.571     -21073.762      3302.2918     -17771.47       1.0425802    
   2024000   302.14394      597.19846      54303.474     -20988.115      3380.0783     -17608.036      1.0505305    
   2025000   297.76997     -632.8073       53900.845     -21065.426      3331.1467     -17734.28       1.0583778    
   2026000   304.14611      407.10492      54259.137     -21113.194      3402.4764     -17710.717      1.051389     
   2027000   301.64256      269.42669      54635.22      -21104.825      3374.4693     -17730.355      1.0441517    
   2028000   301.56499     -54.148453      54124.425     -21111.451      3373.6016     -17737.85       1.0540058    
   2029000   295.03913      647.0117       54463.039     -21031.302      3300.5968     -17730.705      1.0474527    
   2030000   304.03201      1220.9497      53676.839     -21193.402      3401.2        -17792.202      1.0627947    
   2031000   306.94617     -85.078874      54321.409     -21137.405      3433.8007     -17703.605      1.0501837    
   2032000   302.03265      247.92634      54089.753     -21043.427      3378.8332     -17664.594      1.0546814    
   2033000   305.21731      389.14517      53866.437     -21136.147      3414.46       -17721.687      1.0590539    
   2034000   293.21733     -811.57309      54442.832     -21112.379      3280.2164     -17832.163      1.0478415    
   2035000   297.4579       542.70487      54353.235     -21037.05       3327.6556     -17709.394      1.0495688    
   2036000   301.36232      166.88809      54484.202     -20923.94       3371.3343     -17552.606      1.0470458    
   2037000   303.88175      992.12969      54093.785     -21035.439      3399.5191     -17635.92       1.0546028    
   2038000   300.73749     -833.21731      54610.806     -21108.536      3364.3443     -17744.192      1.0446185    
   2039000   302.13674     -646.11668      54778.119     -21029.585      3379.9977     -17649.587      1.0414278    
   2040000   304.60399     -116.44684      53758.312     -21101.698      3407.5987     -17694.1        1.0611839    
   2041000   302.15445      133.85043      53757.702     -21092.413      3380.1958     -17712.217      1.061196     
   2042000   298.86239      555.11809      53863.512     -21079.002      3343.3676     -17735.634      1.0591114    
   2043000   302.01384      197.94792      54304.306     -21011.767      3378.6228     -17633.144      1.0505144    
   2044000   297.46698      257.69404      54323.489     -20969.075      3327.7572     -17641.318      1.0501435    
   2045000   303.47116      449.96739      54460.606     -21123.38       3394.9258     -17728.454      1.0474995    
   2046000   299.5689      -282.49884      54348.288     -21030.716      3351.2713     -17679.444      1.0496643    
   2047000   297.70839     -643.89375      54522.367     -21048.371      3330.4578     -17717.913      1.0463129    
   2048000   301.79471     -311.84075      54547.695     -20997.039      3376.1714     -17620.867      1.0458271    
   2049000   303.32289     -214.93724      54412.005     -21096.032      3393.2671     -17702.765      1.0484351    
   2050000   301.56426      520.23726      53693.913     -20925.122      3373.5933     -17551.529      1.0624567    
   2051000   303.51729      743.15256      53920.277     -20992.833      3395.4419     -17597.391      1.0579964    
   2052000   303.1156      -115.43935      54091.078     -21080.693      3390.9482     -17689.745      1.0546556    
   2053000   296.05878     -228.20054      54445.535     -21167.203      3312.0037     -17855.199      1.0477895    
   2054000   299.60409     -344.59033      54644.04      -20950.719      3351.665      -17599.053      1.0439832    
   2055000   302.57233      632.81238      54311.835     -21082.147      3384.8706     -17697.277      1.0503688    
   2056000   299.78434     -8.6376392      54516.012     -21103.416      3353.6815     -17749.735      1.0464349    
   2057000   294.57217     -1044.908       55104.423     -20890.754      3295.373      -17595.381      1.035261     
   2058000   302.46657     -513.18571      54375.726     -21049.189      3383.6876     -17665.502      1.0491346    
   2059000   295.84729     -1218.7846      54645.569     -21132.932      3309.6377     -17823.294      1.0439539    
   2060000   297.82009     -40.755015      54357.732     -21002.325      3331.7074     -17670.618      1.0494819    
   2061000   297.90206     -231.70476      54638.529     -21017.108      3332.6244     -17684.484      1.0440885    
   2062000   297.13444     -173.06218      54571.707     -21030.643      3324.0371     -17706.605      1.0453669    
   2063000   303.32498      359.44662      54297.271     -21066.921      3393.2906     -17673.631      1.0506506    
   2064000   304.33591      981.25787      54025.33      -21130.367      3404.5998     -17725.768      1.0559391    
   2065000   302.3984       460.09909      53962.231     -20911.514      3382.9248     -17528.589      1.0571738    
   2066000   305.91436      145.61468      54345.586     -21058.418      3422.2579     -17636.16       1.0497165    
   2067000   303.37743     -556.50648      54648.922     -21073.702      3393.8772     -17679.825      1.0438899    
   2068000   304.33522      581.35626      54015.553     -21115.289      3404.592      -17710.697      1.0561302    
   2069000   300.11385      526.65688      54089.888     -21024.481      3357.3677     -17667.114      1.0546788    
   2070000   300.05244      411.56801      54121.217     -21070.672      3356.6807     -17713.991      1.0540683    
   2071000   298.20114      699.71766      54441.169     -21084.322      3335.9703     -17748.352      1.0478735    
   2072000   299.93365     -163.6762       54292.556     -20992.451      3355.3518     -17637.1        1.0507418    
   2073000   301.63296     -219.26205      54764.263     -20967.675      3374.362      -17593.313      1.0416913    
   2074000   296.16545      315.54689      54482.882     -20989.659      3313.197      -17676.462      1.0470712    
   2075000   295.89257      925.98145      54574.359     -21026.979      3310.1443     -17716.835      1.0453161    
   2076000   299.28524     -430.69507      54572.032     -21017.032      3348.098      -17668.934      1.0453607    
   2077000   296.73926     -1056.4801      54243.301     -20984.548      3319.6162     -17664.931      1.0516959    
   2078000   299.23755     -26.801981      54480.589     -21057.011      3347.5646     -17709.447      1.0471153    
   2079000   299.38625      182.00336      54405.087     -20947.208      3349.228      -17597.98       1.0485685    
   2080000   305.52475      233.23337      54824.558     -20962.316      3417.8993     -17544.417      1.0405457    
   2081000   298.44693     -372.50832      54562.453     -21017.874      3338.7199     -17679.154      1.0455442    
   2082000   294.62241      699.65503      54287.658     -20943.539      3295.935      -17647.604      1.0508366    
   2083000   299.45403     -81.607688      54237.593     -21014.961      3349.9863     -17664.975      1.0518066    
   2084000   301.32208      415.17445      54802.624     -21117.953      3370.8842     -17747.069      1.0409622    
   2085000   299.03871     -921.84244      54830.296     -21004.295      3345.3402     -17658.954      1.0404368    
   2086000   303.51754      114.57107      54558.899     -21104.687      3395.4447     -17709.243      1.0456123    
   2087000   297.87166      265.00471      54609.531     -21164.883      3332.2843     -17832.599      1.0446429    
   2088000   300.66445      116.66239      54765.769     -21151.14       3363.5273     -17787.613      1.0416627    
   2089000   301.89429      31.447367      54525.105     -21084.493      3377.2854     -17707.207      1.0462604    
   2090000   305.12966      72.165371      54314.751     -20990.903      3413.4794     -17577.423      1.0503124    
   2091000   300.54585      301.32768      54175.692     -21046.534      3362.2005     -17684.333      1.0530084    
   2092000   300.04212      165.2946       53911.173     -20998.551      3356.5652     -17641.986      1.058175     
   2093000   298.85998     -317.37604      54406.315     -20967.185      3343.3406     -17623.845      1.0485448    
   2094000   287.96974      99.628466      54215.005     -20984.517      3221.5118     -17763.006      1.0522448    
   2095000   298.34648     -471.8554       54900.722     -21031.411      3337.5961     -17693.815      1.0391021    
   2096000   299.12545      65.748785      54544.176     -21094.303      3346.3104     -17747.992      1.0458946    
   2097000   300.59636      330.584        54232.997     -21008.919      3362.7654     -17646.154      1.0518957    
   2098000   307.34489      625.04114      54100.819     -21032.896      3438.2611     -17594.635      1.0544657    
   2099000   308.18389      212.45071      53842.738     -20977.131      3447.6471     -17529.484      1.05952      
   2100000   301.67471     -604.5377       54446.147     -20988.131      3374.829      -17613.302      1.0477777    
   2101000   299.86205      508.06893      54610.495     -20948.324      3354.5508     -17593.773      1.0446244    
   2102000   300.06578     -610.25255      55323.781     -21033.689      3356.83       -17676.859      1.0311562    
   2103000   298.58731      123.59011      54692.27      -21077.461      3340.2903     -17737.171      1.0430625    
   2104000   302.91494      111.08148      54389.843     -21105.214      3388.7034     -17716.511      1.0488623    
   2105000   299.97981     -375.48591      54048.892     -21082.871      3355.8681     -17727.003      1.0554788    
   2106000   298.40195     -691.33464      54227.081     -21030.142      3338.2167     -17691.926      1.0520105    
   2107000   300.71598      470.82687      54497.302     -21081.028      3364.1037     -17716.925      1.0467942    
   2108000   294.35716     -205.90118      54424.646     -21133.045      3292.9677     -17840.077      1.0481916    
   2109000   300.03246      46.938781      54130.928     -20984.013      3356.4572     -17627.556      1.0538792    
   2110000   300.25796      144.0198       54159.428     -21039.729      3358.9798     -17680.749      1.0533246    
   2111000   294.79266      325.93642      54307.67      -21043.775      3297.8396     -17745.936      1.0504494    
   2112000   294.24941      1246.4581      53937.663     -21090.112      3291.7623     -17798.349      1.0576553    
   2113000   306.56912     -189.96685      54455.82      -20920.202      3429.5827     -17490.62       1.0475916    
   2114000   296.31518      202.29043      54389.579     -21048.866      3314.872      -17733.994      1.0488674    
   2115000   302.79001      405.72856      54165.165     -21159.988      3387.3058     -17772.682      1.053213     
   2116000   295.22412      448.08915      54265.243     -20975.357      3302.6663     -17672.69       1.0512707    
   2117000   304.97557     -203.34335      54066.384     -21165.282      3411.7556     -17753.526      1.0551373    
   2118000   295.1887       701.35059      54153.006     -21015.034      3302.2701     -17712.763      1.0534495    
   2119000   298.61877     -710.80654      54480.401     -21017.604      3340.6423     -17676.962      1.0471189    
   2120000   304.84294     -620.65882      54527.083     -21054.42       3410.272      -17644.148      1.0462224    
   2121000   304.73809     -220.58303      55124.241     -20975.633      3409.099      -17566.534      1.0348888    
   2122000   298.60755     -855.13284      55058.706     -21128.495      3340.5167     -17787.978      1.0361206    
   2123000   304.44382     -129.53211      54867.08      -20875.579      3405.807      -17469.772      1.0397393    
   2124000   305.01341      84.14491       54248.794     -20995.051      3412.1789     -17582.872      1.0515894    
   2125000   301.2811       648.92194      53777.124     -21044.219      3370.4257     -17673.793      1.0608127    
   2126000   295.27427     -496.72469      54399.8       -21156.944      3303.2274     -17853.717      1.0486703    
   2127000   294.61742     -611.23154      54225.211     -21035.164      3295.8792     -17739.284      1.0520468    
   2128000   294.1679       406.77106      54200.385     -21009.246      3290.8504     -17718.395      1.0525286    
   2129000   304.10835      208.56409      54303.742     -21078.089      3402.0541     -17676.035      1.0505253    
   2130000   299.61576     -119.27192      54555.295     -21015.27       3351.7956     -17663.475      1.0456814    
   2131000   303.284       -200.1638       54401.6       -21160.348      3392.832      -17767.516      1.0486357    
   2132000   301.1666       666.12227      54176.681     -20938.5        3369.1448     -17569.355      1.0529892    
   2133000   302.72418      90.36077       55073.98      -21056.228      3386.5694     -17669.659      1.0358332    
   2134000   296.69015     -405.95796      54200.247     -20996.186      3319.0668     -17677.119      1.0525313    
   2135000   293.48625     -397.14291      54494.04      -21033.597      3283.2248     -17750.372      1.0468568    
   2136000   304.92378      453.66274      54589.163     -21129.314      3411.1762     -17718.138      1.0450326    
   2137000   300.26613      61.619782      53871.754     -21108.944      3359.0713     -17749.873      1.0589493    
   2138000   300.59416      652.41225      54287.453     -21076.35       3362.7409     -17713.609      1.0508406    
   2139000   295.77086      670.47436      54075.604     -21126.674      3308.7827     -17817.891      1.0549574    
   2140000   300.54259     -113.06333      54859.571     -21042.062      3362.1639     -17679.898      1.0398816    
   2141000   301.12436     -692.60519      54324.335     -21194.985      3368.6723     -17826.313      1.0501271    
   2142000   297.89556      571.16125      54134.314     -21162.589      3332.5517     -17830.037      1.0538133    
   2143000   301.88516     -204.64799      54155.828     -21139.257      3377.1833     -17762.074      1.0533946    
   2144000   301.30071     -362.61111      54064.54      -21220.039      3370.6451     -17849.394      1.0551733    
   2145000   298.29387     -566.01911      54581.009     -20974.355      3337.0075     -17637.348      1.0451888    
   2146000   304.76043      238.12968      54309.651     -21020.094      3409.3489     -17610.745      1.0504111    
   2147000   303.22598      202.21176      54202.98      -21025.748      3392.183      -17633.565      1.0524783    
   2148000   303.21281     -378.77791      54398.661     -21021.057      3392.0357     -17629.021      1.0486923    
   2149000   298.86916     -252.02577      54232.245     -21086.184      3343.4434     -17742.74       1.0519103    
   2150000   299.54725     -297.58925      54334.207     -21012.74       3351.0291     -17661.711      1.0499363    
   2151000   300.72491     -219.50288      54082.846     -21077.837      3364.2036     -17713.633      1.0548161    
   2152000   308.08712     -149.55838      54148.415     -21051.051      3446.5645     -17604.486      1.0535388    
   2153000   299.42874      504.35961      54056.831     -21118.895      3349.7034     -17769.191      1.0553237    
   2154000   302.6981       636.48726      54379.296     -21072.249      3386.2776     -17685.971      1.0490658    
   2155000   297.4565      -668.06359      54942.364     -21158.963      3327.64       -17831.323      1.0383146    
   2156000   299.42045     -447.96432      54205.223     -21200.386      3349.6106     -17850.775      1.0524347    
   2157000   297.79806     -419.25725      54490.383     -21147.898      3331.461      -17816.437      1.0469271    
   2158000   301.03724     -62.70695       54468.291     -21123.416      3367.6977     -17755.719      1.0473517    
   2159000   297.99609      180.78822      54849.512     -20971.62       3333.6763     -17637.944      1.0400723    
   2160000   298.34439     -446.3492       54677.234     -21069.353      3337.5728     -17731.78       1.0433494    
   2161000   289.75728      445.21674      53820.07      -21101.613      3241.509      -17860.104      1.0599663    
   2162000   295.47121      356.41826      53958.802     -20980.713      3305.4305     -17675.283      1.057241     
   2163000   306.24345     -515.96909      54314.265     -21147.573      3425.9394     -17721.634      1.0503218    
   2164000   301.74082      147.53224      54409.366     -21053.814      3375.5686     -17678.245      1.048486     
   2165000   303.20606     -342.25281      54114.131     -21146.309      3391.9602     -17754.349      1.0542063    
   2166000   298.47189     -32.619272      54148.7       -21041.481      3338.9991     -17702.482      1.0535333    
   2167000   299.84519      180.63551      54563.6       -21016.447      3354.3622     -17662.085      1.0455223    
   2168000   299.13977      457.08412      54496.656     -21071.163      3346.4707     -17724.692      1.0468066    
   2169000   301.89767      175.94766      54916.188     -21097.657      3377.3232     -17720.334      1.0388095    
   2170000   297.2983       458.04173      54892.533     -21052.8        3325.8702     -17726.93       1.0392572    
   2171000   299.85597      115.11435      54445.284     -20964.433      3354.4828     -17609.95       1.0477943    
   2172000   305.65297      222.82469      53787.454     -21254.726      3419.3337     -17835.392      1.060609     
   2173000   302.40677     -690.3209       54345.54      -21133.9        3383.0186     -17750.881      1.0497174    
   2174000   302.76288     -292.34667      54811.852     -21135.864      3387.0023     -17748.862      1.0407869    
   2175000   298.55921      274.77         54523.639     -20996.554      3339.9759     -17656.578      1.0462885    
   2176000   300.17538      517.11222      54895.2       -20945.192      3358.056      -17587.136      1.0392067    
   2177000   298.54463      199.57536      54441.871     -21102.119      3339.8128     -17762.306      1.04786      
   2178000   295.52416     -288.42485      54532.742     -21045.52       3306.0229     -17739.497      1.0461139    
   2179000   302.85144      89.912718      54032.349     -21086.008      3387.9931     -17698.015      1.0558019    
   2180000   298.46606      445.83269      54123.085     -20995.959      3338.9339     -17657.025      1.0540319    
   2181000   303.35891      392.20733      54779.081     -21033.29       3393.6701     -17639.62       1.0414095    
   2182000   296.3975      -274.70156      54666.358     -21012.004      3315.7929     -17696.211      1.0435569    
   2183000   300.49686      368.16825      54227.75      -21052.574      3361.6524     -17690.921      1.0519975    
   2184000   297.3851      -380.26201      54300.815     -20956.445      3326.8412     -17629.604      1.050582     
   2185000   300.69464     -357.97816      54755.478     -21059.663      3363.8649     -17695.798      1.0418584    
   2186000   298.10313     -772.39327      54672.557     -21109.285      3334.8738     -17774.411      1.0434386    
   2187000   296.93808      118.21884      54731.354     -21088.592      3321.8404     -17766.751      1.0423177    
   2188000   295.71625     -72.39585       54113.42      -21156.571      3308.1718     -17848.399      1.0542201    
   2189000   297.48415     -36.313086      54051.634     -21063.181      3327.9493     -17735.232      1.0554252    
   2190000   296.00588      250.23323      54333.102     -20996.965      3311.4119     -17685.553      1.0499577    
   2191000   295.41723     -534.32967      54468.673     -20990.469      3304.8267     -17685.642      1.0473444    
   2192000   298.09858      1.7793563      54332.206     -21064.771      3334.8229     -17729.948      1.049975     
   2193000   302.27413      331.69544      54769.836     -21085.001      3381.5346     -17703.467      1.0415853    
   2194000   297.57772     -214.55725      54589.296     -21104.842      3328.9961     -17775.846      1.0450301    
   2195000   297.79305     -407.4396       54656.657     -20937.332      3331.405      -17605.927      1.0437422    
   2196000   303.811        408.14311      54534.955     -21025.727      3398.7276     -17627          1.0460714    
   2197000   298.77387      801.21013      53834.606     -21029.735      3342.3773     -17687.358      1.05968      
   2198000   299.80435     -1.5125165      54519.708     -20950.604      3353.9054     -17596.699      1.046364     
   2199000   303.36831     -690.62011      54360.409     -20970.148      3393.7753     -17576.372      1.0494303    
   2200000   297.48801      169.27262      54164.892     -21059.522      3327.9925     -17731.53       1.0532183    
   2201000   295.46225      247.78115      53980.607     -21106.299      3305.3303     -17800.969      1.0568139    
   2202000   302.46611     -194.06938      55265.073     -21039.913      3383.6823     -17656.231      1.0322516    
   2203000   301.46625     -560.53465      54320.546     -21068.595      3372.4969     -17696.098      1.0502004    
   2204000   302.96846      638.64707      54227.581     -20952.021      3389.3021     -17562.719      1.0520008    
   2205000   294.68783      859.1147       54282.098     -21135.267      3296.6669     -17838.6        1.0509442    
   2206000   298.67818      23.808015      54366.689     -21179.616      3341.3069     -17838.309      1.049309     
   2207000   296.45024     -537.39177      54445.059     -21146.295      3316.383      -17829.912      1.0477986    
   2208000   304.04699      62.062952      54543.886     -21133.252      3401.3676     -17731.884      1.0459001    
   2209000   295.75931     -229.36035      54356.106     -20977.073      3308.6536     -17668.419      1.0495133    
   2210000   296.70712      509.3235       54318.185     -21139.225      3319.2567     -17819.968      1.050246     
   2211000   297.16373      166.38147      54609.491     -21053.59       3324.3648     -17729.225      1.0446436    
   2212000   296.14264      318.46763      53875.135     -21117.092      3312.9418     -17804.151      1.0588829    
   2213000   301.39817     -38.812267      54632.991     -20922.563      3371.7353     -17550.828      1.0441943    
   2214000   298.20444      41.872808      54744.351     -21040.131      3336.0072     -17704.124      1.0420702    
   2215000   299.13911     -404.5246       54714.015     -20872.17       3346.4633     -17525.706      1.042648     
   2216000   298.77506     -609.11794      54688.318     -20926.061      3342.3907     -17583.67       1.0431379    
   2217000   301.51281     -352.83202      54216.426     -21074.082      3373.0178     -17701.064      1.0522172    
   2218000   305.63099     -328.92892      54989.953     -21063.005      3419.0878     -17643.918      1.037416     
   2219000   304.66108     -52.906683      54663.856     -20997.564      3408.2374     -17589.327      1.0436047    
   2220000   301.07524      212.29166      54242.891     -21067.501      3368.1227     -17699.378      1.0517039    
   2221000   296.49314     -314.98252      54257.27      -21017.582      3316.8628     -17700.719      1.0514251    
   2222000   295.90225      543.42573      54104.601     -21134.479      3310.2525     -17824.227      1.054392     
   2223000   297.47293      76.265767      54306.349     -21180.097      3327.8238     -17852.273      1.0504749    
   2224000   300.32208      581.70491      54522.159     -21176.185      3359.6971     -17816.488      1.0463169    
   2225000   300.32062      170.81018      54540.83      -21080.481      3359.6808     -17720.8        1.0459587    
   2226000   297.19904      465.91281      54051.503     -21023.095      3324.7597     -17698.335      1.0554278    
   2227000   297.5845      -55.978705      53970.864     -21164.061      3329.0718     -17834.989      1.0570047    
   2228000   300.66601      1.8926406      54335.173     -20998.993      3363.5446     -17635.448      1.0499177    
   2229000   305.7598       709.60331      54537.009     -21108.097      3420.5288     -17687.568      1.046032     
   2230000   301.10809     -818.48452      54724.964     -21050.537      3368.4902     -17682.047      1.0424394    
   2231000   304.68837      155.58542      54118.947     -21062.919      3408.5428     -17654.376      1.0541125    
   2232000   295.97429      148.85838      54087.018     -21002.319      3311.0584     -17691.26       1.0547348    
   2233000   299.42047      104.52346      54848.366     -21038.584      3349.6109     -17688.973      1.040094     
   2234000   298.97052     -112.58836      54532.251     -21093.199      3344.5773     -17748.621      1.0461233    
   2235000   299.87046     -530.78104      54562.879     -21031.016      3354.6449     -17676.371      1.0455361    
   2236000   302.96985      188.28308      54677.7       -21041.643      3389.3177     -17652.325      1.0433405    
   2237000   296.43246      132.51948      55496.144     -20978.997      3316.1841     -17662.813      1.0279535    
   2238000   299.30132      178.58379      54533.747     -20985.876      3348.278      -17637.598      1.0460946    
   2239000   298.61007     -361.61982      54202.93      -21000.515      3340.5449     -17659.97       1.0524792    
   2240000   304.2906       301.74517      54194.318     -21193.543      3404.0929     -17789.45       1.0526465    
   2241000   301.4646      -106.27465      54328.87      -21108.514      3372.4785     -17736.036      1.0500395    
   2242000   305.72947     -29.259669      53994.764     -21115.932      3420.1895     -17695.742      1.0565368    
   2243000   308.78824      446.75225      54181.465     -21232.215      3454.408      -17777.807      1.0528962    
   2244000   295.55789      674.1573       54107.596     -21107.736      3306.4002     -17801.336      1.0543336    
   2245000   300.85994      115.71835      53955.024     -21088.187      3365.7142     -17722.472      1.057315     
   2246000   301.76853     -196.00617      54795.139     -21022.647      3375.8786     -17646.769      1.0411043    
   2247000   299.73382      750.60534      54339.808     -20993.21       3353.1163     -17640.093      1.0498281    
   2248000   299.79264     -877.28811      54224.093     -21095.887      3353.7743     -17742.112      1.0520684    
   2249000   298.07054     -1102.6563      54061.069     -21148.98       3334.5092     -17814.47       1.055241     
   2250000   298.27188     -172.69649      54755.362     -21018.078      3336.7616     -17681.316      1.0418607    
   2251000   299.9901      -410.88687      54550.701     -20998.908      3355.9833     -17642.924      1.0457695    
   2252000   297.12833      162.01816      54355.054     -21096.012      3323.9687     -17772.043      1.0495336    
   2253000   304.12297      167.98497      54780.369     -21043.334      3402.2176     -17641.116      1.0413851    
   2254000   302.15304      174.63032      54607.138     -21064.478      3380.18       -17684.298      1.0446887    
   2255000   299.1042       90.463913      54494.79      -21062.899      3346.0728     -17716.827      1.0468424    
   2256000   302.52345     -48.475849      54515.02      -20971.132      3384.3238     -17586.808      1.0464539    
   2257000   297.51269      136.64785      54392.219     -21020.239      3328.2686     -17691.97       1.0488165    
   2258000   300.18184     -11.384202      53926.414     -21107.404      3358.1283     -17749.276      1.057876     
   2259000   301.4154      -872.71256      54102.336     -21028.3        3371.9281     -17656.372      1.0544361    
   2260000   301.49811      1162.009       54307.426     -21050.044      3372.8534     -17677.191      1.0504541    
   2261000   297.76181      578.9308       54828.218     -21096.05       3331.0554     -17764.995      1.0404762    
   2262000   296.12084     -182.14786      54992.574     -21070.951      3312.6979     -17758.253      1.0373666    
   2263000   300.57304     -558.02724      54551.489     -21135.021      3362.5046     -17772.516      1.0457544    
   2264000   301.5561       15.654214      54259.973     -21055.876      3373.5021     -17682.374      1.0513728    
   2265000   298.88994     -341.59524      54209.814     -21140.879      3343.6758     -17797.203      1.0523456    
   2266000   301.98941      35.119559      53992.409     -21114.5        3378.3496     -17736.151      1.0565829    
   2267000   299.08273      70.048785      54191.16      -21119.19       3345.8325     -17773.358      1.0527078    
   2268000   301.21981      18.212536      54308.633     -21172.026      3369.74       -17802.286      1.0504307    
   2269000   293.31634      332.5262       54358.078     -21080.866      3281.324      -17799.542      1.0494752    
   2270000   296.53192      267.09684      54374.257     -21088.357      3317.2967     -17771.061      1.049163     
   2271000   298.66479     -299.22267      54361.855     -21006.202      3341.1571     -17665.045      1.0494023    
   2272000   295.08246      31.114913      54393.902     -20974.343      3301.0816     -17673.261      1.0487841    
   2273000   298.69063     -616.59868      54404.161     -20960.341      3341.4462     -17618.895      1.0485863    
   2274000   303.45568      305.09622      54404.343     -21038.246      3394.7526     -17643.494      1.0485828    
   2275000   300.04774     -986.77549      54674.326     -21076.803      3356.6281     -17720.175      1.0434049    
   2276000   295.64319      393.07149      54357.446     -21093.69       3307.3544     -17786.336      1.0494875    
   2277000   298.23045      64.239564      54999.774     -20979.757      3336.2981     -17643.459      1.0372308    
   2278000   304.96169     -585.25437      54582.046     -21129.797      3411.6004     -17718.197      1.0451689    
   2279000   296.57438     -369.04164      54804.77      -20988.861      3317.7717     -17671.09       1.0409214    
   2280000   306.21625      1779.5753      54176.785     -21165.575      3425.6351     -17739.94       1.0529871    
   2281000   299.96005      208.43765      53705.712     -20959.366      3355.6472     -17603.718      1.0622233    
   2282000   299.25161     -666.56236      54560.18      -21057.527      3347.7219     -17709.806      1.0455878    
   2283000   305.26402     -238.93717      54177.309     -21123.007      3414.9826     -17708.025      1.052977     
   2284000   289.98186      521.30592      54396.881     -21138.466      3244.0213     -17894.445      1.0487266    
   2285000   298.83961     -175.60956      54384.609     -21097.352      3343.1128     -17754.24       1.0489633    
   2286000   300.61662     -764.79782      54263.795     -21041.575      3362.9921     -17678.583      1.0512987    
   2287000   291.60155     -67.045671      54460.332     -21078.188      3262.1408     -17816.048      1.0475048    
   2288000   297.81877      313.12499      54299.628     -21111.398      3331.6927     -17779.705      1.0506049    
   2289000   299.48595      525.12024      54015.994     -21070.887      3350.3433     -17720.543      1.0561216    
   2290000   309.91053      272.46188      53897.701     -21211.599      3466.9629     -17744.636      1.0584395    
   2291000   294.30957      298.33015      54368.535     -21042.292      3292.4353     -17749.857      1.0492734    
   2292000   298.31264      130.12132      54050.12      -21009.103      3337.2175     -17671.885      1.0554548    
   2293000   308.22988      101.4386       54610.45      -21027.385      3448.1616     -17579.224      1.0446253    
   2294000   299.54328      229.46223      54737.478     -21063.883      3350.9847     -17712.898      1.0422011    
   2295000   307.28736      615.62031      55023.553     -21071.143      3437.6176     -17633.525      1.0367825    
   2296000   302.21595     -296.25023      54725.298     -21007.454      3380.8838     -17626.57       1.042433     
   2297000   304.00806     -380.20691      54623.478     -21037.112      3400.9321     -17636.18       1.0443761    
   2298000   300.87248     -196.00255      54135.246     -21056.386      3365.8544     -17690.532      1.0537951    
   2299000   300.22361     -85.017318      53773.216     -21123.342      3358.5956     -17764.747      1.0608898    
   2300000   301.82242      27.613255      54615.01      -20987.073      3376.4814     -17610.591      1.0445381    
   2301000   302.85119     -428.79151      54316.838     -21123.186      3387.9902     -17735.195      1.0502721    
   2302000   294.42698      88.44554       54347.363     -21115.665      3293.7487     -17821.916      1.0496822    
   2303000   304.57042      251.81628      54736.205     -21108.939      3407.2232     -17701.716      1.0422253    
   2304000   298.15839      931.52304      54639.659     -21023.637      3335.492      -17688.145      1.0440669    
   2305000   297.06674     -699.84312      54348.711     -21037.787      3323.2797     -17714.507      1.0496561    
   2306000   296.28215     -941.99674      54159.11      -20978.805      3314.5025     -17664.303      1.0533308    
   2307000   296.73719     -218.51287      53942.415     -21048.584      3319.593      -17728.991      1.0575622    
   2308000   304.32659      579.72411      54165.544     -21023.438      3404.4956     -17618.942      1.0532057    
   2309000   297.32134     -859.77477      54012.816     -21132.515      3326.1279     -17806.387      1.0561837    
   2310000   295.12011      391.99146      54500.168     -21044.61       3301.5028     -17743.108      1.0467391    
   2311000   305.05561      52.801511      53805.887     -21082.159      3412.6511     -17669.508      1.0602456    
   2312000   297.91986     -232.02938      54797.195     -21122.02       3332.8235     -17789.196      1.0410653    
   2313000   292.11983      328.96534      54170.286     -21236.697      3267.9387     -17968.758      1.0531135    
   2314000   298.57563     -200.55648      54261.588     -20957.81       3340.1596     -17617.65       1.0513415    
   2315000   299.91097      261.78928      54321.078     -21214.986      3355.0981     -17859.888      1.0501901    
   2316000   296.50017     -727.66043      54997.407     -21118.195      3316.9415     -17801.254      1.0372754    
   2317000   308.42375     -1214.86        54830.171     -20950.707      3450.3304     -17500.377      1.0404392    
   2318000   302.594       -832.43719      54990.422     -21010.93       3385.1131     -17625.817      1.0374072    
   2319000   301.699       -319.32998      54533.254     -21080.349      3375.1008     -17705.248      1.046104     
   2320000   303.02695     -528.99622      54751.186     -21065.388      3389.9564     -17675.432      1.0419401    
   2321000   300.53068     -198.83573      54679.107     -21035.814      3362.0308     -17673.783      1.0433136    
   2322000   304.38168      79.042126      54450.468     -21110.427      3405.1118     -17705.315      1.0476945    
   2323000   304.90143     -646.00681      54410.01      -21127.639      3410.9262     -17716.713      1.0484736    
   2324000   303.2484      -532.3026       54584.327     -20936.234      3392.4339     -17543.8        1.0451252    
   2325000   295.02633      254.71483      54472.351     -21081.717      3300.4537     -17781.263      1.0472737    
   2326000   304.29801      227.23184      54357.473     -21069.62       3404.1758     -17665.444      1.0494869    
   2327000   304.47297     -484.1961       54635.647     -21100.935      3406.1331     -17694.802      1.0441435    
   2328000   301.38046     -693.45437      54592.032     -20965.148      3371.5372     -17593.611      1.0449777    
   2329000   296.5876      -573.82465      54714.595     -21001.711      3317.9196     -17683.791      1.0426369    
   2330000   302.3149       305.69952      54453.332     -21094.39       3381.9908     -17712.399      1.0476394    
   2331000   304.7076       482.7542       54184.122     -21080.093      3408.7579     -17671.335      1.0528446    
   2332000   296.22434      17.331896      53637.844     -21131.199      3313.8558     -17817.343      1.0635673    
   2333000   292.58932     -11.319021      54035.403     -20994.201      3273.1909     -17721.01       1.0557422    
   2334000   301.06922      27.325762      54018.356     -20969.155      3368.0553     -17601.099      1.0560754    
   2335000   293.50238      379.20463      54239.034     -20987.703      3283.4053     -17704.297      1.0517786    
   2336000   296.05403      610.00268      54332.503     -20899.331      3311.9505     -17587.381      1.0499693    
   2337000   301.37064     -469.74318      54104.513     -21075.153      3371.4274     -17703.726      1.0543937    
   2338000   303.37941     -877.63209      54987.175     -20977.838      3393.8995     -17583.939      1.0374684    
   2339000   305.801       -34.660173      54336.864     -21110.508      3420.9897     -17689.518      1.049885     
   2340000   299.04087      65.11027       54224.975     -20964.609      3345.3642     -17619.245      1.0520513    
   2341000   297.52804     -363.45246      54187.052     -21155.869      3328.4403     -17827.429      1.0527876    
   2342000   303.5397       395.28702      54395.628     -21091.794      3395.6926     -17696.101      1.0487508    
   2343000   300.84303      192.51631      54434.34      -21154.31       3365.525      -17788.785      1.048005     
   2344000   310.95788      562.38207      54164.129     -21021.463      3478.6796     -17542.784      1.0532332    
   2345000   291.63824      97.842485      54960.2       -21017.573      3262.5512     -17755.022      1.0379776    
   2346000   295.67258      502.16637      53974.649     -20985.201      3307.6833     -17677.517      1.0569306    
   2347000   299.40995     -576.74503      54714.08      -21148.611      3349.4931     -17799.118      1.0426468    
   2348000   296.41723     -144.05055      54671.349     -21019.048      3316.0136     -17703.035      1.0434617    
   2349000   300.89237      872.9236       53909.296     -21025.741      3366.077      -17659.664      1.0582119    
   2350000   299.09738      117.95684      53946.217     -21040.412      3345.9965     -17694.416      1.0574876    
   2351000   294.14076      55.326809      54346.375     -21098.514      3290.5469     -17807.967      1.0497012    
   2352000   294.28159      236.11633      53865.435     -21034.496      3292.1223     -17742.374      1.0590735    
   2353000   301.04406      726.99469      54248.3       -20949.911      3367.7739     -17582.137      1.051599     
   2354000   307.98129     -422.56706      54283.199     -21080.337      3445.3805     -17634.957      1.0509229    
   2355000   302.82499      354.91273      54543.927     -21058.549      3387.6971     -17670.852      1.0458993    
   2356000   295.42439      69.822512      54793.191     -20998.612      3304.9068     -17693.706      1.0411414    
   2357000   304.61102     -349.25213      54980.852     -21092.085      3407.6774     -17684.408      1.0375877    
   2358000   300.15729     -508.06216      55007.149     -20987.969      3357.8537     -17630.115      1.0370917    
   2359000   296.20121      561.71138      54661.016     -20961.332      3313.597      -17647.735      1.0436589    
   2360000   302.14179      33.76251       54593.623     -20998.39       3380.0542     -17618.336      1.0449473    
   2361000   304.21907      440.87678      54462.152     -20997.773      3403.2927     -17594.481      1.0474698    
   2362000   297.54748     -227.36057      54385.577     -21058.015      3328.6578     -17729.357      1.0489446    
   2363000   299.4641       952.72003      54114.878     -21172.673      3350.099      -17822.574      1.0541917    
   2364000   296.88321      273.48401      54136.614     -21073.543      3321.2265     -17752.316      1.0537685    
   2365000   299.12775      430.99467      54325.916     -21152.28       3346.3361     -17805.944      1.0500966    
   2366000   304.66973     -1057.1291      54581.438     -21143.96       3408.3342     -17735.626      1.0451806    
   2367000   297.53295      119.78193      54677.921     -21033.696      3328.4952     -17705.201      1.0433363    
   2368000   296.38081     -120.13488      54538.366     -21127.128      3315.6063     -17811.522      1.046006     
   2369000   306.38112     -2.0599683      54204.155     -21014.045      3427.4795     -17586.565      1.0524554    
   2370000   304.01608     -211.84467      54434.532     -20950.41       3401.0218     -17549.388      1.0480013    
   2371000   296.11422     -95.618296      54464.867     -21033.27       3312.6239     -17720.646      1.0474175    
   2372000   299.7789       718.29611      54480.711     -21058.386      3353.6206     -17704.766      1.0471129    
   2373000   301.71478      767.99776      54759.371     -20978.151      3375.2773     -17602.874      1.0417844    
   2374000   296.60702     -106.23121      54313.047     -21023.695      3318.1368     -17705.558      1.0503454    
   2375000   299.82685      553.79556      54417.784     -21088.855      3354.157      -17734.698      1.0483238    
   2376000   299.87936      456.27442      54142.271     -21056.26       3354.7444     -17701.516      1.0536584    
   2377000   296.94359      455.76116      53948.161     -21031.573      3321.902      -17709.671      1.0574495    
   2378000   290.55344      486.97678      53984.06      -21068.823      3250.4156     -17818.407      1.0567463    
   2379000   299.99548     -601.60358      54527.99      -21042.064      3356.0435     -17686.021      1.046205     
   2380000   304.24354      62.885458      54496.204     -21068.903      3403.5664     -17665.336      1.0468153    
   2381000   299.86916      458.31286      54468.87      -21096.034      3354.6303     -17741.404      1.0473406    
   2382000   298.94755      376.06244      54148.795     -21029.497      3344.3202     -17685.177      1.0535314    
   2383000   299.48745     -214.7511       54423.448     -20993.641      3350.3601     -17643.281      1.0482147    
   2384000   304.80798     -6.3723345      54383.71      -21099.374      3409.8808     -17689.493      1.0489806    
   2385000   297.90778      394.64887      54725.685     -21052.965      3332.6884     -17720.277      1.0424256    
   2386000   293.2741      -190.52565      54164.831     -21089.182      3280.8515     -17808.331      1.0532195    
   2387000   300.57574      400.89417      54733.676     -21048.636      3362.5349     -17686.101      1.0422734    
   2388000   309.54474     -146.40062      54474.18      -20991.64       3462.8709     -17528.769      1.0472385    
   2389000   298.72183      201.81631      54218.842     -21126.516      3341.7952     -17784.721      1.0521703    
   2390000   305.0312      -636.97914      54385.66      -21054.351      3412.378      -17641.973      1.048943     
   2391000   305.66199      489.68127      54489.009     -21059.717      3419.4346     -17640.283      1.0469535    
   2392000   300.5353      -716.38296      54444.73      -21064.113      3362.0824     -17702.031      1.047805     
   2393000   302.10304      738.7767       54309.432     -20999.8        3379.6206     -17620.18       1.0504153    
   2394000   298.68644      220.20728      54167.759     -21098.572      3341.3992     -17757.172      1.0531626    
   2395000   297.86202      89.455802      54410.223     -21031.601      3332.1765     -17699.425      1.0484695    
   2396000   301.48695     -351.79141      54425.901     -21097.318      3372.7285     -17724.589      1.0481675    
   2397000   298.84929     -412.03833      54742.574     -21017.823      3343.221      -17674.602      1.042104     
   2398000   305.90387     -43.887373      54837.978     -21054.817      3422.1405     -17632.677      1.040291     
   2399000   295.81772     -857.78068      54732.726     -21015.66       3309.3069     -17706.353      1.0422915    
   2400000   296.15826     -333.15628      54252.601     -21020.398      3313.1165     -17707.282      1.0515156    
   2401000   302.3095      -293.64602      54087.783     -21120.842      3381.9303     -17738.911      1.0547198    
   2402000   292.82759      371.19109      54471.846     -20973.97       3275.8565     -17698.114      1.0472834    
   2403000   302.90235     -195.43392      54413.95      -20981.143      3388.5625     -17592.58       1.0483977    
   2404000   298.70614     -913.36912      55253.872     -21014.814      3341.6196     -17673.195      1.0324608    
   2405000   291.04267      65.733061      54202.046     -21057.853      3255.8885     -17801.965      1.0524964    
   2406000   295.31079      266.91718      54019.71      -21020.799      3303.6359     -17717.163      1.0560489    
   2407000   300.02568     -819.83448      54294.944     -21044.52       3356.3813     -17688.139      1.0506956    
   2408000   308.66236      118.24339      54064.01      -21182.067      3452.9997     -17729.067      1.0551836    
   2409000   295.52497     -236.90904      54648.284     -21112.218      3306.032      -17806.186      1.0439021    
   2410000   310.13431     -35.517497      54461.442     -21017.692      3469.4664     -17548.225      1.0474834    
   2411000   303.33854      556.09205      54323.527     -20999.766      3393.4422     -17606.324      1.0501427    
   2412000   297.91963     -211.46491      54603.28      -21066.615      3332.8209     -17733.795      1.0447625    
   2413000   297.14389     -8.69792        54021.332     -21076.969      3324.1428     -17752.826      1.0560172    
   2414000   303.79056     -265.89001      54417.605     -21114.596      3398.499      -17716.097      1.0483272    
   2415000   296.79004     -83.195502      54492.136     -20884.853      3320.1842     -17564.669      1.0468934    
   2416000   303.41177      275.76684      54365.611     -20970.207      3394.2614     -17575.945      1.0493298    
   2417000   300.71006     -780.85053      54476.951     -20991.495      3364.0374     -17627.457      1.0471852    
   2418000   303.37896     -367.82628      54516.369     -21037.352      3393.8943     -17643.457      1.046428     
   2419000   301.95336     -95.019467      54359.002     -21058.894      3377.9462     -17680.948      1.0494574    
   2420000   301.99963     -701.62826      54467.764     -21088.887      3378.4639     -17710.423      1.0473618    
   2421000   294.67171     -675.0198       54664.359     -20958.669      3296.4865     -17662.182      1.0435951    
   2422000   287.30991     -724.02892      54412.206     -21029.401      3214.1303     -17815.271      1.0484313    
   2423000   294.81992      611.00562      53975.323     -21091.009      3298.1446     -17792.865      1.0569174    
   2424000   297.89439     -66.837254      54510.661     -21050.636      3332.5387     -17718.097      1.0465376    
   2425000   298.51823      511.5228       54541.419     -21098.693      3339.5175     -17759.175      1.0459474    
   2426000   301.30947     -138.04386      54470.525     -21080.279      3370.7431     -17709.536      1.0473088    
   2427000   295.0069      -1239.9342      54258.736     -21027.681      3300.2363     -17727.444      1.0513967    
   2428000   297.8494      -149.93282      53970.233     -21006.556      3332.0353     -17674.52       1.0570171    
   2429000   299.24552      113.09816      54225.169     -21092.042      3347.6537     -17744.389      1.0520476    
   2430000   306.07704      302.55149      54146.074     -20865.685      3424.0777     -17441.607      1.0535844    
   2431000   299.6159       228.27599      54428.475     -21027.493      3351.7971     -17675.696      1.0481179    
   2432000   300.24232     -386.23642      54478.48      -21014.06       3358.8049     -17655.256      1.0471558    
   2433000   298.92347      314.10084      54154.512     -21181.262      3344.051      -17837.211      1.0534202    
   2434000   298.12355      283.44789      54919.77      -20983.532      3335.1023     -17648.429      1.0387417    
   2435000   303.52238     -411.76547      54104.407     -21157.047      3395.4988     -17761.548      1.0543958    
   2436000   296.49275      76.160472      54283.535     -21064.622      3316.8585     -17747.764      1.0509164    
   2437000   301.95147      251.65464      54636.591     -20990.228      3377.9251     -17612.303      1.0441255    
   2438000   304.78983      81.848176      54303.399     -21205.896      3409.6778     -17796.218      1.050532     
   2439000   303.25898      51.497562      54655.494     -21075.752      3392.5522     -17683.2        1.0437644    
   2440000   297.64024     -233.25693      54284.92      -21023.64       3329.6955     -17693.945      1.0508896    
   2441000   301.85758     -1170.6222      54720.309     -21057.415      3376.8747     -17680.54       1.0425281    
   2442000   304.46531      769.41898      54293.972     -21017.689      3406.0474     -17611.642      1.0507144    
   2443000   306.94294      13.916685      55236.818     -21005.419      3433.7645     -17571.655      1.0327796    
   2444000   299.74154      60.708193      54390.619     -21189.797      3353.2027     -17836.594      1.0488474    
   2445000   301.90338     -118.33749      54240.493     -21050.877      3377.3871     -17673.49       1.0517503    
   2446000   305.7107       998.3184       53768.017     -20928.024      3419.9795     -17508.045      1.0609924    
   2447000   294.89957     -192.93837      54676.369     -21007.685      3299.0357     -17708.649      1.0433659    
   2448000   296.94306      238.08104      54548.874     -21067.962      3321.8961     -17746.065      1.0458045    
   2449000   303.18942      1003.8751      53921.887     -21024.764      3391.774      -17632.99       1.0579648    
   2450000   298.28629      209.02172      54507.969     -21129.282      3336.9228     -17792.36       1.0465893    
   2451000   295.53589     -340.64229      54158.874     -20971.446      3306.1541     -17665.292      1.0533354    
   2452000   297.28374      180.81001      54660.028     -20983.478      3325.7073     -17657.77       1.0436778    
   2453000   302.0453       783.46507      53743.505     -21131.892      3378.9748     -17752.917      1.0614763    
   2454000   309.36516     -210.09012      54278.586     -21106.264      3460.8619     -17645.402      1.0510122    
   2455000   307.76571      549.51678      54334.41      -21057.675      3442.9689     -17614.706      1.0499324    
   2456000   300.91266     -27.948579      54377.535     -20982.925      3366.3039     -17616.621      1.0490997    
   2457000   303.81515     -411.51141      54634.317     -21132.821      3398.774      -17734.047      1.044169     
   2458000   298.02864      1077.4432      54384.388     -21201.17       3334.0405     -17867.13       1.0489675    
   2459000   297.37153      294.64635      54293.267     -21158.513      3326.6894     -17831.823      1.050728     
   2460000   306.48466      206.43549      54038.51      -21053.645      3428.6378     -17625.007      1.0556816    
   2461000   304.42263     -76.964255      54251.989     -21034.513      3405.5699     -17628.943      1.0515275    
   2462000   306.20024      168.58073      54172.159     -21081.64       3425.456      -17656.184      1.0530771    
   2463000   298.53879     -570.20197      54431.54      -20984.308      3339.7476     -17644.56       1.0480588    
   2464000   297.13614     -274.05444      54775.704     -21134.29       3324.0561     -17810.234      1.0414738    
   2465000   299.90717      328.56697      54186.364     -21100.386      3355.0556     -17745.331      1.052801     
   2466000   299.55463     -521.5908       54288.813     -21043.685      3351.1117     -17692.573      1.0508142    
   2467000   298.07028     -501.59736      54319.758     -21016.21       3334.5063     -17681.704      1.0502156    
   2468000   297.78758     -190.20279      54295.224     -21097.309      3331.3437     -17765.965      1.0506902    
   2469000   291.38637     -111.89874      54388.067     -21108.161      3259.7336     -17848.427      1.0488966    
   2470000   296.74706      518.33561      53828.025     -21026.179      3319.7035     -17706.476      1.0598096    
   2471000   299.42305     -436.0924       54492.075     -21111.505      3349.6397     -17761.865      1.0468946    
   2472000   301.37085      239.54221      54242.979     -21039.56       3371.4297     -17668.13       1.0517022    
   2473000   296.53618     -103.23538      53696.018     -21079.572      3317.3444     -17762.227      1.062415     
   2474000   300.94163     -832.56808      54642.624     -21025.584      3366.628      -17658.956      1.0440102    
   2475000   293.65161      767.49169      54371.23      -21106.741      3285.0747     -17821.666      1.0492214    
   2476000   297.39444      364.34134      53997.197     -21013.689      3326.9457     -17686.743      1.0564892    
   2477000   304.1318       702.07834      53960.177     -21002.199      3402.3164     -17599.882      1.057214     
   2478000   301.18857     -507.49261      54446.835     -21029.942      3369.3906     -17660.552      1.0477644    
   2479000   299.07889     -229.8928       54141.277     -21037.965      3345.7896     -17692.176      1.0536777    
   2480000   300.78672      632.04779      54483.062     -21083.247      3364.895      -17718.352      1.0470678    
   2481000   298.58701     -549.15615      54769.76      -21120.916      3340.2869     -17780.629      1.0415868    
   2482000   299.38714     -322.59584      54390.204     -21113.733      3349.238      -17764.495      1.0488554    
   2483000   301.55467     -442.5256       54194.321     -21020.675      3373.4861     -17647.189      1.0526464    
   2484000   293.31345     -355.36367      53758.936     -21012.421      3281.2918     -17731.129      1.0611716    
   2485000   302.84251     -253.76013      54051.447     -21185.012      3387.8931     -17797.119      1.0554289    
   2486000   294.14667      701.1714       54226.56      -21069.986      3290.613      -17779.373      1.0520206    
   2487000   294.45577      646.57564      54906.582     -21034.942      3294.0708     -17740.872      1.0389912    
   2488000   296.02009      128.58558      54764.866     -21022.752      3311.5709     -17711.182      1.0416799    
   2489000   299.93874     -798.05529      54302.382     -21113.9        3355.4088     -17758.491      1.0505517    
   2490000   293.86643     -607.46878      54662.833     -21055.129      3287.4779     -17767.651      1.0436242    
   2491000   295.59132     -409.74017      54363.681     -21078.408      3306.7742     -17771.634      1.0493671    
   2492000   294.56189     -164.71034      54879.327     -21011.727      3295.2581     -17716.469      1.0395072    
   2493000   292.10563      366.43963      54552.043     -21039.618      3267.7799     -17771.838      1.0457437    
   2494000   301.44031      282.3886       54265.512     -21037.048      3372.2068     -17664.841      1.0512654    
   2495000   301.51519     -308.81314      54238.971     -21103.112      3373.0445     -17730.068      1.0517799    
   2496000   301.28429      89.238843      54375.212     -21067.735      3370.4613     -17697.273      1.0491446    
   2497000   307.37825     -28.44506       53968.297     -20992.193      3438.6344     -17553.558      1.057055     
   2498000   299.88306     -500.15108      54331.625     -21034.183      3354.7858     -17679.397      1.0499862    
   2499000   302.52806     -679.74783      54015.892     -21071.942      3384.3753     -17687.567      1.0561236    
   2500000   296.08982      225.90617      54364.223     -20969.513      3312.351      -17657.162      1.0493566    
   2501000   305.60483     -901.73199      54330.599     -20949.058      3418.7952     -17530.262      1.050006     
   2502000   295.71981      1313.3726      54478.496     -20909.126      3308.2116     -17600.914      1.0471555    
   2503000   301.18605     -552.44416      54924.948     -20977.098      3369.3624     -17607.736      1.0386438    
   2504000   299.07757      76.742963      54424.335     -21086.63       3345.7748     -17740.855      1.0481976    
   2505000   299.32125      22.495443      54430.745     -20953.768      3348.5009     -17605.267      1.0480742    
   2506000   305.86998     -442.39534      54371.647     -20975.63       3421.7613     -17553.868      1.0492133    
   2507000   296.06045      34.592523      53787.791     -21127.575      3312.0223     -17815.553      1.0606024    
   2508000   302.68504      516.19439      54435.446     -21114.229      3386.1315     -17728.097      1.0479836    
   2509000   297.89643     -92.991146      54925.105     -20912.996      3332.5614     -17580.434      1.0386408    
   2510000   300.87115      1312.6734      54228.577     -21018.661      3365.8395     -17652.821      1.0519815    
   2511000   300.61798     -92.997175      54726.561     -21039.362      3363.0074     -17676.354      1.042409     
   2512000   298.08521     -635.62567      54888.343     -21097.246      3334.6733     -17762.573      1.0393365    
   2513000   294.40896      68.706373      54789.369     -21083.053      3293.5472     -17789.506      1.041214     
   2514000   300.51312      95.19789       54608.414     -21048.701      3361.8343     -17686.866      1.0446642    
   2515000   297.05788     -181.2001       54552.927     -20948.622      3323.1806     -17625.442      1.0457268    
   2516000   302.19594      93.731546      54697.724     -21112.261      3380.66       -17731.601      1.0429585    
   2517000   298.96421     -125.76008      54304.322     -20964.139      3344.5067     -17619.633      1.0505141    
   2518000   299.46013     -313.34008      54129.712     -21093.87       3350.0546     -17743.816      1.0539028    
   2519000   303.80898     -274.94289      53912.857     -20992.994      3398.705      -17594.289      1.058142     
   2520000   304.59226     -427.2844       54218.15      -21064.05       3407.4675     -17656.583      1.0521838    
   2521000   303.07346      902.09338      54331.743     -21071.964      3390.4767     -17681.487      1.0499839    
   2522000   295.83805     -142.54386      54768.5       -21103.107      3309.5344     -17793.572      1.0416107    
   2523000   300.75859      105.03294      54455.165     -20942.28       3364.5803     -17577.699      1.0476042    
   2524000   295.9062       395.48808      54577.471     -20995.576      3310.2968     -17685.279      1.0452565    
   2525000   301.6718      -472.85756      54550.67      -21025.287      3374.7964     -17650.491      1.0457701    
   2526000   304.80151      191.68347      54163.588     -20989.541      3409.8085     -17579.732      1.0532437    
   2527000   300.30817     -565.89175      54781.868     -20951.875      3359.5415     -17592.334      1.0413566    
   2528000   304.52841     -381.67149      54335.029     -21013.563      3406.7532     -17606.81       1.0499204    
   2529000   293.27556     -208.20278      54532.458     -21019.825      3280.8679     -17738.957      1.0461193    
   2530000   297.2928       11.443952      54497.569     -21181.942      3325.8087     -17856.133      1.046789     
   2531000   297.55985      1224.2507      54417.635     -21053.242      3328.7961     -17724.446      1.0483267    
   2532000   300.13804      154.63032      54139.231     -21042.809      3357.6383     -17685.171      1.0537175    
   2533000   299.56614      585.22295      53953.088     -21080.553      3351.2404     -17729.312      1.057353     
   2534000   299.84275      196.7679       54205.091     -21138.085      3354.3349     -17783.75       1.0524373    
   2535000   292.84176      383.47387      54451.442     -21094.102      3276.0149     -17818.087      1.0476758    
   2536000   299.83846     -192.21848      54063.408     -21078.63       3354.2868     -17724.344      1.0551954    
   2537000   306.05804     -845.77446      54684.721     -21029.329      3423.8652     -17605.464      1.0432065    
   2538000   302.6193      -31.554062      54479.078     -21173.957      3385.3961     -17788.561      1.0471443    
   2539000   305.53337     -654.35148      54453.122     -21131.974      3417.9957     -17713.978      1.0476435    
   2540000   300.67362      327.02861      54839.475     -20994.803      3363.6298     -17631.173      1.0402627    
   2541000   294.5967      -752.55544      54564.406     -21019.25       3295.6474     -17723.602      1.0455068    
   2542000   299.92349     -438.0154       54352.742     -21114.358      3355.2381     -17759.12       1.0495783    
   2543000   296.82394     -481.5277       54410.662     -21106.986      3320.5635     -17786.422      1.048461     
   2544000   301.34604     -372.02143      54070.785     -20983.218      3371.1521     -17612.065      1.0550514    
   2545000   294.51788     -80.005807      54612.364     -21103.291      3294.7657     -17808.525      1.0445887    
   2546000   300.36985     -282.48859      54595.117     -21118.092      3360.2316     -17757.86       1.0449187    
   2547000   304.72787      344.23609      54177.495     -21177.36       3408.9846     -17768.375      1.0529733    
   2548000   297.0924       631.98372      54793.678     -21076.933      3323.5668     -17753.367      1.0411321    
   2549000   295.5856      -93.18025       54499.064     -21019.244      3306.7103     -17712.533      1.0467603    
   2550000   301.78193      436.40134      54402.505     -21115.135      3376.0285     -17739.107      1.0486182    
   2551000   303.88406     -446.33014      54725.256     -21135.686      3399.5449     -17736.141      1.0424338    
   2552000   296.16005     -458.77898      55073.284     -21109.743      3313.1366     -17796.606      1.0358463    
   2553000   305.5994       144.17355      54719.139     -21034.882      3418.7345     -17616.147      1.0425504    
   2554000   299.72684     -498.28399      54768.589     -21073.785      3353.0382     -17720.747      1.041609     
   2555000   304.20662      243.07639      54735.483     -21178.145      3403.1534     -17774.992      1.0422391    
   2556000   291.12158      452.33422      54102.444     -21163.232      3256.7713     -17906.461      1.054434     
   2557000   300.8097       169.98981      54791.831     -21142.659      3365.1521     -17777.507      1.0411672    
   2558000   301.28438      418.27086      54433.092     -20984.631      3370.4624     -17614.168      1.048029     
   2559000   295.81559      112.41993      54681.685     -20948.084      3309.2832     -17638.801      1.0432644    
   2560000   305.12136      341.52246      54410.111     -21068.504      3413.3866     -17655.118      1.0484716    
   2561000   302.75741      737.41266      54369.037     -21038.703      3386.9411     -17651.762      1.0492637    
   2562000   299.12801      128.25453      53725.811     -21075.829      3346.3391     -17729.49       1.0618259    
   2563000   301.7506      -776.06596      54988.813     -21017.485      3375.6779     -17641.807      1.0374375    
   2564000   297.32589     -105.11273      54212.111     -21175.404      3326.1788     -17849.225      1.052301     
   2565000   297.24911      345.04306      54594.739     -20947.718      3325.3199     -17622.398      1.0449259    
   2566000   291.55724      368.71856      54632.98      -21050.702      3261.6451     -17789.057      1.0441945    
   2567000   307.4964       124.87157      54262.465     -21175.977      3439.9561     -17736.021      1.0513245    
   2568000   304.39889      380.40535      54695.684     -21134.608      3405.3044     -17729.303      1.0429974    
   2569000   300.2764       24.450621      54588.188     -21109.104      3359.1862     -17749.918      1.0450513    
   2570000   299.256       -1100.1188      54488.282     -21045.904      3347.7709     -17698.133      1.0469674    
   2571000   298.53992     -757.93363      55540.56      -20979.288      3339.7601     -17639.528      1.0271315    
   2572000   296.50033      215.08621      54411.216     -20933.591      3316.9433     -17616.647      1.0484503    
   2573000   306.34214      75.224369      54254.665     -21039.385      3427.0435     -17612.342      1.0514756    
   2574000   306.64627      617.96345      54426.803     -20976.369      3430.4457     -17545.924      1.0481501    
   2575000   297.2772       329.5863       53814.904     -21081.202      3325.6341     -17755.568      1.060068     
   2576000   301.88182      675.24645      54178.214     -21010.076      3377.1459     -17632.93       1.0529594    
   2577000   303.89989      226.71761      54312.693     -21030.515      3399.722      -17630.793      1.0503522    
   2578000   296.58896      22.763289      54759.971     -21064.084      3317.9348     -17746.149      1.041773     
   2579000   303.48544     -217.25826      54596.795     -20907.206      3395.0856     -17512.12       1.0448866    
   2580000   295.62423      752.51011      53890.705     -21085.347      3307.1424     -17778.204      1.0585769    
   2581000   295.5911      -36.310949      54768.819     -21115.452      3306.7718     -17808.68       1.0416047    
   2582000   295.69042     -432.47112      54671.192     -20960.362      3307.8828     -17652.479      1.0434647    
   2583000   304.04957     -562.79556      54493.654     -21165.504      3401.3965     -17764.107      1.0468642    
   2584000   303.0187      -222.25235      55149.478     -21030.89       3389.8642     -17641.026      1.0344152    
   2585000   296.40367      280.88282      54412.848     -21015.794      3315.862      -17699.932      1.0484189    
   2586000   300.12828      598.18612      53756.469     -21117.831      3357.529      -17760.302      1.0612203    
   2587000   300.17801     -462.34922      54263.42      -21065.343      3358.0855     -17707.258      1.051306     
   2588000   308.7678       430.58232      54707.435     -21055.847      3454.1792     -17601.667      1.0427734    
   2589000   304.0816       252.1643       54428.5       -21005.004      3401.7548     -17603.249      1.0481174    
   2590000   300.56117      256.53206      54547.304     -20918.098      3362.3718     -17555.727      1.0458346    
   2591000   304.92527     -15.133564      54766.449     -21072.208      3411.1929     -17661.015      1.0416497    
   2592000   301.66417     -161.7357       54308.715     -21037.403      3374.711      -17662.692      1.0504292    
   2593000   299.98387      31.685072      54795.755     -20897.987      3355.9136     -17542.073      1.0410927    
   2594000   289.65983      142.71941      54317.87      -21114.817      3240.4187     -17874.398      1.0502521    
   2595000   302.73482      163.47925      54833.497     -21000.487      3386.6885     -17613.799      1.0403761    
   2596000   296.54242      511.40171      54715.231     -20910.243      3317.4141     -17592.829      1.0426248    
   2597000   294.85593      2.0484866      54814.058     -20923.266      3298.5474     -17624.719      1.040745     
   2598000   299.69311     -331.87412      54469.282     -21024.734      3352.6609     -17672.073      1.0473326    
   2599000   306.11038      520.84371      54504.665     -21084.787      3424.4508     -17660.336      1.0466528    
   2600000   299.72924      583.67246      54434.219     -21101.737      3353.0651     -17748.672      1.0480073    
   2600010   296.76981      243.75143      54507.028     -21086.697      3319.9579     -17766.739      1.0466074    
Loop time of 79154.1 on 10 procs for 2000000 steps with 5541 atoms

Performance: 4.366 ns/day, 5.497 hours/ns, 25.267 timesteps/s, 140.005 katom-step/s
625.6% CPU use with 1 MPI tasks x 10 OpenMP threads

MPI task timing breakdown:
Section |  min time  |  avg time  |  max time  |%varavg| %total
---------------------------------------------------------------
Pair    | 2000.7     | 2000.7     | 2000.7     |   0.0 |  2.53
Bond    | 23.79      | 23.79      | 23.79      |   0.0 |  0.03
Kspace  | 38162      | 38162      | 38162      |   0.0 | 48.21
Neigh   | 70.424     | 70.424     | 70.424     |   0.0 |  0.09
Comm    | 785.42     | 785.42     | 785.42     |   0.0 |  0.99
Output  | 31.175     | 31.175     | 31.175     |   0.0 |  0.04
Modify  | 37743      | 37743      | 37743      |   0.0 | 47.68
Other   |            | 337.3      |            |       |  0.43

Nlocal:           5541 ave        5541 max        5541 min
Histogram: 1 0 0 0 0 0 0 0 0 0
Nghost:          35529 ave       35529 max       35529 min
Histogram: 1 0 0 0 0 0 0 0 0 0
Neighs:    4.72896e+06 ave 4.72896e+06 max 4.72896e+06 min
Histogram: 1 0 0 0 0 0 0 0 0 0

Total # of neighbors = 4728956
Ave neighs/atom = 853.44811
Ave special neighs/atom = 2.4872767
Neighbor list builds = 186495
Dangerous builds = 0

unfix mynpt
undump prod_traj
undump prod_dcd
undump prod_img
unfix thermo_avg
unfix thermo_detailed
unfix rdf_CO_avg
unfix rdf_CC_avg
unfix rdf_OO_avg
unfix msd_avg
uncompute rdf_CO
uncompute rdf_CC
uncompute rdf_OO
uncompute msd_water

#==============================================================================
# FINAL OUTPUT AND VERIFICATION
#==============================================================================
print ""

print "===== Saving Final Configuration ====="
===== Saving Final Configuration =====

write_data equilibrated_system.data
System init for write_data ...
PPPM initialization ...
  extracting TIP4P info from pair style
  using 12-bit tables for long-range coulomb
  G vector (1/distance) = 0.28824888
  grid = 50 50 50
  stencil order = 5
  estimated absolute RMS force accuracy = 0.00033111616
  estimated relative force accuracy = 9.9714647e-07
  using double precision FFTW3
  3d grid and FFT values/proc = 205379 125000
Generated 0 of 3 mixed pair_coeff terms from geometric mixing rule
WARNING: Not all mixed pair coeffs generated from mixing. Use write_data with 'pair ij' option to store all pair coeffs. (src/write_data.cpp:364)
write_restart equilibrated_system.restart
System init for write_restart ...
PPPM initialization ...
  extracting TIP4P info from pair style
  using 12-bit tables for long-range coulomb
  G vector (1/distance) = 0.28824888
  grid = 50 50 50
  stencil order = 5
  estimated absolute RMS force accuracy = 0.00033111616
  estimated relative force accuracy = 9.9714647e-07
  using double precision FFTW3
  3d grid and FFT values/proc = 205379 125000
Generated 0 of 3 mixed pair_coeff terms from geometric mixing rule

print ""

print "â•â•â•â•â•â•â•â•â•â•â•â•â•â•â•â•â•â•â•â•â•â•â•â•â•â•â•â•â•â•â•â•â•â•â•â•â•â•â•â•â•â•â•â•â•â•â•â•â•â•â•â•â•â•â•â•â•â•â•â•â•â•â•â•â•â•â•â•â•â•â•â•â•â•â•â•"
••••••••••••••••••••••••••••••••••••••••••••••••••••••••••••••••••••••••••••
print "                     EQUILIBRATION COMPLETE - SUCCESS!"
                     EQUILIBRATION COMPLETE - SUCCESS!
print "â•â•â•â•â•â•â•â•â•â•â•â•â•â•â•â•â•â•â•â•â•â•â•â•â•â•â•â•â•â•â•â•â•â•â•â•â•â•â•â•â•â•â•â•â•â•â•â•â•â•â•â•â•â•â•â•â•â•â•â•â•â•â•â•â•â•â•â•â•â•â•â•â•â•â•â•"
••••••••••••••••••••••••••••••••••••••••••••••••••••••••••••••••••••••••••••
print ""

print "Simulation Summary:"
Simulation Summary:
print "  Total simulation time: 5.22 ns"
  Total simulation time: 5.22 ns
print "    - NVT thermalization:     50 ps"
    - NVT thermalization:     50 ps
print "    - Pre-equilibration:      50 ps  (NEW - prevents PPPM artifacts)"
    - Pre-equilibration:      50 ps  (NEW - prevents PPPM artifacts)
print "    - Pressure ramp:         100 ps  (EXTENDED and with drag damping)"
    - Pressure ramp:         100 ps  (EXTENDED and with drag damping)
print "    - NPT equilibration:    1000 ps"
    - NPT equilibration:    1000 ps
print "    - Production run:       4000 ps (4 ns)"
    - Production run:       4000 ps (4 ns)
print ""


# Final measurements
variable final_temp equal temp
variable final_press equal press
variable final_dens equal density
variable final_vol equal vol
variable final_boxsize equal vol^(1.0/3.0)
variable final_pe equal pe
variable final_ke equal ke
variable final_etotal equal etotal

print "Final Thermodynamic State:"
Final Thermodynamic State:
print "  Temperature:    ${final_temp} K      (target: 300K)"
  Temperature:    296.769808673031 K      (target: 300K)
print "  Pressure:       ${final_press} atm   (target: 1 atm)"
  Pressure:       243.751429116902 atm   (target: 1 atm)
print "  Density:        ${final_dens} g/cmÂ³  (target: 0.95-1.05)"
  Density:        1.04660737536728 g/cm³  (target: 0.95-1.05)
print "  Volume:         ${final_vol} Ã…Â³"
  Volume:         54507.0280975019 …³
print "  Box size:       ${final_boxsize} Ã…    (expected: 58-63)"
  Box size:       37.9155623063182 …    (expected: 58-63)
print ""

print "Final Energies:"
Final Energies:
print "  Potential:      ${final_pe} kcal/mol"
  Potential:      -21086.6973781572 kcal/mol
print "  Kinetic:        ${final_ke} kcal/mol"
  Kinetic:        3319.95794914399 kcal/mol
print "  Total:          ${final_etotal} kcal/mol"
  Total:          -17766.7394290132 kcal/mol
print ""


# Comprehensive validation
if "${final_dens} >= 0.85 && ${final_dens} <= 1.15" then     "print 'âœ… SUCCESS: System equilibrated to LIQUID PHASE!'"     "print ''"     "print 'Quality Indicators:'"     "if '${final_dens} >= 0.95 && ${final_dens} <= 1.05' then 'print \"  âœ“ Density: EXCELLENT (within 5% of water)\"' else 'print \"  âš  Density: ACCEPTABLE (but check TIP4P/2005 reference)\"'"     "if '${final_press} >= -50.0 && ${final_press} <= 50.0' then 'print \"  âœ“ Pressure: EXCELLENT (normal fluctuations)\"' else 'print \"  âš  Pressure: CHECK (may need longer equilibration)\"'"     "if '${final_temp} >= 295.0 && ${final_temp} <= 305.0' then 'print \"  âœ“ Temperature: EXCELLENT\"' else 'print \"  âš  Temperature: CHECK (thermostat may need tuning)\"'" else     "print 'âš ï¸  WARNING: Density ${final_dens} g/cmÂ³ outside normal range'"     "print 'Expected: 0.95-1.05 g/cmÂ³ for TIP4P/2005 water at 300K, 1 atm'"     "print ''"     "print 'Possible explanations:'"     "print '  - System still equilibrating (try longer NPT)'"     "print '  - Force field parameters incorrect'"     "print '  - Nanoparticle affecting bulk water density'"
ERROR: Input line quote not followed by white-space (src/input.cpp:556)
Last input line: if "${final_dens} >= 0.85 && ${final_dens} <= 1.15" then "print 'âœ… SUCCESS: System equilibrated to LIQUID PHASE!'" "print ''" "print 'Quality Indicators:'" "if '${final_dens} >= 0.95 && ${final_dens} <= 1.05' then 'print \" âœ“ Density: EXCELLENT (within 5% of water)\"' else 'print \" âš  Density: ACCEPTABLE (but check TIP4P/2005 reference)\"'" "if '${final_press} >= -50.0 && ${final_press} <= 50.0' then 'print \" âœ“ Pressure: EXCELLENT (normal fluctuations)\"' else 'print \" âš  Pressure: CHECK (may need longer equilibration)\"'" "if '${final_temp} >= 295.0 && ${final_temp} <= 305.0' then 'print \" âœ“ Temperature: EXCELLENT\"' else 'print \" âš  Temperature: CHECK (thermostat may need tuning)\"'" else "print 'âš ï¸ WARNING: Density ${final_dens} g/cmÂ³ outside normal range'" "print 'Expected: 0.95-1.05 g/cmÂ³ for TIP4P/2005 water at 300K, 1 atm'" "print ''" "print 'Possible explanations:'" "print ' - System still equilibrating (try longer NPT)'" "print ' - Force field parameters incorrect'" "print ' - Nanoparticle affecting bulk water density'"
