LAMMPS (10 Sep 2025)
  using 5 OpenMP thread(s) per MPI task
package gpu 1 neigh yes newton off binsize 2.8 split 1.0
# LAMMPS Input Script: FULLY CORRECTED NPT Equilibration
# Purpose: Equilibrate solvated nanoparticle system at 300K, 1 bar
# Water Model: TIP4P/2005 (implicit M-site)
# GPU acceleration: Enabled for MD stages
#
# COMPLETE FIXES APPLIED (2024-11-13):
# 1. âœ… CRITICAL FIX: PPPM grid locked to prevent recalculation artifacts
# 2. âœ… CRITICAL FIX: Pre-equilibration stage to reduce initial pressure
# 3. âœ… FIXED: Gentler pressure ramp (100 atm â†’ 1 atm) with drag damping
# 4. âœ… FIXED: SHAKE verification and proper constraint application
# 5. âœ… EXTENDED: Longer equilibration (1000 ps) and production (4000 ps)
# 6. âœ… ENHANCED: Multiple density checkpoints to catch failures early
# 7. âœ… OPTIMIZED: 2 fs timestep (SHAKE allows this, 2Ã— speedup)
#
# Total time: 5.22 ns (50ps NVT + 50ps pre-equil + 100ps ramp + 1000ps NPT + 4000ps prod)
#
# ROOT CAUSE OF PREVIOUS FAILURE:
# - PPPM grid recalculation at step 51,000 caused 169,712 atm pressure spike
# - Barostat overreacted â†’ box expanded 63Ã— â†’ gas phase (Ï=0.025 g/cmÂ³)
# - All epsilon values failed identically (proves it's numerical, not physical)
#
# SOLUTION: Lock PPPM grid + reduce initial pressure + add checkpoints

# ===== INITIALIZATION =====
units real
atom_style full
boundary p p p
atom_modify map array

# ===== COMMUNICATION =====
# Increased cutoff to handle potential box fluctuations safely
comm_modify cutoff 18.0

# ===== FORCE FIELD (FULLY GPU-accelerated) =====
# CORRECTED: O=type2, H=type3 (C60 carbon is type1)
pair_style lj/cut/tip4p/long/gpu 2 3 2 1 0.1546 12.0

# ğŸ”§ CRITICAL: Use pppm/gpu for FULL GPU acceleration of Coulomb forces
# pppm/tip4p is CPU-based bottleneck (~90% CPU, ~10% GPU)
# pppm/gpu runs Coulomb solver on GPU â†’ 5-10Ã— speedup for long-range forces
kspace_style pppm/gpu 1.0e-4

# ğŸ”§ CRITICAL FIX #1: Lock PPPM grid to prevent recalculation
# This prevents the 169,712 atm pressure spike that caused gas-phase failure
kspace_modify mesh 50 50 50    # Fixed grid (handles boxes up to ~125 Ã…, increased from 40)
kspace_modify order 5           # Higher interpolation order for accuracy
kspace_modify force/disp/real 0.8  # Balance real/k-space work

bond_style harmonic
angle_style harmonic

read_data large_C60_solvated.data
Reading data file ...
  orthogonal box = (-20 -20 -20) to (20 20 20)
  1 by 1 by 1 MPI processor grid
  reading atoms ...
  5541 atoms
  reading velocities ...
  5541 velocities
  scanning bonds ...
  3 = max bonds/atom
  scanning angles ...
  1 = max angles/atom
  orthogonal box = (-20 -20 -20) to (20 20 20)
  1 by 1 by 1 MPI processor grid
  reading bonds ...
  3844 bonds
  reading angles ...
  1787 angles
Finding 1-2 1-3 1-4 neighbors ...
  special bond factors lj:    0        0        0       
  special bond factors coul:  0        0        0       
     3 = max # of 1-2 neighbors
     6 = max # of 1-3 neighbors
    18 = max # of 1-4 neighbors
    17 = max # of special neighbors
  special bonds CPU = 0.002 seconds
  read_data CPU = 0.086 seconds

# ===== PAIR COEFFICIENTS (CORRECTED ATOM TYPE MAPPING) =====
# Type 1: C60 carbon (180 atoms from 3 C60 particles)
# Type 2: Water oxygen (~2000 molecules)
# Type 3: Water hydrogen (~4000 atoms)
# TIP4P/2005 parameters (verified against literature)
pair_coeff 2 2 0.1852 3.1589    # O-O (type 2, Îµ=0.1852 kcal/mol, Ïƒ=3.1589 Ã…)
pair_coeff 3 3 0.0 0.0          # H-H (type 3, no interaction)

# C60 fullerene parameters
pair_coeff 1 1 0.07 3.4         # C-C (type 1, Îµ=0.07 kcal/mol, Ïƒ=3.4 Ã…)

# C60-water cross interactions
# Tunable parameter (passed from bash script via -var)
variable epsilon_co equal ${EPSILON_CO}
variable epsilon_co equal 0.75
pair_coeff 1 2 ${epsilon_co} 3.2   # C-O (hydrophobicity parameter)
pair_coeff 1 2 0.75 3.2   
pair_coeff 1 3 0.0 0.0             # C-H (no interaction)
pair_coeff 2 3 0.0 0.0             # O-H (no LJ, only Coulombic)

# Bond and angle coefficients
bond_coeff 1 938.0 1.42         # C-C bonds in C60 (bond type 1)
bond_coeff 2 0.0 0.9572         # O-H bonds in water (bond type 2, SHAKE controlled)
angle_coeff 1 0.0 104.52        # H-O-H angle in water (angle type 1, SHAKE controlled)

# ===== SETTINGS =====
neighbor 2.0 bin                 # Increased skin for safety
neigh_modify delay 5 every 1 check yes

# Define groups (CORRECTED)
group carbon type 1        # C60 atoms (type 1)
180 atoms in group carbon
group water type 2 3       # All water atoms (O=type2, H=type3)
5361 atoms in group water
group oxygen type 2        # Water oxygen atoms (type 2)
1787 atoms in group oxygen
group hydrogen type 3      # Water hydrogen atoms (type 3)
3574 atoms in group hydrogen

# Define individual C60 molecules (60 atoms each)
# Assuming atoms 1-60 = C60_1, 61-120 = C60_2, 121-180 = C60_3
group c60_1 id 1:60
60 atoms in group c60_1
group c60_2 id 61:120
60 atoms in group c60_2
group c60_3 id 121:180
60 atoms in group c60_3

# Define thermodynamic variables
variable temp equal c_thermo_temp
variable press equal c_thermo_press
variable pe equal pe
variable ke equal ke
variable etotal equal etotal
variable vol equal vol
variable dens equal density

thermo_style custom step temp press vol pe ke etotal density
thermo 1000

# ğŸ”§ CRITICAL FIX #2: Use 2 fs timestep (SHAKE allows this, 2Ã— speedup)
timestep 2.0

# Print system info
print "â•â•â•â•â•â•â•â•â•â•â•â•â•â•â•â•â•â•â•â•â•â•â•â•â•â•â•â•â•â•â•â•â•â•â•â•â•â•â•â•â•â•â•â•â•â•â•â•â•â•â•â•â•â•â•â•â•â•â•â•â•â•â•â•â•â•â•â•â•â•â•â•â•â•â•â•"
WARNING: Detected non-ASCII characters in input. Will try to continue by replacing with ASCII equivalents where known. (src/input.cpp:479)
••••••••••••••••••••••••••••••••••••••••••••••••••••••••••••••••••••••••••••
print "SYSTEM INFORMATION:"
SYSTEM INFORMATION:
print "  Epsilon (O-C): ${epsilon_co} kcal/mol"
  Epsilon (O-C): 0.75 kcal/mol
print "  Random seed:   ${RANDOM_SEED}"
  Random seed:   42
print "  Timestep:      2.0 fs (with SHAKE constraints)"
  Timestep:      2.0 fs (with SHAKE constraints)
print "  PPPM grid:     40Ã—40Ã—40 (LOCKED to prevent artifacts)"
  PPPM grid:     40—40—40 (LOCKED to prevent artifacts)
print "â•â•â•â•â•â•â•â•â•â•â•â•â•â•â•â•â•â•â•â•â•â•â•â•â•â•â•â•â•â•â•â•â•â•â•â•â•â•â•â•â•â•â•â•â•â•â•â•â•â•â•â•â•â•â•â•â•â•â•â•â•â•â•â•â•â•â•â•â•â•â•â•â•â•â•â•"
••••••••••••••••••••••••••••••••••••••••••••••••••••••••••••••••••••••••••••
print ""


#==============================================================================
# STAGE 0: Gentle Minimization (CPU pair style for stability)
#==============================================================================
print "===== STAGE 0: Gentle Minimization (removing any overlaps) ====="
===== STAGE 0: Gentle Minimization (removing any overlaps) =====
print "Using CPU pair style for numerical stability during minimization"
Using CPU pair style for numerical stability during minimization
print ""


# Switch to CPU pair style for minimization (GPU can be unstable)
pair_style lj/cut/tip4p/long 2 3 2 1 0.1546 12.0
kspace_style pppm/tip4p 1.0e-4
kspace_modify mesh 50 50 50
kspace_modify order 5

# Re-apply pair coefficients with current epsilon_co
pair_coeff 1 1 0.07 3.4            # C-C
pair_coeff 2 2 0.1852 3.1589       # O-O
pair_coeff 3 3 0.0 0.0             # H-H
pair_coeff 1 2 ${epsilon_co} 3.2   # C-O (variable)
pair_coeff 1 2 0.75 3.2   
pair_coeff 1 3 0.0 0.0             # C-H
pair_coeff 2 3 0.0 0.0             # O-H

# Very gentle minimization (just remove bad contacts, if any)
# Using very relaxed tolerances and limited steps for speed
thermo 100
minimize 0.0 10.0 10 100  # Ultra-gentle: etol=0, ftol=10, max 10 eval, max 100 iter

CITE-CITE-CITE-CITE-CITE-CITE-CITE-CITE-CITE-CITE-CITE-CITE-CITE

Your simulation uses code contributions which should be cited:

- GPU package (short-range, long-range and three-body potentials): doi:10.1016/j.cpc.2010.12.021, doi:10.1016/j.cpc.2011.10.012, doi:10.1016/j.cpc.2013.08.002, doi:10.1016/j.commatsci.2014.10.068, doi:10.1016/j.cpc.2016.10.020, doi:10.3233/APC200086

@Article{Brown11,
 author = {W. M. Brown and P. Wang and S. J. Plimpton and A. N. Tharrington},
 title = {Implementing Molecular Dynamics on Hybrid High Performance Computers---Short Range Forces},
 journal = {Comput.\ Phys.\ Commun.},
 year =    2011,
 volume =  182,
 pages =   {898--911},
 doi =     {10.1016/j.cpc.2010.12.021}
}

@Article{Brown12,
 author = {W. M. Brown and A. Kohlmeyer and S. J. Plimpton and A. N. Tharrington},
 title = {Implementing Molecular Dynamics on Hybrid High Performance Computers - Particle-Particle Particle-Mesh},
 journal = {Comput.\ Phys.\ Commun.},
 year =    2012,
 volume =  183,
 doi =     {10.1016/j.cpc.2011.10.012},
 pages =   {449--459}
}

@Article{Brown13,
 author = {W. M. Brown and Y. Masako},
 title = {Implementing Molecular Dynamics on Hybrid High Performance Computers---Three-Body Potentials},
 journal = {Comput.\ Phys.\ Commun.},
 year =    2013,
 volume =  184,
 pages =   {2785--2793},
 doi =     {10.1016/j.cpc.2013.08.002},
}

@Article{Trung15,
 author = {T. D. Nguyen and S. J. Plimpton},
 title = {Accelerating Dissipative Particle Dynamics Simulations for Soft Matter Systems},
 journal = {Comput.\ Mater.\ Sci.},
 year =    2015,
 doi =     {10.1016/j.commatsci.2014.10.068},
 volume =  100,
 pages =   {173--180}
}

@Article{Trung17,
 author = {T. D. Nguyen},
 title = {{GPU}-Accelerated {T}ersoff Potentials for Massively Parallel
    Molecular Dynamics Simulations},
 journal = {Comput.\ Phys.\ Commun.},
 year =    2017,
 doi =     {10.1016/j.cpc.2016.10.020},
 volume =  212,
 pages =   {113--122}
}

@inproceedings{Nikolskiy19,
 author = {V. Nikolskiy and V. Stegailov},
 title = {{GPU} Acceleration of Four-Site Water Models in {LAMMPS}},
 booktitle = {Proceedings of the International Conference on Parallel
    Computing (ParCo 2019), Prague, Czech Republic},
 doi =     {10.3233/APC200086},
 year =    2019
}

CITE-CITE-CITE-CITE-CITE-CITE-CITE-CITE-CITE-CITE-CITE-CITE-CITE

Switching to 'neigh_modify every 1 delay 0 check yes' setting during minimization
PPPM initialization ...
  extracting TIP4P info from pair style
  using 12-bit tables for long-range coulomb
  G vector (1/distance) = 0.28512662
  grid = 50 50 50
  stencil order = 5
  estimated absolute RMS force accuracy = 0.00038934319
  estimated relative force accuracy = 1.1724955e-06
  using double precision FFTW3
  3d grid and FFT values/proc = 185193 125000
Generated 0 of 3 mixed pair_coeff terms from geometric mixing rule
Per MPI rank memory allocation (min/avg/max) = 51.83 | 51.83 | 51.83 Mbytes
   Step          Temp          Press          Volume         PotEng         KinEng         TotEng        Density    
         0   36.495381      27198.174      64000         -23244.789      602.67332     -22642.115      0.89136653   
        10   36.495381     -19506.579      64000         -142272.31      602.67332     -141669.63      0.89136653   
Loop time of 0.228137 on 5 procs for 10 steps with 5541 atoms

455.5% CPU use with 1 MPI tasks x 5 OpenMP threads

Minimization stats:
  Stopping criterion = max iterations
  Energy initial, next-to-last, final = 
     -23244.7887700169  -124630.752581042  -142272.308025565
  Force two-norm initial, final = 2152.6803 6845.3761
  Force max component initial, final = 49.70324 354.92377
  Final line search alpha, max atom move = 0.00038247587 0.13574978
  Iterations, force evaluations = 10 10

MPI task timing breakdown:
Section |  min time  |  avg time  |  max time  |%varavg| %total
---------------------------------------------------------------
Pair    | 0.0098063  | 0.0098063  | 0.0098063  |   0.0 |  4.30
Bond    | 0.0022095  | 0.0022095  | 0.0022095  |   0.0 |  0.97
Kspace  | 0.20885    | 0.20885    | 0.20885    |   0.0 | 91.54
Neigh   | 0          | 0          | 0          |   0.0 |  0.00
Comm    | 0.0039796  | 0.0039796  | 0.0039796  |   0.0 |  1.74
Output  | 0.00016987 | 0.00016987 | 0.00016987 |   0.0 |  0.07
Modify  | 1.345e-06  | 1.345e-06  | 1.345e-06  |   0.0 |  0.00
Other   |            | 0.003124   |            |       |  1.37

Nlocal:           5541 ave        5541 max        5541 min
Histogram: 1 0 0 0 0 0 0 0 0 0
Nghost:          33839 ave       33839 max       33839 min
Histogram: 1 0 0 0 0 0 0 0 0 0
Neighs:              0 ave           0 max           0 min
Histogram: 1 0 0 0 0 0 0 0 0 0

Total # of neighbors = 0
Ave neighs/atom = 0
Ave special neighs/atom = 2.4872767
Neighbor list builds = 0
Dangerous builds = 0

variable pe_minimized equal pe
print "Minimization complete. PE = ${pe_minimized} kcal/mol (was -23,217)"
Minimization complete. PE = -142272.308025565 kcal/mol (was -23,217)

# Switch back to GPU pair style for MD
pair_style lj/cut/tip4p/long/gpu 2 3 2 1 0.1546 12.0
kspace_style pppm/tip4p 1.0e-4
kspace_modify mesh 50 50 50
kspace_modify order 5

# Re-apply pair coefficients again after style change
pair_coeff 1 1 0.07 3.4            # C-C
pair_coeff 2 2 0.1852 3.1589       # O-O
pair_coeff 3 3 0.0 0.0             # H-H
pair_coeff 1 2 ${epsilon_co} 3.2   # C-O (variable)
pair_coeff 1 2 0.75 3.2   
pair_coeff 1 3 0.0 0.0             # C-H
pair_coeff 2 3 0.0 0.0             # O-H

print ""


#==============================================================================
# STAGE 0.5: Apply SHAKE Constraints
#==============================================================================
thermo 1000

# ğŸ”§ CRITICAL FIX #3: Apply SHAKE with proper verification
print "Applying SHAKE constraints..."
Applying SHAKE constraints...
# CORRECTED: bond type 2 = O-H, angle type 1 = H-O-H
fix myshk water shake 0.0001 20 0 b 2 a 1
Finding SHAKE clusters ...
       0 = # of size 2 clusters
       0 = # of size 3 clusters
       0 = # of size 4 clusters
    1787 = # of frozen angles
  find clusters CPU = 0.002 seconds

# Verify SHAKE is working
print "SHAKE constraint verification:"
SHAKE constraint verification:
print "  Expected: ~2000 water molecules with constrained bonds and angles"
  Expected: ~2000 water molecules with constrained bonds and angles
print "  Check minimization output for cluster sizes"
  Check minimization output for cluster sizes
print ""

print "GPU Acceleration Status:"
GPU Acceleration Status:
print "  âœ“ Pair forces (LJ):      GPU (lj/cut/tip4p/long/gpu)"
  œ“ Pair forces (LJ):      GPU (lj/cut/tip4p/long/gpu)
print "  âœ“ Coulomb (PPPM):        CPU (pppm/tip4p) - GPU suffix not available"
  œ“ Coulomb (PPPM):        CPU (pppm/tip4p) - GPU suffix not available
print "  âœ“ Neighbor lists:        GPU (neigh yes)"
  œ“ Neighbor lists:        GPU (neigh yes)
print "  â†’ Expected speedup:      2-3Ã— vs CPU-only version (pair forces only)"
  †’ Expected speedup:      2-3— vs CPU-only version (pair forces only)

#==============================================================================
# STAGE 1: NVT Thermalization (50 ps)
#==============================================================================
print ""

print "===== STAGE 1: NVT Thermalization (50 ps, GPU) ====="
===== STAGE 1: NVT Thermalization (50 ps, GPU) =====
print "Objective: Reach 300K while maintaining initial density"
Objective: Reach 300K while maintaining initial density

velocity all create 300.0 ${RANDOM_SEED} dist gaussian loop geom
velocity all create 300.0 42 dist gaussian loop geom

fix mynvt all nvt temp 300.0 300.0 100.0

# Trajectory output (every 4 ps) - using wrapped coordinates for proper visualization
dump nvt_traj all custom 2000 nvt_thermalization.lammpstrj id type xu yu zu
dump_modify nvt_traj sort id

dump nvt_dcd all dcd 2000 nvt_thermalization.dcd
dump_modify nvt_dcd unwrap yes

run 25000  # 50 ps at 2 fs timestep
PPPM initialization ...
  extracting TIP4P info from pair style
  using 12-bit tables for long-range coulomb
  G vector (1/distance) = 0.28512662
  grid = 50 50 50
  stencil order = 5
  estimated absolute RMS force accuracy = 0.00038934319
  estimated relative force accuracy = 1.1724955e-06
  using double precision FFTW3
  3d grid and FFT values/proc = 185193 125000
Generated 0 of 3 mixed pair_coeff terms from geometric mixing rule
Per MPI rank memory allocation (min/avg/max) = 51.29 | 51.29 | 51.29 Mbytes
   Step          Temp          Press          Volume         PotEng         KinEng         TotEng        Density    
        10   300           -111876.76      64000         -142272.31      3356.094      -138916.21      0.89136653   
      1000   304.29571     -1161.0199      64000         -20591.822      3404.15       -17187.672      0.89136653   
      2000   295.6178      -1233.2807      64000         -20890.327      3307.0704     -17583.256      0.89136653   
      3000   299.12363     -652.9359       64000         -21185.174      3346.2901     -17838.883      0.89136653   
      4000   302.54325     -951.66829      64000         -21058.205      3384.5454     -17673.66       0.89136653   
      5000   297.43982     -1436.2984      64000         -21201.136      3327.4533     -17873.682      0.89136653   
      6000   301.35307     -1602.6967      64000         -21256.749      3371.2308     -17885.518      0.89136653   
      7000   297.23124     -1084.5403      64000         -21187.697      3325.12       -17862.577      0.89136653   
      8000   301.63686     -973.75925      64000         -21137.782      3374.4055     -17763.377      0.89136653   
      9000   299.65609     -583.53862      64000         -21266.37       3352.2467     -17914.123      0.89136653   
     10000   300.22516     -1069.3663      64000         -21188.927      3358.6129     -17830.315      0.89136653   
     11000   300.64005     -944.59477      64000         -21118.284      3363.2543     -17755.029      0.89136653   
     12000   300.74347     -901.07551      64000         -21250.371      3364.4112     -17885.96       0.89136653   
     13000   301.48503     -718.16119      64000         -21177.759      3372.707      -17805.052      0.89136653   
     14000   298.28424     -1170.0201      64000         -21182.016      3336.8998     -17845.116      0.89136653   
     15000   304.06213     -612.95504      64000         -21236.479      3401.537      -17834.942      0.89136653   
     16000   298.08258     -716.3203       64000         -21234.541      3334.6439     -17899.897      0.89136653   
     17000   299.15619     -418.20684      64000         -21245.773      3346.6544     -17899.118      0.89136653   
     18000   298.66099     -1348.7836      64000         -21201.125      3341.1145     -17860.01       0.89136653   
     19000   303.33346     -1051.2739      64000         -21272.584      3393.3853     -17879.199      0.89136653   
     20000   301.50703     -1177.6108      64000         -21186.795      3372.9532     -17813.841      0.89136653   
     21000   306.03006     -1581.3012      64000         -21189.762      3423.5522     -17766.21       0.89136653   
     22000   301.10292     -637.2778       64000         -21179.454      3368.4324     -17811.022      0.89136653   
     23000   296.62072     -1256.227       64000         -21072.566      3318.2901     -17754.276      0.89136653   
     24000   296.98482     -1217.9134      64000         -21162.127      3322.3633     -17839.764      0.89136653   
     25000   294.76792     -1254.46        64000         -21147.386      3297.5628     -17849.824      0.89136653   
     25010   298.3786      -1547.315       64000         -21181.041      3337.9555     -17843.085      0.89136653   
Loop time of 700.541 on 5 procs for 25000 steps with 5541 atoms

Performance: 6.167 ns/day, 3.892 hours/ns, 35.687 timesteps/s, 197.740 katom-step/s
438.7% CPU use with 1 MPI tasks x 5 OpenMP threads

MPI task timing breakdown:
Section |  min time  |  avg time  |  max time  |%varavg| %total
---------------------------------------------------------------
Pair    | 24.616     | 24.616     | 24.616     |   0.0 |  3.51
Bond    | 0.3102     | 0.3102     | 0.3102     |   0.0 |  0.04
Kspace  | 632.64     | 632.64     | 632.64     |   0.0 | 90.31
Neigh   | 0.081289   | 0.081289   | 0.081289   |   0.0 |  0.01
Comm    | 13.469     | 13.469     | 13.469     |   0.0 |  1.92
Output  | 0.11179    | 0.11179    | 0.11179    |   0.0 |  0.02
Modify  | 25.995     | 25.995     | 25.995     |   0.0 |  3.71
Other   |            | 3.32       |            |       |  0.47

Nlocal:           5541 ave        5541 max        5541 min
Histogram: 1 0 0 0 0 0 0 0 0 0
Nghost:          33377 ave       33377 max       33377 min
Histogram: 1 0 0 0 0 0 0 0 0 0
Neighs:              0 ave           0 max           0 min
Histogram: 1 0 0 0 0 0 0 0 0 0

Total # of neighbors = 0
Ave neighs/atom = 0
Ave special neighs/atom = 2.4872767
Neighbor list builds = 2335
Dangerous builds = 1

unfix mynvt
undump nvt_traj
undump nvt_dcd

write_restart nvt_complete.restart
System init for write_restart ...
PPPM initialization ...
  extracting TIP4P info from pair style
  using 12-bit tables for long-range coulomb
  G vector (1/distance) = 0.28512662
  grid = 50 50 50
  stencil order = 5
  estimated absolute RMS force accuracy = 0.00038934319
  estimated relative force accuracy = 1.1724955e-06
  using double precision FFTW3
  3d grid and FFT values/proc = 185193 125000
Generated 0 of 3 mixed pair_coeff terms from geometric mixing rule

# Check temperature
variable current_temp equal temp
print "NVT complete. Temperature: ${current_temp} K (target: 300K)"
NVT complete. Temperature: 298.378604193959 K (target: 300K)

# ğŸ”§ CHECKPOINT #1: Verify we're still at reasonable density
variable current_dens equal density
if "${current_dens} < 0.7" then     "print 'ERROR: Density dropped during NVT! Current: ${current_dens} g/cmÂ³'"     "print 'This should not happen - check initial configuration'"     "quit 1"

print "âœ“ Checkpoint 1 PASSED: Density = ${current_dens} g/cmÂ³"
œ“ Checkpoint 1 PASSED: Density = 0.891366525253081 g/cm³

#==============================================================================
# STAGE 1.5: Pre-Equilibration at 100 atm (50 ps) - NEW STAGE
#==============================================================================
print ""

print "===== STAGE 1.5: Pre-Equilibration at 100 atm (50 ps, GPU) ====="
===== STAGE 1.5: Pre-Equilibration at 100 atm (50 ps, GPU) =====
print "ğŸ”§ CRITICAL FIX: Reducing initial pressure before main ramp"
Ÿ”§ CRITICAL FIX: Reducing initial pressure before main ramp
print "Objective: Equilibrate volume at moderate pressure to prevent PPPM artifacts"
Objective: Equilibrate volume at moderate pressure to prevent PPPM artifacts
print ""

print "Why this is needed:"
Why this is needed:
print "  - NVT creates high pressure (~800 atm) in fixed volume"
  - NVT creates high pressure (~800 atm) in fixed volume
print "  - Direct ramp from 800â†’1 atm caused 169k atm spike (PPPM grid change)"
  - Direct ramp from 800†’1 atm caused 169k atm spike (PPPM grid change)
print "  - Pre-equilibrating at 100 atm reduces initial pressure safely"
  - Pre-equilibrating at 100 atm reduces initial pressure safely
print "  - Main ramp (100â†’1 atm) will then cause only ~5% box expansion"
  - Main ramp (100†’1 atm) will then cause only ~5% box expansion

# Higher barostat damping for this stage (more conservative)
fix mynpt_pre all npt temp 300.0 300.0 100.0 iso 100.0 100.0 5000.0

dump pre_dcd all dcd 2000 pre_equilibration.dcd
dump_modify pre_dcd unwrap yes

run 25000  # 50 ps at 2 fs timestep
PPPM initialization ...
  extracting TIP4P info from pair style
  using 12-bit tables for long-range coulomb
  G vector (1/distance) = 0.28512662
  grid = 50 50 50
  stencil order = 5
  estimated absolute RMS force accuracy = 0.00038934319
  estimated relative force accuracy = 1.1724955e-06
  using double precision FFTW3
  3d grid and FFT values/proc = 185193 125000
Generated 0 of 3 mixed pair_coeff terms from geometric mixing rule
Per MPI rank memory allocation (min/avg/max) = 51.29 | 51.29 | 51.29 Mbytes
   Step          Temp          Press          Volume         PotEng         KinEng         TotEng        Density    
     25010   298.3786      -1546.9214      64000         -21181.041      3337.9555     -17843.085      0.89136653   
     26000   293.10843     -102.80888      61422.304     -21292.362      3278.9982     -18013.364      0.92877431   
     27000   302.25357      251.30719      59178.247     -21317.146      3381.3047     -17935.841      0.9639937    
     28000   292.21097     -167.07663      57676.378     -21314.787      3268.9583     -18045.829      0.9890957    
     29000   306.05148     -142.29148      56536.612     -21586.126      3423.7918     -18162.334      1.0090357    
     30000   292.37462     -102.04721      55882.078     -21421.623      3270.7891     -18150.834      1.0208543    
     31000   299.86215      200.20492      54779.096     -21509.5        3354.5519     -18154.948      1.0414093    
     32000   301.04529      339.5442       54060.739     -21559.615      3367.7877     -18191.827      1.0552475    
     33000   299.44119     -82.922243      53837.6       -21469.656      3349.8427     -18119.813      1.0596211    
     34000   300.1972       1368.0169      53810.433     -21530.468      3358.3001     -18172.168      1.0601561    
     35000   300.01932      583.08293      54133.459     -21456.747      3356.3102     -18100.437      1.0538299    
     36000   306.42134     -680.39362      53962.661     -21478.152      3427.9295     -18050.222      1.0571654    
     37000   298.64792      704.92303      53715.706     -21517.886      3340.9684     -18176.918      1.0620257    
     38000   306.04286      6.1326478      53678.917     -21517.146      3423.6954     -18093.451      1.0627535    
     39000   308.28473     -579.1817       54110.419     -21705.969      3448.7751     -18257.194      1.0542786    
     40000   298.95849      217.31285      53772.503     -21592.007      3344.4426     -18247.564      1.0609039    
     41000   302.05997     -49.343891      53284.472     -21567.618      3379.1388     -18188.479      1.0706207    
     42000   297.36373     -151.27226      53468.22      -21496.324      3326.6021     -18169.722      1.0669414    
     43000   299.14739     -780.97078      54070.118     -21577.323      3346.5559     -18230.767      1.0550644    
     44000   302.21661     -631.63354      54318.826     -21555.139      3380.8912     -18174.247      1.0502336    
     45000   300.39798     -394.84584      54128.984     -21609.861      3360.5462     -18249.315      1.053917     
     46000   302.22938      151.38977      53623.895     -21652.927      3381.0341     -18271.893      1.063844     
     47000   295.35585     -525.14879      54100.553     -21613.641      3304.14       -18309.501      1.0544709    
     48000   302.20673      424.03917      53683.122     -21589.728      3380.7807     -18208.947      1.0626703    
     49000   297.6867       934.80693      53617.015     -21621.424      3330.2152     -18291.209      1.0639805    
     50000   301.72314      96.039203      53984.512     -21721.716      3375.3708     -18346.346      1.0567375    
     50010   296.962       -384.47079      53987.922     -21680.711      3322.108      -18358.603      1.0566707    
Loop time of 1091.59 on 5 procs for 25000 steps with 5541 atoms

Performance: 3.958 ns/day, 6.064 hours/ns, 22.902 timesteps/s, 126.902 katom-step/s
341.5% CPU use with 1 MPI tasks x 5 OpenMP threads

MPI task timing breakdown:
Section |  min time  |  avg time  |  max time  |%varavg| %total
---------------------------------------------------------------
Pair    | 46.638     | 46.638     | 46.638     |   0.0 |  4.27
Bond    | 0.44847    | 0.44847    | 0.44847    |   0.0 |  0.04
Kspace  | 561.95     | 561.95     | 561.95     |   0.0 | 51.48
Neigh   | 0.076227   | 0.076227   | 0.076227   |   0.0 |  0.01
Comm    | 14.231     | 14.231     | 14.231     |   0.0 |  1.30
Output  | 0.015431   | 0.015431   | 0.015431   |   0.0 |  0.00
Modify  | 463.38     | 463.38     | 463.38     |   0.0 | 42.45
Other   |            | 4.849      |            |       |  0.44

Nlocal:           5541 ave        5541 max        5541 min
Histogram: 1 0 0 0 0 0 0 0 0 0
Nghost:          35789 ave       35789 max       35789 min
Histogram: 1 0 0 0 0 0 0 0 0 0
Neighs:              0 ave           0 max           0 min
Histogram: 1 0 0 0 0 0 0 0 0 0

Total # of neighbors = 0
Ave neighs/atom = 0
Ave special neighs/atom = 2.4872767
Neighbor list builds = 2323
Dangerous builds = 0

unfix mynpt_pre
undump pre_dcd

write_restart pre_equilibration_complete.restart
System init for write_restart ...
PPPM initialization ...
  extracting TIP4P info from pair style
  using 12-bit tables for long-range coulomb
  G vector (1/distance) = 0.28841755
  grid = 50 50 50
  stencil order = 5
  estimated absolute RMS force accuracy = 0.00032811469
  estimated relative force accuracy = 9.8810765e-07
  using double precision FFTW3
  3d grid and FFT values/proc = 205379 125000
Generated 0 of 3 mixed pair_coeff terms from geometric mixing rule
write_data pre_equilibration_complete.data
System init for write_data ...
PPPM initialization ...
  extracting TIP4P info from pair style
  using 12-bit tables for long-range coulomb
  G vector (1/distance) = 0.28841755
  grid = 50 50 50
  stencil order = 5
  estimated absolute RMS force accuracy = 0.00032811469
  estimated relative force accuracy = 9.8810765e-07
  using double precision FFTW3
  3d grid and FFT values/proc = 205379 125000
Generated 0 of 3 mixed pair_coeff terms from geometric mixing rule
WARNING: Not all mixed pair coeffs generated from mixing. Use write_data with 'pair ij' option to store all pair coeffs. (src/write_data.cpp:364)

# ğŸ”§ CHECKPOINT #2: Verify still in liquid phase after pre-equilibration
variable current_dens equal density
variable current_press equal press
variable current_vol equal vol

print ""

print "Pre-equilibration complete:"
Pre-equilibration complete:
print "  Density:  ${current_dens} g/cmÂ³"
  Density:  1.05667073909011 g/cm³
print "  Pressure: ${current_press} atm"
  Pressure: -384.470792159883 atm
print "  Volume:   ${current_vol} Ã…Â³"
  Volume:   53987.9221651586 …³

if "${current_dens} < 0.85" then     "print 'ERROR: Density dropped to ${current_dens} during pre-equilibration!'"     "print 'Expected: Still ~0.95 g/cmÂ³ (may increase slightly due to compression)'"     "print 'System failed before main pressure ramp even started!'"     "quit 1"

print "âœ“ Checkpoint 2 PASSED: System stable at 100 atm"
œ“ Checkpoint 2 PASSED: System stable at 100 atm

#==============================================================================
# STAGE 2: GENTLE Pressure Ramp (100 â†’ 1 atm, 100 ps) - CORRECTED
#==============================================================================
print ""

print "===== STAGE 2: Gentle Pressure Ramp (100 ps, GPU) ====="
===== STAGE 2: Gentle Pressure Ramp (100 ps, GPU) =====
print "Ramping pressure from 100 atm â†’ 1 atm with drag damping"
Ramping pressure from 100 atm †’ 1 atm with drag damping
print ""

print "COMPARISON TO FAILED VERSION:"
COMPARISON TO FAILED VERSION:
print "  OLD: 50 atm â†’ 1 atm, no pre-equil â†’ 169,712 atm spike at step 51k"
  OLD: 50 atm †’ 1 atm, no pre-equil †’ 169,712 atm spike at step 51k
print "  NEW: 100 atm â†’ 1 atm, with pre-equil â†’ should be smooth (< 500 atm max)"
  NEW: 100 atm †’ 1 atm, with pre-equil †’ should be smooth (< 500 atm max)

# ğŸ”§ CRITICAL FIX #4: Add drag damping to prevent explosive expansion
fix mynpt_ramp all npt temp 300.0 300.0 100.0 iso 100.0 1.0 2000.0 drag 2.0

dump ramp_dcd all dcd 1000 pressure_ramp.dcd
dump_modify ramp_dcd unwrap yes

# Monitor closely during ramp (every 500 steps = 1 ps)
thermo 500

run 50000  # 100 ps at 2 fs timestep
PPPM initialization ...
  extracting TIP4P info from pair style
  using 12-bit tables for long-range coulomb
  G vector (1/distance) = 0.28841755
  grid = 50 50 50
  stencil order = 5
  estimated absolute RMS force accuracy = 0.00032811469
  estimated relative force accuracy = 9.8810765e-07
  using double precision FFTW3
  3d grid and FFT values/proc = 205379 125000
Generated 0 of 3 mixed pair_coeff terms from geometric mixing rule
Per MPI rank memory allocation (min/avg/max) = 52.14 | 52.14 | 52.14 Mbytes
   Step          Temp          Press          Volume         PotEng         KinEng         TotEng        Density    
     50010   296.962       -381.1506       53987.922     -21680.69       3322.108      -18358.582      1.0566707    
     50500   305.40085     -364.78402      54154.368     -21675.322      3416.5132     -18258.809      1.053423     
     51000   300.70977      790.16757      53911.741     -21585.579      3364.0343     -18221.545      1.0581639    
     51500   297.64544     -34.103494      53793.365     -21551.132      3329.7536     -18221.379      1.0604924    
     52000   299.87302     -43.842992      53960.831     -21563.02       3354.6735     -18208.347      1.0572012    
     52500   300.85275      508.60303      53952.346     -21576.333      3365.6337     -18210.699      1.0573675    
     53000   295.71838      257.62128      53845.568     -21539.037      3308.1956     -18230.841      1.0594643    
     53500   297.75133     -203.15016      53953.078     -21576.351      3330.9382     -18245.413      1.0573532    
     54000   296.58456     -315.82698      54007.775     -21503.184      3317.8855     -18185.299      1.0562823    
     54500   300.11746     -41.141578      53907.992     -21599.457      3357.4081     -18242.049      1.0582375    
     55000   300.4158      -357.72777      53996.117     -21645.001      3360.7456     -18284.256      1.0565104    
     55500   295.95042      189.16032      53666.633     -21588.572      3310.7915     -18277.781      1.0629968    
     56000   295.72367      214.14275      53821.292     -21592.412      3308.2548     -18284.157      1.0599422    
     56500   301.82696      251.18199      53790.42      -21662.425      3376.5322     -18285.893      1.0605505    
     57000   298.05247     -164.28215      54017.196     -21547.966      3334.307      -18213.659      1.0560981    
     57500   296.98001     -327.19799      53717.483     -21581.983      3322.3094     -18259.673      1.0619905    
     58000   299.49158      356.65878      53826.52      -21572.825      3350.4064     -18222.419      1.0598392    
     58500   303.48512      724.42385      53764.765     -21630.503      3395.082      -18235.421      1.0610566    
     59000   297.7279       345.10058      53931.119     -21542.449      3330.6761     -18211.773      1.0577837    
     59500   293.30271     -626.23211      54145.852     -21478.7        3281.1715     -18197.528      1.0535887    
     60000   299.80645     -716.09122      54081.723     -21548.459      3353.9288     -18194.53       1.054838     
     60500   298.62126     -21.668088      54042.771     -21593.968      3340.6701     -18253.298      1.0555983    
     61000   299.7488      -630.18757      54541.671     -21626.736      3353.2839     -18273.452      1.0459426    
     61500   299.43667     -225.8089       53991.086     -21563.741      3349.792      -18213.949      1.0566088    
     62000   302.31522     -200.37718      54121.288     -21661.486      3381.9944     -18279.491      1.0540669    
     62500   298.37625     -840.07331      53716.078     -21563.71       3337.9292     -18225.781      1.0620183    
     63000   299.15781     -373.93039      53793.694     -21536.004      3346.6725     -18189.331      1.060486     
     63500   302.51507      447.62254      53790.631     -21612.019      3384.2301     -18227.789      1.0605464    
     64000   302.16228      176.5866       53854.206     -21629.755      3380.2834     -18249.472      1.0592944    
     64500   294.78618      417.06317      53743.174     -21550.924      3297.7671     -18253.157      1.0614828    
     65000   299.5386       567.32224      53873.254     -21589.514      3350.9323     -18238.582      1.0589198    
     65500   298.08696     -587.31503      53839.31      -21585.749      3334.6929     -18251.056      1.0595875    
     66000   300.0309       803.17949      53801.353     -21529.211      3356.4397     -18172.771      1.060335     
     66500   296.02209      731.96067      53627.409     -21551.078      3311.5932     -18239.485      1.0637743    
     67000   304.37039     -252.76282      53813.162     -21678.516      3404.9855     -18273.531      1.0601023    
     67500   298.65785      166.65634      53886.039     -21625.106      3341.0794     -18284.026      1.0586686    
     68000   298.91377      133.4606       53496.107     -21605.547      3343.9424     -18261.604      1.0663852    
     68500   300.98398     -134.07263      53644.686     -21645.162      3367.1018     -18278.06       1.0634317    
     69000   302.44603      772.08959      53474.512     -21578.91       3383.4577     -18195.452      1.0668159    
     69500   294.51882      309.24316      53634.865     -21525.864      3294.7762     -18231.088      1.0636264    
     70000   301.81447      549.66708      53645.406     -21586.418      3376.3925     -18210.025      1.0634174    
     70500   299.95088      385.5319       53706.759     -21558.004      3355.5445     -18202.459      1.0622026    
     71000   305.55807      350.42114      53887.061     -21634.966      3418.272      -18216.694      1.0586485    
     71500   295.07581      290.15062      54038.078     -21576.226      3301.0072     -18275.219      1.05569      
     72000   303.58612     -53.706174      53897.482     -21643.56       3396.2119     -18247.348      1.0584438    
     72500   297.34708      174.34716      54164.311     -21564.343      3326.4158     -18237.927      1.0532296    
     73000   297.44121     -313.7362       54045.36      -21535.451      3327.4689     -18207.982      1.0555477    
     73500   301.7011       480.97493      53620.088     -21639.887      3375.1242     -18264.763      1.0639195    
     74000   293.57206      337.56105      53873.516     -21518.388      3284.1848     -18234.204      1.0589147    
     74500   299.73254      573.77712      53723.919     -21563.611      3353.102      -18210.509      1.0618633    
     75000   299.20597      14.270417      53775.002     -21592.678      3347.2112     -18245.467      1.0608546    
     75500   300.1033       9.6088893      53860.576     -21592.01       3357.2496     -18234.76       1.0591691    
     76000   301.77803     -275.59835      53830.56      -21554.93       3375.9848     -18178.946      1.0597597    
     76500   300.97703     -354.01899      53828.626     -21567.029      3367.0241     -18200.004      1.0597978    
     77000   306.85591      738.95662      53937.399     -21653.293      3432.791      -18220.502      1.0576605    
     77500   298.79995     -431.3398       54102.765     -21612.793      3342.6691     -18270.124      1.0544278    
     78000   298.92197      817.11297      53999.309     -21565.047      3344.0341     -18221.013      1.0564479    
     78500   300.629        102.46488      54413.748     -21640.076      3363.1307     -18276.945      1.0484015    
     79000   297.5409      -211.58223      54306.336     -21543.826      3328.5841     -18215.242      1.0504752    
     79500   296.47266      130.09325      54022.155     -21561.902      3316.6337     -18245.268      1.0560011    
     80000   302.82861      366.18992      53980.129     -21635.541      3387.7377     -18247.803      1.0568233    
     80500   299.67309     -268.81703      54132.325     -21588.636      3352.4369     -18236.199      1.053852     
     81000   298.073        463.19245      53727.944     -21549.231      3334.5367     -18214.694      1.0617837    
     81500   298.89802     -275.28686      53599.325     -21561.703      3343.7662     -18217.936      1.0643317    
     82000   303.73898      860.01385      53552.938     -21643.426      3397.9219     -18245.504      1.0652535    
     82500   306.47566     -124.61442      53497.454     -21644.576      3428.5371     -18216.039      1.0663584    
     83000   299.97014      164.77594      53823.248     -21595.085      3355.76       -18239.325      1.0599037    
     83500   305.69436      53.829423      53863.555     -21651.907      3419.7968     -18232.11       1.0591105    
     84000   299.38605      290.81879      53705.676     -21625.63       3349.2258     -18276.404      1.062224     
     84500   299.7376       812.84974      53930.219     -21616.973      3353.1586     -18263.815      1.0578013    
     85000   299.3192       1221.2896      53694.715     -21591.233      3348.4779     -18242.755      1.0624408    
     85500   294.78194     -57.335479      53712.033     -21519.886      3297.7197     -18222.167      1.0620983    
     86000   299.79866      749.36597      53621.513     -21534.147      3353.8417     -18180.305      1.0638912    
     86500   300.58367     -218.19711      53479.775     -21595.385      3362.6236     -18232.761      1.0667109    
     87000   297.52636     -429.14738      53616.739     -21597.582      3328.4215     -18269.161      1.063986     
     87500   304.04183      294.18291      53603.058     -21665.904      3401.3099     -18264.594      1.0642575    
     88000   300.12619     -398.80511      53869.856     -21624.948      3357.5057     -18267.442      1.0589866    
     88500   306.4873       277.6227       53664.198     -21707.033      3428.6674     -18278.366      1.063045     
     89000   299.90961     -302.46615      53686.918     -21610.384      3355.0829     -18255.302      1.0625951    
     89500   297.81515     -644.95132      53620.486     -21550.764      3331.6521     -18219.112      1.0639116    
     90000   302.86404      16.776902      53807.718     -21623.026      3388.134      -18234.892      1.0602096    
     90500   300.46038      504.50334      53630.63      -21574.959      3361.2443     -18213.715      1.0637104    
     91000   300.08191     -405.44506      53842.037     -21565.703      3357.0104     -18208.692      1.0595338    
     91500   302.24293     -104.10967      54103.881     -21617.276      3381.1856     -18236.09       1.054406     
     92000   295.12869      347.36619      54195.694     -21522.03       3301.5988     -18220.431      1.0526198    
     92500   301.05575     -95.632894      54027.834     -21546.115      3367.9047     -18178.21       1.0558902    
     93000   296.47024     -621.64414      53901.077     -21517.038      3316.6067     -18200.431      1.0583733    
     93500   299.10426      372.77181      53566.434     -21565.675      3346.0735     -18219.602      1.0649852    
     94000   301.33554     -921.99145      53755.929     -21612.861      3371.0347     -18241.826      1.061231     
     94500   300.6061      -159.56008      53982.996     -21614.114      3362.8745     -18251.24       1.0567672    
     95000   298.54459      306.27895      53982.275     -21610.571      3339.8124     -18270.759      1.0567813    
     95500   301.92155      109.91083      53868.655     -21602.96       3377.5903     -18225.369      1.0590102    
     96000   296.70411      601.3686       54045.88      -21580.467      3319.223      -18261.244      1.0555376    
     96500   298.70636      399.45679      53710.837     -21590.168      3341.6221     -18248.546      1.0621219    
     97000   294.48561      204.71691      53566.903     -21488.212      3294.4047     -18193.807      1.0649758    
     97500   303.6478      -288.36652      53724.9       -21633.043      3396.9019     -18236.142      1.0618439    
     98000   299.7127      -285.66482      53689.011     -21579.24       3352.8801     -18226.36       1.0625537    
     98500   299.63434      1003.82        53702.988     -21532.766      3352.0034     -18180.763      1.0622772    
     99000   294.43304     -118.21131      53780.653     -21467.888      3293.8165     -18174.071      1.0607431    
     99500   301.02529     -320.00341      54018.84      -21560.422      3367.5639     -18192.858      1.0560659    
    100000   303.43842      139.28068      53697.226     -21606.379      3394.5596     -18211.82       1.0623911    
    100010   299.29422      60.099077      53688.627     -21563.196      3348.1985     -18214.998      1.0625613    
Loop time of 2191.06 on 5 procs for 50000 steps with 5541 atoms

Performance: 3.943 ns/day, 6.086 hours/ns, 22.820 timesteps/s, 126.446 katom-step/s
340.5% CPU use with 1 MPI tasks x 5 OpenMP threads

MPI task timing breakdown:
Section |  min time  |  avg time  |  max time  |%varavg| %total
---------------------------------------------------------------
Pair    | 92.814     | 92.814     | 92.814     |   0.0 |  4.24
Bond    | 0.84186    | 0.84186    | 0.84186    |   0.0 |  0.04
Kspace  | 1141.7     | 1141.7     | 1141.7     |   0.0 | 52.11
Neigh   | 0.14233    | 0.14233    | 0.14233    |   0.0 |  0.01
Comm    | 27.772     | 27.772     | 27.772     |   0.0 |  1.27
Output  | 0.059394   | 0.059394   | 0.059394   |   0.0 |  0.00
Modify  | 918.1      | 918.1      | 918.1      |   0.0 | 41.90
Other   |            | 9.616      |            |       |  0.44

Nlocal:           5541 ave        5541 max        5541 min
Histogram: 1 0 0 0 0 0 0 0 0 0
Nghost:          35705 ave       35705 max       35705 min
Histogram: 1 0 0 0 0 0 0 0 0 0
Neighs:              0 ave           0 max           0 min
Histogram: 1 0 0 0 0 0 0 0 0 0

Total # of neighbors = 0
Ave neighs/atom = 0
Ave special neighs/atom = 2.4872767
Neighbor list builds = 4621
Dangerous builds = 0

thermo 1000  # Return to normal frequency

unfix mynpt_ramp
undump ramp_dcd

write_restart pressure_ramp_complete.restart
System init for write_restart ...
PPPM initialization ...
  extracting TIP4P info from pair style
  using 12-bit tables for long-range coulomb
  G vector (1/distance) = 0.28851548
  grid = 50 50 50
  stencil order = 5
  estimated absolute RMS force accuracy = 0.00032638438
  estimated relative force accuracy = 9.8289687e-07
  using double precision FFTW3
  3d grid and FFT values/proc = 205379 125000
Generated 0 of 3 mixed pair_coeff terms from geometric mixing rule
write_data pressure_ramp_complete.data
System init for write_data ...
PPPM initialization ...
  extracting TIP4P info from pair style
  using 12-bit tables for long-range coulomb
  G vector (1/distance) = 0.28851548
  grid = 50 50 50
  stencil order = 5
  estimated absolute RMS force accuracy = 0.00032638438
  estimated relative force accuracy = 9.8289687e-07
  using double precision FFTW3
  3d grid and FFT values/proc = 205379 125000
Generated 0 of 3 mixed pair_coeff terms from geometric mixing rule
WARNING: Not all mixed pair coeffs generated from mixing. Use write_data with 'pair ij' option to store all pair coeffs. (src/write_data.cpp:364)

# ğŸ”§ CHECKPOINT #3: Critical check after ramp (most likely failure point)
variable current_dens equal density
variable current_press equal press
variable current_vol equal vol
variable current_boxsize equal vol^(1.0/3.0)

print ""

print "Pressure ramp complete:"
Pressure ramp complete:
print "  Density:  ${current_dens} g/cmÂ³"
  Density:  1.06256131284894 g/cm³
print "  Pressure: ${current_press} atm"
  Pressure: 60.0990768472634 atm
print "  Volume:   ${current_vol} Ã…Â³"
  Volume:   53688.6266480396 …³
print "  Box size: ${current_boxsize} Ã…"
  Box size: 37.7248421820675 …

if "${current_dens} < 0.75" then     "print ''"     "print 'ğŸ”´ CRITICAL ERROR: Density collapsed to ${current_dens} g/cmÂ³!'"     "print ''"     "print 'This means the PPPM artifact occurred despite fixes.'"     "print 'Check equilibration.log for pressure spike around step 75,000-85,000'"     "print ''"     "print 'If pressure exceeded 10,000 atm during ramp:'"     "print '  â†’ PPPM grid still recalculating (increase mesh size)'"     "print '  â†’ Try mesh 50 50 50 or mesh 60 60 60'"     "print ''"     "print 'If pressure stayed < 1,000 atm but density still dropped:'"     "print '  â†’ Initial configuration may be problematic'"     "print '  â†’ Check initial_system.data for pre-existing issues'"     "print ''"     "quit 1"

print "âœ“ Checkpoint 3 PASSED: Pressure ramp successful, liquid phase maintained"
œ“ Checkpoint 3 PASSED: Pressure ramp successful, liquid phase maintained

#==============================================================================
# STAGE 3: NPT Equilibration (Complete 1000 ps with 2-phase strategy)
#==============================================================================
print ""

print "===== STAGE 3: NPT Equilibration (1000 ps, GPU) ====="
===== STAGE 3: NPT Equilibration (1000 ps, GPU) =====
print "Equilibrating at 300K, 1 atm with improved pressure control"
Equilibrating at 300K, 1 atm with improved pressure control
print ""

print "Strategy:"
Strategy:
print "  Phase 1 (400 ps): Higher damping for gentle pressure equilibration"
  Phase 1 (400 ps): Higher damping for gentle pressure equilibration
print "  Phase 2 (600 ps): Standard damping for final equilibration"
  Phase 2 (600 ps): Standard damping for final equilibration
print ""


# Phase 1: Gentle NPT with stronger pressure damping (400 ps)
print "Phase 1: Gentle pressure equilibration (400 ps, pdamp=5000)..."
Phase 1: Gentle pressure equilibration (400 ps, pdamp=5000)...
# ğŸ”§ CRITICAL: Using npt/gpu instead of npt for FULL GPU acceleration
fix mynpt_gentle all npt/gpu temp 300.0 300.0 100.0 iso 1.0 1.0 5000.0

dump npt_traj all custom 2000 npt_equilibration.lammpstrj id type xu yu zu
dump_modify npt_traj sort id

dump npt_dcd all dcd 2000 npt_equilibration.dcd
dump_modify npt_dcd unwrap yes

# Thermodynamic averaging during NPT
fix thermo_avg_npt all ave/time 100 10 1000 v_epsilon_co v_temp v_press v_pe v_ke v_etotal v_vol v_dens     file npt_equilibration_thermo.dat

run 200000  # 400 ps at 2 fs timestep
PPPM initialization ...
  extracting TIP4P info from pair style
  using 12-bit tables for long-range coulomb
  G vector (1/distance) = 0.28851548
  grid = 50 50 50
  stencil order = 5
  estimated absolute RMS force accuracy = 0.00032638438
  estimated relative force accuracy = 9.8289687e-07
  using double precision FFTW3
  3d grid and FFT values/proc = 205379 125000
Generated 0 of 3 mixed pair_coeff terms from geometric mixing rule
Per MPI rank memory allocation (min/avg/max) = 52.14 | 52.14 | 52.14 Mbytes
   Step          Temp          Press          Volume         PotEng         KinEng         TotEng        Density    
    100010   299.29422      51.416871      53688.627     -21563.174      3348.1985     -18214.975      1.0625613    
    101000   298.25923      456.94695      53930.095     -21485.511      3336.62       -18148.891      1.0578038    
    102000   302.61494      466.94758      53818.394     -21688.338      3385.3473     -18302.991      1.0599993    
    103000   305.9689      -370.41667      54309.403     -21586.204      3422.868      -18163.336      1.0504159    
    104000   305.532        34.444087      53447.499     -21593.132      3417.9804     -18175.151      1.067355     
    105000   293.99116     -1272.7782      53769.36      -21672.916      3288.8732     -18384.043      1.0609659    
    106000   300.59701     -121.73485      54094.258     -21696.684      3362.7728     -18333.911      1.0545936    
    107000   292.71887     -691.3264       54480.356     -21548.549      3274.6402     -18273.908      1.0471198    
    108000   303.44769      710.93558      53251.247     -21642.552      3394.6633     -18247.888      1.0712887    
    109000   306.87721     -597.0082       53394.435     -21584.869      3433.0292     -18151.84       1.0684158    
    110000   301.52647     -213.98536      53508.207     -21642.909      3373.1706     -18269.738      1.0661441    
    111000   299.94937     -419.9048       54241.366     -21533.89       3355.5276     -18178.362      1.0517334    
    112000   308.11938      11.325273      53895.23      -21451.503      3446.9254     -18004.578      1.0584881    
    113000   297.46114     -222.92726      53452.208     -21644.829      3327.6918     -18317.137      1.067261     
    114000   296.34114      564.13702      53797.622     -21684.05       3315.1625     -18368.888      1.0604085    
    115000   295.18094     -619.99903      54166.349     -21561.559      3302.1833     -18259.376      1.05319      
    116000   295.34975      167.88945      53802.608     -21471.745      3304.0718     -18167.673      1.0603103    
    117000   297.70021      100.15945      53649.942     -21634.976      3330.3663     -18304.61       1.0633275    
    118000   302.12531     -159.15856      53740.281     -21641.429      3379.8698     -18261.559      1.06154      
    119000   291.44167     -120.27541      53945.074     -21537.965      3260.3522     -18277.613      1.05751      
    120000   292.25589      412.74832      54365.769     -21578.364      3269.4608     -18308.904      1.0493268    
    121000   298.48258     -533.20489      53601.25      -21610.902      3339.1187     -18271.783      1.0642934    
    122000   296.97462     -323.16324      53808.104     -21584.102      3322.2492     -18261.853      1.060202     
    123000   298.1746       283.95242      54419.223     -21597.273      3335.6733     -18261.6        1.0482961    
    124000   292.58479     -394.74964      54195.35      -21563.045      3273.1402     -18289.905      1.0526264    
    125000   301.60311      702.03109      53518.741     -21634.093      3374.028      -18260.065      1.0659342    
    126000   293.95815      796.82555      54336.172     -21428.192      3288.504      -18139.688      1.0498984    
    127000   294.43126      880.93478      54018.727     -21548.712      3293.7966     -18254.915      1.0560682    
    128000   303.32654      60.502493      54497.174     -21445.946      3393.308      -18052.638      1.0467966    
    129000   299.89695      256.63934      54035.661     -21608.639      3354.9412     -18253.698      1.0557372    
    130000   297.12583      648.78566      53572.856     -21649.596      3323.9408     -18325.655      1.0648575    
    131000   298.89213      210.14603      54238.566     -21463.402      3343.7003     -18119.702      1.0517877    
    132000   301.49654     -481.19707      54076.926     -21699.245      3372.8358     -18326.409      1.0549316    
    133000   304.74622      480.20508      53844.628     -21595.315      3409.1899     -18186.125      1.0594828    
    134000   294.74839      848.84322      53513.853     -21574.511      3297.3444     -18277.167      1.0660316    
    135000   298.03115     -876.74867      54267.914     -21551.561      3334.0685     -18217.492      1.0512189    
    136000   297.75933     -20.83357       54106.964     -21625.544      3331.0277     -18294.516      1.0543459    
    137000   302.32017     -776.10801      53964.164     -21562.879      3382.0497     -18180.829      1.0571359    
    138000   300.74889      333.21186      53748.754     -21506.143      3364.4718     -18141.671      1.0613726    
    139000   298.65841     -145.19365      54046.512     -21572.117      3341.0857     -18231.031      1.0555252    
    140000   299.43316      280.41992      54128.849     -21582.696      3349.7528     -18232.943      1.0539197    
    141000   300.88005     -156.96548      54175.883     -21559.718      3365.9391     -18193.778      1.0530047    
    142000   304.28923      528.35515      53681.668     -21596.703      3404.0776     -18192.626      1.062699     
    143000   303.13831      472.92348      53715.792     -21545.133      3391.2023     -18153.931      1.062024     
    144000   297.82086     -269.38131      53769.804     -21503.132      3331.716      -18171.416      1.0609571    
    145000   303.37034      451.74554      53696.726     -21616.251      3393.7979     -18222.453      1.062401     
    146000   308.26857     -556.50454      53931.009     -21708.526      3448.5944     -18259.931      1.0577858    
    147000   303.2352       269.82886      54258.352     -21668.43       3392.2861     -18276.144      1.0514042    
    148000   301.50989      291.64183      53842.043     -21662.004      3372.9852     -18289.019      1.0595337    
    149000   297.41589      88.245896      53670.561     -21654.536      3327.1857     -18327.35       1.062919     
    150000   293.21632      674.56752      53873.409     -21602.755      3280.2052     -18322.55       1.0589168    
    151000   305.92207      72.075933      53840.946     -21638.213      3422.3441     -18215.869      1.0595553    
    152000   294.18576      91.197197      53976.858     -21548.338      3291.0503     -18257.287      1.0568873    
    153000   293.4028       439.68492      54118.958     -21445.513      3282.2912     -18163.222      1.0541123    
    154000   301.78005     -115.95942      53824.081     -21677.691      3376.0074     -18301.683      1.0598872    
    155000   295.00624     -379.91781      53729.598     -21657.868      3300.2289     -18357.639      1.0617511    
    156000   294.55374     -285.90867      54302.573     -21463.533      3295.1668     -18168.366      1.050548     
    157000   299.25316      490.80904      53564.252     -21509.582      3347.7391     -18161.843      1.0650286    
    158000   302.72814     -755.68286      53407.626     -21520.389      3386.6136     -18133.775      1.0681519    
    159000   294.95873      329.77217      53468.421     -21549.529      3299.6975     -18249.832      1.0669374    
    160000   306.85476      601.45164      53796.86      -21574.074      3432.7781     -18141.296      1.0604236    
    161000   297.84279      297.75516      54459.587     -21650.87       3331.9614     -18318.909      1.0475191    
    162000   306.6498       38.958965      53818.579     -21470.807      3430.4852     -18040.322      1.0599956    
    163000   302.35039      1459.0743      53097.69      -21576.755      3382.3878     -18194.367      1.0743868    
    164000   302.02646     -502.92937      53758.694     -21622.961      3378.764      -18244.197      1.0611764    
    165000   302.25745     -204.41866      54022.981     -21622.961      3381.348      -18241.613      1.055985     
    166000   302.20355      514.00324      53920.499     -21612.1        3380.7452     -18231.355      1.057992     
    167000   298.00674     -303.02309      54014.548     -21576.198      3333.7955     -18242.403      1.0561499    
    168000   294.42657     -402.21071      54520.92      -21553.097      3293.7442     -18259.353      1.0463407    
    169000   299.90012      565.42182      54305.762     -21481.573      3354.9767     -18126.596      1.0504863    
    170000   298.00255     -133.25925      54132.101     -21624.146      3333.7485     -18290.398      1.0538563    
    171000   298.59264      297.37206      53731.716     -21518.892      3340.35       -18178.542      1.0617092    
    172000   303.18494      200.51261      53970.148     -21451.656      3391.7239     -18059.932      1.0570187    
    173000   303.17193      5.2253899      54312.367     -21608.415      3391.5783     -18216.837      1.0503585    
    174000   299.86981      507.84435      54231.421     -21649.201      3354.6376     -18294.564      1.0519263    
    175000   292.54105      601.78782      53990.007     -21502.918      3272.6509     -18230.267      1.0566299    
    176000   300.6627       133.88956      53577.895     -21616.936      3363.5077     -18253.428      1.0647574    
    177000   303.31817      189.35729      53648.859     -21463.157      3393.2143     -18069.943      1.0633489    
    178000   299.99274     -603.94543      54354.596     -21656.665      3356.0128     -18300.652      1.0495425    
    179000   305.19951     -248.32346      54291.696     -21696.35       3414.2609     -18282.089      1.0507584    
    180000   300.29319      704.58501      53317.258     -21584.062      3359.3739     -18224.688      1.0699623    
    181000   292.92501      1127.8898      53616.75      -21528.397      3276.9463     -18251.451      1.0639857    
    182000   304.81516     -562.48606      53859.564     -21573.248      3409.9611     -18163.287      1.059189     
    183000   304.85839      333.23366      54156.748     -21612.438      3410.4447     -18201.993      1.0533767    
    184000   295.84852     -670.78967      54220.648     -21544.268      3309.6516     -18234.616      1.0521353    
    185000   300.07772      120.43802      53397.13      -21602.586      3356.9635     -18245.622      1.0683619    
    186000   299.56429     -175.45568      53396.867     -21620.178      3351.2198     -18268.958      1.0683671    
    187000   298.09448      19.895587      53672.416     -21477.642      3334.777      -18142.865      1.0628822    
    188000   301.17072     -581.6396       54200.497     -21466.867      3369.1909     -18097.676      1.0525265    
    189000   298.65208     -63.756688      53966.421     -21633.341      3341.0149     -18292.326      1.0570917    
    190000   302.89017      182.76669      54400.653     -21422.044      3388.4263     -18033.617      1.0486539    
    191000   293.33074     -20.785661      53799.382     -21620.967      3281.4851     -18339.482      1.0603738    
    192000   297.7651      -79.157274      53489.444     -21713.443      3331.0923     -18382.351      1.066518     
    193000   303.28108      762.92864      54037.871     -21568.991      3392.7994     -18176.192      1.055694     
    194000   294.50164     -657.69554      54095.779     -21465.494      3294.584      -18170.91       1.0545639    
    195000   301.15386     -80.683925      53514.789     -21663.309      3369.0023     -18294.306      1.0660129    
    196000   297.38107     -302.86265      54022.218     -21667.262      3326.7961     -18340.465      1.0559999    
    197000   302.58574     -145.34729      53971.848     -21441.092      3385.0206     -18056.071      1.0569855    
    198000   301.61546     -197.89343      53773.199     -21613.558      3374.1662     -18239.392      1.0608902    
    199000   309.35705     -487.47034      53818.007     -21554.949      3460.7712     -18094.178      1.0600069    
    200000   308.26661      503.80337      54225.507     -21515.804      3448.5724     -18067.232      1.052041     
    201000   308.9564       109.96353      54414.092     -21680.21       3456.2891     -18223.921      1.0483949    
    202000   292.05527     -304.39182      53897.34      -21678.661      3267.2165     -18411.445      1.0584466    
    203000   304.12932      165.51425      54401.742     -21454.967      3402.2887     -18052.678      1.0486329    
    204000   297.37351     -276.66661      54290.232     -21508.23       3326.7115     -18181.518      1.0507868    
    205000   295.56992      1183.9322      53692.906     -21614.196      3306.5349     -18307.661      1.0624766    
    206000   300.3849       221.52518      54772.068     -21538.194      3360.3999     -18177.794      1.0415429    
    207000   297.87564     -130.62587      54638.855     -21546.003      3332.3288     -18213.674      1.0440822    
    208000   296.51062     -296.72569      53565.418     -21644.674      3317.0584     -18327.615      1.0650054    
    209000   302.75815      151.8419       53921.606     -21662.741      3386.9494     -18275.791      1.0579703    
    210000   303.72026      147.80967      53840.407     -21535.351      3397.7125     -18137.638      1.0595659    
    211000   294.99726      407.41738      53314.12      -21495.499      3300.1285     -18195.37       1.0700253    
    212000   298.34014     -549.82465      53706.882     -21563.842      3337.5252     -18226.317      1.0622001    
    213000   301.87861     -477.43068      54010.099     -21561.612      3377.1101     -18184.502      1.0562369    
    214000   299.82558      1047.5928      53610.519     -21692.013      3354.1428     -18337.871      1.0641094    
    215000   297.11914     -74.789903      54304.536     -21498.488      3323.8659     -18174.622      1.05051      
    216000   300.92957     -454.02998      53955.326     -21692.135      3366.4931     -18325.642      1.0573091    
    217000   300.3824      -173.00931      53658.991     -21598.055      3360.3719     -18237.683      1.0631482    
    218000   301.01952      369.7733       53554.056     -21630.284      3367.4994     -18262.784      1.0652313    
    219000   299.05888     -67.964079      54321.954     -21491.432      3345.5657     -18145.867      1.0501731    
    220000   301.77802      627.62152      54367.057     -21649.574      3375.9847     -18273.589      1.0493019    
    221000   295.97734     -372.1655       54100.362     -21620.667      3311.0926     -18309.574      1.0544746    
    222000   299.30989     -25.591824      54151.158     -21621.969      3348.3738     -18273.595      1.0534855    
    223000   301.59111      881.39721      54125.12      -21587.004      3373.8937     -18213.11       1.0539923    
    224000   294.71697     -226.37087      53791.516     -21779.045      3296.9929     -18482.053      1.0605289    
    225000   295.47333     -96.260743      54086.676     -21602.649      3305.4542     -18297.195      1.0547414    
    226000   300.16541      188.45627      54434.576     -21552.95       3357.9444     -18195.006      1.0480004    
    227000   300.94275      318.7921       53659.066     -21469.043      3366.6405     -18102.402      1.0631467    
    228000   301.84517      46.825838      53589.234     -21594.45       3376.736      -18217.714      1.0645321    
    229000   301.76054      558.10502      54013.895     -21565.538      3375.7892     -18189.749      1.0561626    
    230000   287.39058     -7.5954229      53899.212     -21603.951      3215.0327     -18388.918      1.0584099    
    231000   301.00105      32.38718       53974.579     -21663.733      3367.2927     -18296.441      1.056932     
    232000   305.66253      214.60002      53685.404     -21457.767      3419.4407     -18038.326      1.0626251    
    233000   305.44484     -880.07808      53561.777     -21534.162      3417.0053     -18117.157      1.0650778    
    234000   300.81058     -105.03445      53562.424     -21601.054      3365.162      -18235.892      1.0650649    
    235000   310.5165       500.29487      54092.993     -21610.182      3473.7419     -18136.441      1.0546182    
    236000   299.82144      1.2796028      54362.862     -21520.927      3354.0965     -18166.83       1.0493829    
    237000   298.27843      162.68988      54658.731     -21465.181      3336.8349     -18128.346      1.0437026    
    238000   302.75967      1311.3391      53485.351     -21548.838      3386.9665     -18161.871      1.0665997    
    239000   303.94137      438.98892      53688.256     -21523.404      3400.186      -18123.218      1.0625686    
    240000   298.56252     -382.8267       54139.856     -21494.432      3340.0129     -18154.419      1.0537054    
    241000   300.02785      55.46912       53676.965     -21597.488      3356.4056     -18241.082      1.0627922    
    242000   289.36652      358.39265      53556.685     -21598.906      3237.1376     -18361.768      1.065179     
    243000   305.12618     -716.02409      54140.669     -21769.612      3413.4405     -18356.171      1.0536896    
    244000   289.42607     -264.48864      53823.503     -21589.888      3237.8037     -18352.084      1.0598986    
    245000   301.66888      1008.9539      53659.411     -21600.601      3374.7638     -18225.837      1.0631398    
    246000   305.8561       214.46958      53997.264     -21537.456      3421.6061     -18115.85       1.0564879    
    247000   300.31943     -552.8859       53887.945     -21633.534      3359.6675     -18273.866      1.0586312    
    248000   298.15322      772.94084      53564.281     -21678.426      3335.4341     -18342.992      1.065028     
    249000   302.86819     -890.35784      54538.952     -21469.226      3388.1805     -18081.046      1.0459948    
    250000   296.14337     -473.81586      54125.877     -21592.641      3312.95       -18279.691      1.0539775    
    251000   302.68937     -936.24662      53990.631     -21633.456      3386.18       -18247.276      1.0566177    
    252000   304.57036      6.8988048      53826.204     -21628.261      3407.2225     -18221.038      1.0598454    
    253000   303.77803     -129.79642      53630.997     -21654.916      3398.3587     -18256.558      1.0637031    
    254000   295.26398     -1036.5045      53682.543     -21654.304      3303.1123     -18351.192      1.0626817    
    255000   295.75393     -412.75577      53760.977     -21721.873      3308.5934     -18413.279      1.0611313    
    256000   295.8738       153.34952      54352.264     -21454.824      3309.9343     -18144.89       1.0495875    
    257000   302.79538      405.70042      54368.07      -21617.333      3387.3659     -18229.967      1.0492824    
    258000   302.70012      199.21414      54215.428     -21579.293      3386.3002     -18192.993      1.0522366    
    259000   300.93694     -252.65708      54121.495     -21628.556      3366.5756     -18261.981      1.0540628    
    260000   298.14608     -739.10079      54670.073     -21452.311      3335.3543     -18116.957      1.043486     
    261000   294.39964      915.79173      53875.903     -21473.3        3293.443      -18179.857      1.0588678    
    262000   305.21453      1175.4686      53534.971     -21566.415      3414.4289     -18151.986      1.0656111    
    263000   298.59741      91.861094      54177.463     -21639.333      3340.4033     -18298.93       1.052974     
    264000   294.98776     -226.06787      54788.76      -21425.358      3300.0222     -18125.335      1.0412256    
    265000   299.71985      566.60462      53784.19      -21542.881      3352.96       -18189.921      1.0606734    
    266000   293.78698      120.67236      53878.679     -21577.538      3286.5891     -18290.948      1.0588132    
    267000   300.8         -191.347        54160.615     -21604.428      3365.0437     -18239.384      1.0533015    
    268000   299.25188     -350.26113      54324.427     -21434.269      3347.7249     -18086.544      1.0501253    
    269000   299.68197     -347.11518      54088.828     -21513.544      3352.5362     -18161.008      1.0546995    
    270000   295.34514      355.43819      53316.513     -21513.273      3304.0202     -18209.253      1.0699773    
    271000   297.72814      309.08945      53996.86      -21597.308      3330.6788     -18266.629      1.0564958    
    272000   297.43092     -394.52988      53910.683     -21503.789      3327.3538     -18176.435      1.0581847    
    273000   296.58652     -117.22905      54288.325     -21641.272      3317.9075     -18323.365      1.0508237    
    274000   298.12172      435.36028      54418.111     -21550.768      3335.0817     -18215.686      1.0483175    
    275000   303.09108      247.37597      54279.147     -21566.983      3390.6739     -18176.309      1.0510014    
    276000   300.94338      85.310237      53585.844     -21608.872      3366.6476     -18242.225      1.0645994    
    277000   300.2061       23.326907      53974.338     -21532.449      3358.3997     -18174.05       1.0569367    
    278000   298.78256     -488.67867      53813.997     -21643.462      3342.4746     -18300.987      1.0600859    
    279000   301.50768      799.53982      53879.142     -21592.278      3372.9604     -18219.317      1.0588041    
    280000   309.02364     -90.41872       54290.68      -21648.748      3457.0413     -18191.707      1.0507781    
    281000   297.19413      224.33645      54089.021     -21635.134      3324.7048     -18310.429      1.0546957    
    282000   300.1968      -402.86321      54169.652     -21589.026      3358.2956     -18230.731      1.0531258    
    283000   294.89559      27.693094      54745.058     -21562.461      3298.9911     -18263.469      1.0420568    
    284000   301.27777      44.960866      53894.036     -21562.373      3370.3884     -18191.985      1.0585115    
    285000   300.01441     -103.96493      53634.891     -21593.202      3356.2553     -18236.946      1.0636259    
    286000   297.49342     -185.79827      53858.172     -21584.598      3328.0529     -18256.545      1.0592164    
    287000   298.00812     -433.80695      54515.04      -21503.83       3333.811      -18170.019      1.0464536    
    288000   295.87486     -101.63281      54223.158     -21582.478      3309.9462     -18272.532      1.0520866    
    289000   295.71012      319.07024      54183.397     -21510.815      3308.1032     -18202.712      1.0528586    
    290000   305.67849     -1012.1311      54392.39      -21523.281      3419.6192     -18103.661      1.0488132    
    291000   292.83164      12.848386      53961.821     -21582.867      3275.9017     -18306.966      1.0571819    
    292000   306.76584      2.8891586      53925.71      -21552.469      3431.7833     -18120.685      1.0578898    
    293000   295.56998     -892.39429      54474.032     -21541.891      3306.5355     -18235.356      1.0472413    
    294000   306.23619      392.14388      54018.555     -21609.769      3425.8582     -18183.911      1.0560715    
    295000   300.86145     -173.03069      53517.249     -21591.932      3365.731      -18226.201      1.0659639    
    296000   298.60522      409.29734      54652.341     -21638.673      3340.4907     -18298.182      1.0438246    
    297000   297.68988     -362.549        54503.894     -21574.718      3330.2507     -18244.467      1.0466676    
    298000   300.68857      792.82675      53732.459     -21649.31       3363.797      -18285.513      1.0616945    
    299000   301.78284      239.62565      53984.591     -21528.901      3376.0386     -18152.862      1.0567359    
    300000   300.49712      776.38827      53813.387     -21591.626      3361.6553     -18229.97       1.0600979    
    300010   297.25033     -90.323079      53808.52      -21559.594      3325.3335     -18234.261      1.0601938    
Loop time of 8690.87 on 5 procs for 200000 steps with 5541 atoms

Performance: 3.977 ns/day, 6.035 hours/ns, 23.013 timesteps/s, 127.513 katom-step/s
341.8% CPU use with 1 MPI tasks x 5 OpenMP threads

MPI task timing breakdown:
Section |  min time  |  avg time  |  max time  |%varavg| %total
---------------------------------------------------------------
Pair    | 372.91     | 372.91     | 372.91     |   0.0 |  4.29
Bond    | 3.3069     | 3.3069     | 3.3069     |   0.0 |  0.04
Kspace  | 4523.9     | 4523.9     | 4523.9     |   0.0 | 52.05
Neigh   | 0.56205    | 0.56205    | 0.56205    |   0.0 |  0.01
Comm    | 108.98     | 108.98     | 108.98     |   0.0 |  1.25
Output  | 0.9161     | 0.9161     | 0.9161     |   0.0 |  0.01
Modify  | 3642.3     | 3642.3     | 3642.3     |   0.0 | 41.91
Other   |            | 38.02      |            |       |  0.44

Nlocal:           5541 ave        5541 max        5541 min
Histogram: 1 0 0 0 0 0 0 0 0 0
Nghost:          35775 ave       35775 max       35775 min
Histogram: 1 0 0 0 0 0 0 0 0 0
Neighs:              0 ave           0 max           0 min
Histogram: 1 0 0 0 0 0 0 0 0 0

Total # of neighbors = 0
Ave neighs/atom = 0
Ave special neighs/atom = 2.4872767
Neighbor list builds = 18531
Dangerous builds = 0

unfix mynpt_gentle

variable phase1_dens equal density
variable phase1_press equal press
print ""

print "Phase 1 complete:"
Phase 1 complete:
print "  Density:  ${phase1_dens} g/cmÂ³"
  Density:  1.0601937736039 g/cm³
print "  Pressure: ${phase1_press} atm"
  Pressure: -90.3230792074605 atm
print ""


# Phase 2: Standard NPT damping (600 ps)
print "Phase 2: Final equilibration (600 ps, pdamp=2000)..."
Phase 2: Final equilibration (600 ps, pdamp=2000)...
# ğŸ”§ CRITICAL: Using npt/gpu instead of npt for FULL GPU acceleration
fix mynpt_standard all npt/gpu temp 300.0 300.0 100.0 iso 1.0 1.0 2000.0

run 300000  # 600 ps at 2 fs timestep
PPPM initialization ...
  extracting TIP4P info from pair style
  using 12-bit tables for long-range coulomb
  G vector (1/distance) = 0.28847619
  grid = 50 50 50
  stencil order = 5
  estimated absolute RMS force accuracy = 0.0003270775
  estimated relative force accuracy = 9.8498417e-07
  using double precision FFTW3
  3d grid and FFT values/proc = 205379 125000
Generated 0 of 3 mixed pair_coeff terms from geometric mixing rule
Per MPI rank memory allocation (min/avg/max) = 54.69 | 54.69 | 54.69 Mbytes
   Step          Temp          Press          Volume         PotEng         KinEng         TotEng        Density    
    300010   297.25033     -95.036583      53808.52      -21559.526      3325.3335     -18234.193      1.0601938    
    301000   297.84726     -396.71376      54018.887     -21667.511      3332.0114     -18335.5        1.056065     
    302000   296.51436      45.087893      53884.304     -21634.838      3317.1002     -18317.737      1.0587027    
    303000   309.58313     -22.274331      53992.604     -21658.813      3463.3003     -18195.513      1.0565791    
    304000   302.14271      54.336898      54282.836     -21561.789      3380.0645     -18181.724      1.0509299    
    305000   306.01088     -430.77916      54012.592     -21628.122      3423.3376     -18204.785      1.0561881    
    306000   298.86822     -517.16547      54018.373     -21620.876      3343.4328     -18277.443      1.0560751    
    307000   297.38115     -584.79571      54451.613     -21584.813      3326.797      -18258.016      1.0476725    
    308000   298.54836      181.2848       54005.169     -21505.451      3339.8545     -18165.596      1.0563333    
    309000   298.00907      1051.649       53999.34      -21606.214      3333.8215     -18272.392      1.0564473    
    310000   294.57182     -654.25498      54174.73      -21600.175      3295.3691     -18304.806      1.0530271    
    311000   304.24771     -387.28001      53964.093     -21599.914      3403.6131     -18196.3        1.0571373    
    312000   299.81705     -1030.285       54087.827     -21572.929      3354.0474     -18218.882      1.054719     
    313000   310.67781     -804.23302      53865.003     -21464.086      3475.5465     -17988.539      1.0590821    
    314000   289.66213      311.4698       54462.632     -21550.267      3240.4445     -18309.823      1.0474605    
    315000   295.57062     -163.15954      54457.263     -21558.814      3306.5426     -18252.271      1.0475638    
    316000   300.40309     -453.7643       53769.555     -21539.665      3360.6034     -18179.062      1.0609621    
    317000   300.62952     -521.88421      53682.739     -21584.237      3363.1365     -18221.101      1.0626778    
    318000   303.39174     -67.313377      53752.095     -21582.159      3394.0373     -18188.122      1.0613067    
    319000   292.75398      158.21961      54274.17      -21560.401      3275.0329     -18285.368      1.0510977    
    320000   299.06871     -1069.648       54745.523     -21599.71       3345.6757     -18254.034      1.0420479    
    321000   301.93072     -574.23811      53932.612     -21611.656      3377.693      -18233.963      1.0577544    
    322000   303.94963      594.39155      53760.55      -21649.174      3400.2784     -18248.896      1.0611398    
    323000   298.23879     -306.5756       54488.316     -21654.032      3336.3914     -18317.64       1.0469668    
    324000   300.30132     -443.2428       54294.405     -21678.028      3359.4649     -18318.563      1.050706     
    325000   301.77422      180.76907      53878.164     -21428.204      3375.9422     -18052.262      1.0588233    
    326000   300.93123     -895.25837      53734.054     -21607.09       3366.5117     -18240.578      1.061663     
    327000   299.48231      237.85376      54044.926     -21532.274      3350.3027     -18181.971      1.0555562    
    328000   297.18737      170.89011      53324.054     -21493.097      3324.6292     -18168.468      1.069826     
    329000   298.69471      369.57384      54294.592     -21529.232      3341.4918     -18187.74       1.0507024    
    330000   300.958       -442.92841      53609.856     -21551.803      3366.8112     -18184.992      1.0641226    
    331000   289.34164      425.62955      53805.573     -21677.585      3236.8591     -18440.726      1.0602518    
    332000   302.31137      526.56697      53753.358     -21580.951      3381.9512     -18199          1.0612817    
    333000   304.52297     -188.6142       53854.751     -21522.41       3406.6925     -18115.718      1.0592837    
    334000   300.98366      286.50397      53930.112     -21598.156      3367.0982     -18231.058      1.0578034    
    335000   300.57199      615.85768      53479.919     -21498.805      3362.4929     -18136.312      1.066708     
    336000   303.73095      269.82249      53639.96      -21559.947      3397.8321     -18162.114      1.0635254    
    337000   303.10476     -410.03126      53919.746     -21589.519      3390.8269     -18198.692      1.0580068    
    338000   300.03663      398.35723      53931.292     -21468.627      3356.5039     -18112.123      1.0577803    
    339000   300.42646      20.876826      54274.252     -21523.637      3360.8648     -18162.772      1.0510961    
    340000   305.05975      641.48941      53812.462     -21732.959      3412.6974     -18320.262      1.0601161    
    341000   296.7051       16.018665      54341.399     -21502.524      3319.234      -18183.29       1.0497974    
    342000   301.22949     -73.778249      54197.667     -21648.253      3369.8483     -18278.405      1.0525814    
    343000   300.48031     -788.89496      54353.289     -21589.506      3361.4673     -18228.039      1.0495677    
    344000   297.76798      170.61503      54060.207     -21607.192      3331.1245     -18276.067      1.0552578    
    345000   299.4852      -64.070215      54208.08      -21468.695      3350.3349     -18118.36       1.0523792    
    346000   294.48168     -60.000129      53756.743     -21542.098      3294.3607     -18247.737      1.0612149    
    347000   300.02502      150.63018      54231.819     -21558.868      3356.3739     -18202.494      1.0519186    
    348000   298.99977      611.63607      53688.124     -21574.801      3344.9045     -18229.896      1.0625713    
    349000   304.23956     -427.25974      54651.409     -21443.347      3403.5219     -18039.825      1.0438424    
    350000   296.62904      113.59382      54313.557     -21427.444      3318.3832     -18109.061      1.0503355    
    351000   302.33592      379.85551      54062.448     -21499.416      3382.2259     -18117.19       1.0552141    
    352000   301.88313      104.07571      53556.023     -21574.461      3377.1605     -18197.3        1.0651922    
    353000   305.46026      1041.8158      54458.362     -21610.726      3417.1779     -18193.548      1.0475427    
    354000   295.24929     -374.42535      54254.945     -21567.487      3302.948      -18264.539      1.0514702    
    355000   292.83067      909.5831       53352.62      -21591.583      3275.8908     -18315.693      1.0692532    
    356000   299.01743     -94.775875      53785.027     -21576.782      3345.102      -18231.68       1.0606569    
    357000   297.30413      1150.2695      53302.976     -21521.084      3325.9354     -18195.148      1.070249     
    358000   303.36331     -369.62806      53442.341     -21475.854      3393.7194     -18082.134      1.0674581    
    359000   303.21479     -278.90568      53714.524     -21572.223      3392.0579     -18180.165      1.062049     
    360000   298.08392     -275.76146      54324.522     -21502.914      3334.6588     -18168.255      1.0501235    
    361000   300.46404      531.43289      53753.664     -21515.545      3361.2852     -18154.26       1.0612757    
    362000   301.15679      110.98666      53910.961     -21513.504      3369.035      -18144.469      1.0581792    
    363000   298.84392     -185.8082       53692.508     -21613.197      3343.161      -18270.036      1.0624845    
    364000   296.66901      448.50494      54116.147     -21693.547      3318.8303     -18374.717      1.054167     
    365000   301.88196      819.87093      54077.572     -21655.393      3377.1475     -18278.246      1.054919     
    366000   298.20104     -245.61622      54115.158     -21686.864      3335.9691     -18350.895      1.0541863    
    367000   303.0347       58.688032      54496.566     -21552.579      3390.0432     -18162.535      1.0468083    
    368000   304.31928      360.74419      53816.784     -21537.934      3404.4138     -18133.52       1.060031     
    369000   294.28425     -100.00136      54024.487     -21563.279      3292.152      -18271.127      1.0559556    
    370000   300.74065     -383.07991      53859.745     -21543.365      3364.3797     -18178.986      1.0591854    
    371000   300.84866      993.68394      54003.554     -21568.864      3365.588      -18203.276      1.0563649    
    372000   297.83211      502.12202      54288.517     -21612.372      3331.8419     -18280.53       1.05082      
    373000   299.223        306.45817      53931.872     -21589.456      3347.4017     -18242.055      1.0577689    
    374000   298.39825      380.15646      53643.24      -21626.63       3338.1752     -18288.455      1.0634603    
    375000   304.68591      12.846116      53862.405     -21671.485      3408.5152     -18262.969      1.0591331    
    376000   301.00269     -563.09126      53878.772     -21664.995      3367.3111     -18297.684      1.0588114    
    377000   302.04647      85.293316      54128.406     -21519.98       3378.9878     -18140.993      1.0539283    
    378000   306.54812      233.13507      54442.609     -21582.817      3429.3477     -18153.469      1.0478458    
    379000   294.52447     -461.48017      53972.615     -21532.324      3294.8394     -18237.485      1.0569704    
    380000   296.4175      -725.23147      54153.003     -21684.393      3316.0167     -18368.376      1.0534496    
    381000   290.5649       88.748461      53784.566     -21577.797      3250.5438     -18327.253      1.060666     
    382000   300.60043      110.13626      54040.335     -21609.567      3362.8111     -18246.756      1.0556459    
    383000   303.79799      700.8455       54380.475     -21509.583      3398.5821     -18111.001      1.049043     
    384000   302.35125     -389.40246      53816.258     -21534.111      3382.3974     -18151.714      1.0600413    
    385000   304.37486     -532.53874      53821.416     -21398.32       3405.0355     -17993.285      1.0599397    
    386000   302.66223     -173.31937      53728.738     -21471.341      3385.8764     -18085.465      1.0617681    
    387000   294.71682      220.91571      53814.261     -21416.958      3296.9912     -18119.967      1.0600807    
    388000   305.5727       280.20377      53845.494     -21551.443      3418.4358     -18133.007      1.0594658    
    389000   295.93357      612.28136      53555.226     -21641.96       3310.603      -18331.357      1.0652081    
    390000   300.3537       261.15897      53889.813     -21507.939      3360.0508     -18147.888      1.0585945    
    391000   296.82796     -526.85551      53450.772     -21461.928      3320.6085     -18141.319      1.0672897    
    392000   305.32006     -310.32787      53665.643     -21591.01       3415.6095     -18175.401      1.0630164    
    393000   299.62124     -245.394        54029.133     -21535.802      3351.8568     -18183.946      1.0558648    
    394000   296.11253      320.57833      53553.024     -21571.095      3312.605      -18258.49       1.0652518    
    395000   301.03064     -1180.4529      54388.053     -21528.988      3367.6238     -18161.364      1.0488968    
    396000   300.00698     -318.18878      53912.084     -21506.063      3356.1721     -18149.891      1.0581572    
    397000   299.61007      200.72109      53937.274     -21565.029      3351.7319     -18213.298      1.057663     
    398000   301.1095       435.33177      54397.561     -21493.809      3368.5059     -18125.303      1.0487135    
    399000   300.75597      154.38371      54177.346     -21598.979      3364.551      -18234.428      1.0529762    
    400000   308.03607     -54.807213      53766.189     -21619.078      3445.9933     -18173.084      1.0610285    
    401000   296.93534      148.75737      53759.917     -21533.594      3321.8097     -18211.785      1.0611523    
    402000   305.17084     -532.8002       54425.331     -21487.693      3413.9402     -18073.753      1.0481784    
    403000   298.64669     -585.51958      54371.824     -21635.14       3340.9546     -18294.185      1.0492099    
    404000   299.68014      309.86845      53654.511     -21607.816      3352.5158     -18255.3        1.0632369    
    405000   296.91495     -1.3475012      53703.799     -21625.381      3321.5816     -18303.799      1.0622611    
    406000   301.16452     -618.53118      54239.266     -21575.513      3369.1215     -18206.392      1.0517742    
    407000   306.9277       130.16527      53950.213     -21505.494      3433.5941     -18071.9        1.0574093    
    408000   296.4457      -572.35813      54421.457     -21627.548      3316.3322     -18311.216      1.048253     
    409000   297.37087     -704.72949      53664.984     -21522.768      3326.682      -18196.086      1.0630294    
    410000   301.60535     -184.48722      53578.217     -21550.258      3374.053      -18176.205      1.064751     
    411000   294.74681      45.967674      53664.524     -21599.726      3297.3267     -18302.399      1.0630385    
    412000   300.93744     -317.32892      54270.122     -21579.948      3366.5811     -18213.367      1.0511761    
    413000   303.68342     -356.18749      53772.683     -21464.816      3397.3003     -18067.515      1.0609003    
    414000   300.11699      420.50859      53658.679     -21500.342      3357.4028     -18142.939      1.0631544    
    415000   296.97197     -411.6895       54013.73      -21553.093      3322.2196     -18230.874      1.0561659    
    416000   301.62528      155.81705      53979.23      -21652.99       3374.276      -18278.714      1.0568409    
    417000   296.36331      1414.1725      54503.353     -21527.411      3315.4105     -18212          1.046678     
    418000   303.7697      -380.03487      54439.236     -21494.817      3398.2656     -18096.552      1.0479107    
    419000   298.664       -521.7022       53903.702     -21503.585      3341.1482     -18162.437      1.0583217    
    420000   292.05128     -612.55169      54141.647     -21688.825      3267.1719     -18421.653      1.0536705    
    421000   295.76275      454.25587      53957.893     -21617.929      3308.692      -18309.237      1.0572588    
    422000   302.39747     -325.00289      54437.598     -21569.898      3382.9144     -18186.984      1.0479422    
    423000   301.46201     -287.67907      54189.356     -21614.623      3372.4495     -18242.173      1.0527429    
    424000   300.15682     -168.50686      54068.965     -21627.423      3357.8484     -18269.575      1.0550869    
    425000   299.82633     -513.38279      54278.223     -21652.736      3354.1512     -18298.585      1.0510193    
    426000   300.69069     -721.341        54538.668     -21560.826      3363.8208     -18197.005      1.0460002    
    427000   296.89345      423.81544      53824.052     -21688.136      3321.3411     -18366.795      1.0598878    
    428000   296.25757     -272.30266      54021.809     -21606.866      3314.2276     -18292.639      1.0560079    
    429000   300.08043      604.21115      53557.096     -21648.846      3356.9938     -18291.852      1.0651708    
    430000   301.36874     -967.25083      53842.997     -21536.471      3371.4061     -18165.065      1.0595149    
    431000   296.75646     -1264.3757      54450.846     -21564.992      3319.8087     -18245.183      1.0476873    
    432000   300.9534       1166.4934      53720.508     -21655.03       3366.7597     -18288.271      1.0619307    
    433000   299.46309     -729.28333      54203.34      -21697.608      3350.0876     -18347.52       1.0524713    
    434000   305.37078      107.84834      54230.187     -21636.05       3416.1769     -18219.873      1.0519502    
    435000   300.30357      127.51639      54590.824     -21631.779      3359.4901     -18272.289      1.0450009    
    436000   295.95754     -749.20249      54357.885     -21698.322      3310.8711     -18387.451      1.049479     
    437000   298.63339      950.42721      54225.831     -21647.359      3340.8058     -18306.554      1.0520347    
    438000   291.78257      342.60436      54151.941     -21448.136      3264.1658     -18183.971      1.0534702    
    439000   299.9519      -1133.1602      54657.613     -21405.634      3355.5559     -18050.078      1.0437239    
    440000   301.03465      64.169367      53640.193     -21573.218      3367.6686     -18205.549      1.0635207    
    441000   299.92119     -43.827679      53664.061     -21533.272      3355.2124     -18178.059      1.0630477    
    442000   306.34017      553.46783      54031.598     -21527.661      3427.0214     -18100.64       1.0558166    
    443000   301.6582      -587.08918      53774.833     -21545.705      3374.6443     -18171.061      1.0608579    
    444000   303.60269     -1189.5291      53766.621     -21555.408      3396.3972     -18159.011      1.06102      
    445000   302.27587      489.56183      54346.693     -21600.143      3381.5541     -18218.589      1.0496951    
    446000   303.79811      88.642275      53468.707     -21523.65       3398.5834     -18125.067      1.0669317    
    447000   307.05087      553.60808      53872.582     -21630.303      3434.9719     -18195.331      1.058933     
    448000   301.62499     -170.43156      54219.789     -21464.507      3374.2728     -18090.234      1.052152     
    449000   301.26539     -638.06256      54219.076     -21707.77       3370.2499     -18337.52       1.0521658    
    450000   297.93401     -173.36208      54141.937     -21543.638      3332.9819     -18210.656      1.0536649    
    451000   301.50114     -34.92705       54061.997     -21572.738      3372.8873     -18199.85       1.0552229    
    452000   299.59066     -215.32194      54105.129     -21651.565      3351.5148     -18300.051      1.0543817    
    453000   297.42778      665.62398      53828.351     -21530.283      3327.3187     -18202.964      1.0598032    
    454000   297.05446     -168.35368      54071.574     -21715.286      3323.1423     -18392.144      1.055036     
    455000   300.16586     -615.2754       53501.076     -21774.194      3357.9495     -18416.245      1.0662862    
    456000   292.76535      1059.6213      53730.123     -21535.479      3275.1601     -18260.319      1.0617407    
    457000   290.09036     -286.54768      53445.26      -21636.407      3245.2351     -18391.172      1.0673998    
    458000   300.55699      37.959205      53649.051     -21528.788      3362.3251     -18166.463      1.0633451    
    459000   293.47652      703.16871      53504.204     -21638.339      3283.116      -18355.223      1.0662238    
    460000   304.00659     -737.52775      54235.79      -21614.274      3400.9157     -18213.358      1.0518415    
    461000   303.94982      322.49002      54222.844     -21637.441      3400.2806     -18237.16       1.0520927    
    462000   302.14253      333.25426      53856.066     -21462.855      3380.0625     -18082.792      1.0592578    
    463000   303.7971       640.1661       53520.259     -21580.823      3398.5721     -18182.251      1.065904     
    464000   300.14874     -417.00499      53667.361     -21612.357      3357.758      -18254.599      1.0629823    
    465000   298.88048      535.84348      53937.594     -21645.047      3343.57       -18301.477      1.0576567    
    466000   301.78364     -153.52806      53929.992     -21669.948      3376.0476     -18293.9        1.0578058    
    467000   296.46423     -728.62234      53974.869     -21488.783      3316.5395     -18172.243      1.0569263    
    468000   303.68077     -541.86464      54013.589     -21517.735      3397.2708     -18120.464      1.0561686    
    469000   304.52883      755.63858      54100.229     -21641.727      3406.758      -18234.969      1.0544772    
    470000   301.23363     -217.01172      54197.847     -21607.875      3369.8946     -18237.98       1.0525779    
    471000   295.2574       572.09568      53955.635     -21565.916      3303.0387     -18262.878      1.0573031    
    472000   303.74905     -138.53305      54110.385     -21568.135      3398.0346     -18170.1        1.0542793    
    473000   297.73758      23.521558      54246.091     -21525.828      3330.7844     -18195.044      1.0516418    
    474000   294.16279     -45.007143      53993.743     -21522.164      3290.7933     -18231.371      1.0565568    
    475000   291.71452     -249.60108      53999.201     -21460.135      3263.4046     -18196.73       1.05645      
    476000   298.35087      634.73993      53742.894     -21492.186      3337.6452     -18154.541      1.0614884    
    477000   297.08564     -474.54411      53892.127     -21575.56       3323.4911     -18252.069      1.058549     
    478000   303.8307       169.99324      54113.908     -21603.67       3398.948      -18204.722      1.0542106    
    479000   298.17496      53.863246      53603.226     -21558.953      3335.6774     -18223.275      1.0642542    
    480000   307.38555      39.824663      54198.317     -21528.647      3438.7161     -18089.931      1.0525688    
    481000   295.37105      253.52526      53954.13      -21633.238      3304.31       -18328.928      1.0573326    
    482000   297.0614       780.26961      53904.732     -21644.599      3323.2199     -18321.379      1.0583015    
    483000   298.32785      128.87106      53909.087     -21526.562      3337.3877     -18189.174      1.058216     
    484000   289.24428     -814.33691      54335.895     -21667.784      3235.77       -18432.014      1.0499037    
    485000   309.61935      416.34301      53622.845     -21602.889      3463.7055     -18139.183      1.0638648    
    486000   301.20824     -78.75584       53525.505     -21707.284      3369.6106     -18337.674      1.0657995    
    487000   295.70794     -54.60296       54392.316     -21514.535      3308.0788     -18206.456      1.0488147    
    488000   301.1123       98.039135      53531.948     -21581.787      3368.5374     -18213.25       1.0656712    
    489000   303.22349     -474.65008      54147.541     -21573.807      3392.1552     -18181.651      1.0535558    
    490000   300.26183     -22.128545      54213.575     -21661.195      3359.0231     -18302.172      1.0522726    
    491000   297.3976       750.48917      53880.363     -21584.955      3326.981      -18257.974      1.0587801    
    492000   298.79801      1055.9141      54341.656     -21556.259      3342.6474     -18213.611      1.0497924    
    493000   294.99579      274.97508      53957.878     -21580.504      3300.112      -18280.392      1.0572591    
    494000   299.11445     -238.09529      53462.408     -21652.244      3346.1874     -18306.056      1.0670574    
    495000   301.61416     -380.5135       54186.048     -21589.083      3374.1517     -18214.931      1.0528071    
    496000   295.77072      909.75607      54256.563     -21592.553      3308.7812     -18283.771      1.0514388    
    497000   292.07766     -34.313835      53550.34      -21689.036      3267.467      -18421.569      1.0653052    
    498000   302.68862     -327.55765      54182.527     -21539.018      3386.1716     -18152.846      1.0528756    
    499000   299.83775     -234.32785      54075.974     -21602.908      3354.2789     -18248.629      1.0549502    
    500000   305.65156      804.60752      53844.009     -21436.962      3419.3179     -18017.644      1.059495     
    501000   298.53875     -757.50657      53710.853     -21558.618      3339.7471     -18218.871      1.0621216    
    502000   301.65627      288.80888      54007.55      -21555.242      3374.6227     -18180.62       1.0562867    
    503000   293.54181     -1059.1545      54452.118     -21575.461      3283.8464     -18291.615      1.0476628    
    504000   299.9073       164.90372      54011.08      -21537.324      3355.057      -18182.267      1.0562177    
    505000   296.79518      502.30635      53968.068     -21590.777      3320.2418     -18270.536      1.0570595    
    506000   299.69487      70.583482      53886.286     -21586.255      3352.6805     -18233.575      1.0586637    
    507000   303.69649     -498.2916       53905.647     -21492.383      3397.4465     -18094.937      1.0582835    
    508000   287.57363     -290.06976      54521.665     -21486.264      3217.0804     -18269.184      1.0463264    
    509000   294.23856      43.498669      53506.756     -21676.829      3291.6409     -18385.188      1.066173     
    510000   299.69845      429.06201      53810.242     -21579.105      3352.7207     -18226.384      1.0601598    
    511000   304.91283      325.3146       53627.914     -21596.682      3411.0537     -18185.628      1.0637642    
    512000   303.19197     -465.03213      53539.157     -21633.227      3391.8026     -18241.425      1.0655278    
    513000   301.47446     -999.35733      54373.871     -21462.574      3372.5888     -18089.986      1.0491704    
    514000   301.13026      275.69338      54088.498     -21522.064      3368.7382     -18153.326      1.0547059    
    515000   297.94076      181.20875      53972.487     -21545.366      3333.0574     -18212.309      1.0569729    
    516000   297.27471     -277.66283      54606.303     -21582.385      3325.6062     -18256.779      1.0447046    
    517000   301.20401     -558.24152      54322.11      -21639.896      3369.5633     -18270.332      1.0501701    
    518000   297.78439      87.178864      53820.319     -21623.572      3331.308      -18292.264      1.0599613    
    519000   306.57342      47.322163      54364.469     -21627.74       3429.6308     -18198.109      1.0493519    
    520000   293.69923     -444.22541      53957.3       -21621.871      3285.6074     -18336.264      1.0572704    
    521000   304.12745      518.22017      53978.009     -21524.516      3402.2677     -18122.248      1.0568648    
    522000   297.0283       695.71608      53660.555     -21751.443      3322.8496     -18428.593      1.0631172    
    523000   297.09406      209.66119      53624.706     -21635.034      3323.5853     -18311.449      1.0638279    
    524000   296.14288     -19.926253      53956.063     -21536.599      3312.9446     -18223.655      1.0572947    
    525000   304.42288     -1033.0179      53875.372     -21452.252      3405.5727     -18046.679      1.0588782    
    526000   299.79851      293.67613      54162.276     -21472.465      3353.84       -18118.625      1.0532692    
    527000   301.17714      312.04654      54409.79      -21502.747      3369.2627     -18133.485      1.0484778    
    528000   297.95263      77.774746      54074.099     -21493.726      3333.1901     -18160.536      1.0549867    
    529000   291.94988     -526.15552      54143.088     -21429.959      3266.0376     -18163.921      1.0536425    
    530000   304.77567     -73.842084      54120.352     -21501.26       3409.5193     -18091.741      1.0540851    
    531000   298.13832     -145.50697      53923.055     -21656.686      3335.2675     -18321.419      1.0579419    
    532000   297.91887      268.26363      54216.549     -21587.168      3332.8125     -18254.355      1.0522148    
    533000   301.1519       368.22582      54156.078     -21566.361      3368.9803     -18197.38       1.0533898    
    534000   304.61346      1139.0495      54201.619     -21706.199      3407.7047     -18298.495      1.0525047    
    535000   303.95488     -414.08696      54703.763     -21561.435      3400.3372     -18161.098      1.0428434    
    536000   291.28611     -567.58123      54158.813     -21524.352      3258.6119     -18265.74       1.0533366    
    537000   291.05135      3.2907433      53878.127     -21519.288      3255.9857     -18263.303      1.0588241    
    538000   300.68966      138.10865      54265.274     -21520.956      3363.8092     -18157.147      1.0512701    
    539000   299.54683     -201.52363      54011.784     -21517.144      3351.0244     -18166.12       1.0562039    
    540000   297.1105      -158.83482      54445.456     -21515.259      3323.7693     -18191.49       1.047791     
    541000   301.43358     -104.49857      53774.982     -21603.644      3372.1315     -18231.513      1.060855     
    542000   299.35152      1204.3489      53587.793     -21647.112      3348.8395     -18298.272      1.0645607    
    543000   291.26328     -730.78603      54184.805     -21564.153      3258.3566     -18305.796      1.0528313    
    544000   295.81701      458.48642      53337.529     -21552.049      3309.299      -18242.75       1.0695557    
    545000   301.34581      401.88782      53740.762     -21548.071      3371.1496     -18176.922      1.0615305    
    546000   298.40684     -59.323786      53872.974     -21446.468      3338.2713     -18108.197      1.0589253    
    547000   297.79019      100.65203      54478.052     -21540.437      3331.373      -18209.064      1.047164     
    548000   303.96248      151.01873      54058.415     -21550.808      3400.4222     -18150.386      1.0552928    
    549000   305.43679     -191.10132      53954.473     -21555.065      3416.9153     -18138.15       1.0573258    
    550000   303.24045     -13.906129      53619.367     -21586.804      3392.3449     -18194.459      1.0639338    
    551000   303.59387     -606.5898       53583.535     -21511.091      3396.2986     -18114.792      1.0646453    
    552000   293.73936     -135.45435      53766.765     -21589.459      3286.0564     -18303.402      1.0610171    
    553000   297.64311     -109.47655      54170.128     -21649.892      3329.7276     -18320.164      1.0531165    
    554000   298.78206     -892.63256      54112.096     -21565.832      3342.4689     -18223.363      1.0542459    
    555000   298.38207     -298.20497      53731.908     -21649.785      3337.9943     -18311.791      1.0617054    
    556000   293.42317      256.90648      53971.066     -21582.549      3282.5191     -18300.03       1.0570008    
    557000   299.50652      768.25177      53500.154     -21537.908      3350.5735     -18187.334      1.0663046    
    558000   300.54222     -532.19966      54421.298     -21669.492      3362.1598     -18307.333      1.0482561    
    559000   302.71674     -78.199061      53829.401     -21604.679      3386.4861     -18218.193      1.0597825    
    560000   298.3019      -259.77692      53251.959     -21657.066      3337.0974     -18319.969      1.0712743    
    561000   298.94049      487.89647      53494.588     -21660.915      3344.2414     -18316.674      1.0664155    
    562000   300.97946      145.47185      53609.853     -21639.382      3367.0513     -18272.33       1.0641226    
    563000   302.53409      102.72218      53568.275     -21524.157      3384.4428     -18139.715      1.0649486    
    564000   307.49854      711.57972      53952.668     -21667.11       3439.98       -18227.13       1.0573612    
    565000   304.01035      363.5318       53973.276     -21436.576      3400.9578     -18035.618      1.0569575    
    566000   304.19397      433.29264      53865.328     -21665.213      3403.0119     -18262.201      1.0590757    
    567000   298.92464      1379.4067      53634.378     -21550.633      3344.0641     -18206.569      1.063636     
    568000   304.3197       13.846592      53869.879     -21621.788      3404.4185     -18217.37       1.0589862    
    569000   301.33234     -100.16973      54420.498     -21590.723      3370.9989     -18219.724      1.0482715    
    570000   300.36394      187.79103      54584.151     -21580.681      3360.1654     -18220.515      1.0451286    
    571000   299.39388      171.59661      54598.178     -21633.917      3349.3133     -18284.603      1.0448601    
    572000   299.42968      452.43334      54547.325     -21546.651      3349.7139     -18196.937      1.0458342    
    573000   292.87588      8.0340384      53979.332     -21517.907      3276.3967     -18241.511      1.0568389    
    574000   306.8255      -96.622316      54037.704     -21617.582      3432.4508     -18185.132      1.0556973    
    575000   301.68955     -509.94511      53922.863     -21489.484      3374.995      -18114.489      1.0579456    
    576000   294.18434     -249.40011      53816.533     -21556.151      3291.0343     -18265.116      1.0600359    
    577000   300.9917       421.093        53921.528     -21531.478      3367.1881     -18164.29       1.0579718    
    578000   301.3916       684.39694      53933.342     -21579.301      3371.6619     -18207.639      1.0577401    
    579000   305.84404     -265.51554      53797.61      -21577.083      3421.4712     -18155.612      1.0604088    
    580000   298.54991     -409.48811      53497.822     -21761.475      3339.8719     -18421.603      1.066351     
    581000   295.9718      -951.77962      54219.111     -21641.642      3311.0306     -18330.611      1.0521651    
    582000   298.88399      209.78221      54376.703     -21531.824      3343.6093     -18188.215      1.0491158    
    583000   306.02647      285.05151      53771.003     -21515.659      3423.5121     -18092.147      1.0609335    
    584000   304.7087      -125.90211      54643.662     -21377.052      3408.7702     -17968.281      1.0439904    
    585000   297.71897     -125.33455      53661.296     -21545.76       3330.5762     -18215.184      1.0631025    
    586000   302.4053       653.28842      53725.492     -21473.07       3383.0021     -18090.068      1.0618322    
    587000   304.26201      265.08201      54355.817     -21569.586      3403.7731     -18165.813      1.0495189    
    588000   302.37576     -592.5835       54021.219     -21625.004      3382.6717     -18242.333      1.0560194    
    589000   296.2354       860.37461      54203.781     -21510.173      3313.9796     -18196.193      1.0524627    
    590000   310.7844       24.626461      53578.485     -21595.736      3476.7389     -18118.997      1.0647456    
    591000   302.27743      724.07524      53707.944     -21636.014      3381.5716     -18254.443      1.0621791    
    592000   293.21163      89.283159      53705.609     -21754.459      3280.1527     -18474.306      1.0622253    
    593000   295.06859     -603.14048      54494.913     -21561.901      3300.9265     -18260.974      1.0468401    
    594000   300.28191     -269.76207      54143.269     -21561.916      3359.2477     -18202.668      1.053639     
    595000   301.66633     -541.37574      54058.244     -21469.573      3374.7353     -18094.837      1.0552962    
    596000   300.62238      593.56745      53594.001     -21583.362      3363.0566     -18220.305      1.0644374    
    597000   295.04536     -504.28242      53619.077     -21499.473      3300.6666     -18198.806      1.0639396    
    598000   295.14244     -249.61018      54098.684     -21507.295      3301.7526     -18205.542      1.0545073    
    599000   302.96087      714.88742      53729.131     -21571.768      3389.2172     -18182.551      1.0617603    
    600000   292.21393      358.84951      53418.157     -21618.574      3268.9914     -18349.582      1.0679413    
    600010   290.70801     -124.05091      53438.406     -21593.011      3252.1447     -18340.867      1.0675367    
Loop time of 13039.3 on 5 procs for 300000 steps with 5541 atoms

Performance: 3.976 ns/day, 6.037 hours/ns, 23.007 timesteps/s, 127.484 katom-step/s
341.9% CPU use with 1 MPI tasks x 5 OpenMP threads

MPI task timing breakdown:
Section |  min time  |  avg time  |  max time  |%varavg| %total
---------------------------------------------------------------
Pair    | 567.87     | 567.87     | 567.87     |   0.0 |  4.36
Bond    | 5.5442     | 5.5442     | 5.5442     |   0.0 |  0.04
Kspace  | 6790.1     | 6790.1     | 6790.1     |   0.0 | 52.07
Neigh   | 0.8511     | 0.8511     | 0.8511     |   0.0 |  0.01
Comm    | 164.64     | 164.64     | 164.64     |   0.0 |  1.26
Output  | 1.4103     | 1.4103     | 1.4103     |   0.0 |  0.01
Modify  | 5451.6     | 5451.6     | 5451.6     |   0.0 | 41.81
Other   |            | 57.21      |            |       |  0.44

Nlocal:           5541 ave        5541 max        5541 min
Histogram: 1 0 0 0 0 0 0 0 0 0
Nghost:          35879 ave       35879 max       35879 min
Histogram: 1 0 0 0 0 0 0 0 0 0
Neighs:              0 ave           0 max           0 min
Histogram: 1 0 0 0 0 0 0 0 0 0

Total # of neighbors = 0
Ave neighs/atom = 0
Ave special neighs/atom = 2.4872767
Neighbor list builds = 27864
Dangerous builds = 0

undump npt_traj
undump npt_dcd
unfix mynpt_standard
unfix thermo_avg_npt

write_restart npt_complete.restart
System init for write_restart ...
PPPM initialization ...
  extracting TIP4P info from pair style
  using 12-bit tables for long-range coulomb
  G vector (1/distance) = 0.28859774
  grid = 50 50 50
  stencil order = 5
  estimated absolute RMS force accuracy = 0.00032493791
  estimated relative force accuracy = 9.7854086e-07
  using double precision FFTW3
  3d grid and FFT values/proc = 205379 125000
Generated 0 of 3 mixed pair_coeff terms from geometric mixing rule
write_data npt_complete.data
System init for write_data ...
PPPM initialization ...
  extracting TIP4P info from pair style
  using 12-bit tables for long-range coulomb
  G vector (1/distance) = 0.28859774
  grid = 50 50 50
  stencil order = 5
  estimated absolute RMS force accuracy = 0.00032493791
  estimated relative force accuracy = 9.7854086e-07
  using double precision FFTW3
  3d grid and FFT values/proc = 205379 125000
Generated 0 of 3 mixed pair_coeff terms from geometric mixing rule
WARNING: Not all mixed pair coeffs generated from mixing. Use write_data with 'pair ij' option to store all pair coeffs. (src/write_data.cpp:364)

# CRITICAL: Save NPT checkpoint for production restart capability
write_restart npt_equilibration_complete.restart
System init for write_restart ...
PPPM initialization ...
  extracting TIP4P info from pair style
  using 12-bit tables for long-range coulomb
  G vector (1/distance) = 0.28859774
  grid = 50 50 50
  stencil order = 5
  estimated absolute RMS force accuracy = 0.00032493791
  estimated relative force accuracy = 9.7854086e-07
  using double precision FFTW3
  3d grid and FFT values/proc = 205379 125000
Generated 0 of 3 mixed pair_coeff terms from geometric mixing rule
write_data npt_equilibration_complete.data
System init for write_data ...
PPPM initialization ...
  extracting TIP4P info from pair style
  using 12-bit tables for long-range coulomb
  G vector (1/distance) = 0.28859774
  grid = 50 50 50
  stencil order = 5
  estimated absolute RMS force accuracy = 0.00032493791
  estimated relative force accuracy = 9.7854086e-07
  using double precision FFTW3
  3d grid and FFT values/proc = 205379 125000
Generated 0 of 3 mixed pair_coeff terms from geometric mixing rule
WARNING: Not all mixed pair coeffs generated from mixing. Use write_data with 'pair ij' option to store all pair coeffs. (src/write_data.cpp:364)

variable current_dens equal density
variable current_vol equal vol
variable current_press equal press
variable current_temp equal temp
print ""

print "NPT equilibration complete (1000 ps total):"
NPT equilibration complete (1000 ps total):
print "  Temperature: ${current_temp} K"
  Temperature: 290.708005782886 K
print "  Density:     ${current_dens} g/cmÂ³"
  Density:     1.06753666501401 g/cm³
print "  Pressure:    ${current_press} atm"
  Pressure:    -124.050910127287 atm
print "  Volume:      ${current_vol} Ã…Â³"
  Volume:      53438.4058981695 …³
print ""

print "âœ… CHECKPOINT: NPT equilibration complete"
œ… CHECKPOINT: NPT equilibration complete
print "   Files saved:"
   Files saved:
print "     - npt_complete.restart (legacy name)"
     - npt_complete.restart (legacy name)
print "     - npt_equilibration_complete.restart (for production restart)"
     - npt_equilibration_complete.restart (for production restart)
print "     - npt_equilibration_complete.data (structure file)"
     - npt_equilibration_complete.data (structure file)
print "     - npt_equilibration_thermo.dat (thermodynamics)"
     - npt_equilibration_thermo.dat (thermodynamics)
print ""


# Checkpoint: Verify density
if "${current_dens} < 0.85 || ${current_dens} > 1.15" then     "print 'ERROR: Density outside expected range (0.85-1.15 g/cmÂ³)'"     "print 'Current density: ${current_dens} g/cmÂ³'"     "quit 1"

print "âœ“ Density validation PASSED: ${current_dens} g/cmÂ³"
œ“ Density validation PASSED: 1.06753666501401 g/cm³

print ""


# ğŸ”§ CHECKPOINT #4: Final validation before production
variable current_dens equal density
variable current_press equal press
variable current_vol equal vol
variable current_boxsize equal vol^(1.0/3.0)

print ""

print "NPT equilibration complete. FINAL VALIDATION:"
NPT equilibration complete. FINAL VALIDATION:
print "  Density:  ${current_dens} g/cmÂ³"
  Density:  1.06753666501401 g/cm³
print "  Pressure: ${current_press} atm"
  Pressure: -124.050910127287 atm
print "  Volume:   ${current_vol} Ã…Â³"
  Volume:   53438.4058981695 …³
print "  Box size: ${current_boxsize} Ã…"
  Box size: 37.6661442070446 …
print ""

print "âœ… CHECKPOINT: NPT equilibration complete (1000 ps)"
œ… CHECKPOINT: NPT equilibration complete (1000 ps)
print "   Creating restart file: npt_equilibration_complete.restart"
   Creating restart file: npt_equilibration_complete.restart
print "   This checkpoint allows restarting from production stage if needed"
   This checkpoint allows restarting from production stage if needed
print ""


# Save NPT checkpoint for production restart capability
write_restart npt_equilibration_complete.restart
System init for write_restart ...
PPPM initialization ...
  extracting TIP4P info from pair style
  using 12-bit tables for long-range coulomb
  G vector (1/distance) = 0.28859774
  grid = 50 50 50
  stencil order = 5
  estimated absolute RMS force accuracy = 0.00032493791
  estimated relative force accuracy = 9.7854086e-07
  using double precision FFTW3
  3d grid and FFT values/proc = 205379 125000
Generated 0 of 3 mixed pair_coeff terms from geometric mixing rule
write_data npt_equilibration_complete.data
System init for write_data ...
PPPM initialization ...
  extracting TIP4P info from pair style
  using 12-bit tables for long-range coulomb
  G vector (1/distance) = 0.28859774
  grid = 50 50 50
  stencil order = 5
  estimated absolute RMS force accuracy = 0.00032493791
  estimated relative force accuracy = 9.7854086e-07
  using double precision FFTW3
  3d grid and FFT values/proc = 205379 125000
Generated 0 of 3 mixed pair_coeff terms from geometric mixing rule
WARNING: Not all mixed pair coeffs generated from mixing. Use write_data with 'pair ij' option to store all pair coeffs. (src/write_data.cpp:364)

print "âœ… NPT checkpoint saved successfully"
œ… NPT checkpoint saved successfully
print "   Files created:"
   Files created:
print "     - npt_equilibration_complete.restart (for continuation)"
     - npt_equilibration_complete.restart (for continuation)
print "     - npt_equilibration_complete.data (structure file)"
     - npt_equilibration_complete.data (structure file)
print ""


if "${current_dens} < 0.80" then     "print 'ğŸ”´ ERROR: Density ${current_dens} g/cmÂ³ is TOO LOW (gas phase)!'"     "print 'Expected: 0.95-1.05 g/cmÂ³ for liquid water'"     "print ''"     "print 'Possible causes:'"     "print '  1. System escaped to gas phase during equilibration'"     "print '  2. PPPM grid artifacts occurred later in simulation'"     "print '  3. Initial system was not properly solvated'"     "quit 1"

if "${current_dens} > 1.20" then     "print 'ğŸ”´ ERROR: Density ${current_dens} g/cmÂ³ is TOO HIGH (over-compressed)!'"     "print 'Expected: 0.95-1.05 g/cmÂ³ for liquid water'"     "print ''"     "print 'Possible causes:'"     "print '  1. Barostat not converging properly'"     "print '  2. System trapped in metastable compressed state'"     "quit 1"

print "âœ… Density validation PASSED: ${current_dens} g/cmÂ³"
œ… Density validation PASSED: 1.06753666501401 g/cm³
print "Current density: ${current_dens} g/cmÂ³"
Current density: 1.06753666501401 g/cm³

#==============================================================================
# STAGE 4: Production MD (4000 ps = 4 ns)
#==============================================================================
print ""

print "===== STAGE 4: Production MD (4000 ps = 4 ns, GPU) ====="
===== STAGE 4: Production MD (4000 ps = 4 ns, GPU) =====
print "Main data collection phase - RDF, MSD, trajectories"
Main data collection phase - RDF, MSD, trajectories
print ""

print "Pressure control strategy:"
Pressure control strategy:
print "  â€¢ Using MTK barostat for better ensemble accuracy"
  €¢ Using MTK barostat for better ensemble accuracy
print "  â€¢ Tdamp = 100 fs (standard for NosÃ©-Hoover)"
  €¢ Tdamp = 100 fs (standard for Nos©-Hoover)
print "  â€¢ Pdamp = 1000 fs (tighter control for stable production)"
  €¢ Pdamp = 1000 fs (tighter control for stable production)
print ""


# Production NPT with MTK barostat and tighter pressure control
# Using smaller pdamp (1000 fs vs 2000 fs) for more stable pressure
# ğŸ”§ CRITICAL: Using npt/gpu instead of npt for FULL GPU acceleration
fix mynpt all npt/gpu temp 300.0 300.0 100.0 iso 1.0 1.0 1000.0 mtk yes

# Main trajectory dump (every 1 ps for analysis)
# Trajectory output (every 1 ps) - using wrapped coordinates for proper visualization
dump prod_traj all custom 1000 production.lammpstrj id type xu yu zu
dump_modify prod_traj sort id

# DCD dump (every 0.5 ps for smooth visualization)
dump prod_dcd all dcd 500 production.dcd
dump_modify prod_dcd unwrap yes

# Detailed thermodynamics (every 1 ps)
fix thermo_avg all ave/time 100 10 1000 v_epsilon_co v_temp v_press v_pe v_ke v_etotal v_vol v_dens     file production_thermo.dat

# Very detailed thermodynamics (every 0.1 ps for fluctuation analysis)
fix thermo_detailed all ave/time 10 10 100 v_temp v_press v_pe v_ke v_vol v_dens     file production_detailed_thermo.dat

# Compute RDFs on-the-fly (Global)
# Type 1=C, Type 2=O, Type 3=H
compute rdf_CO all rdf 150 1 2  # Global C-O pairs
compute rdf_CC all rdf 150 1 1  # Global C-C pairs
compute rdf_OO all rdf 150 2 2  # Global O-O pairs

# Individual C60 molecule RDFs with water (CORRECTED)
# "For atoms in group c60_1, find Type 2 (Oxygen) distribution"
compute rdf_C60_1_O c60_1 rdf 150 1 2
compute rdf_C60_2_O c60_2 rdf 150 1 2
compute rdf_C60_3_O c60_3 rdf 150 1 2

# (Deleted impossible Inter-C60 computations - calculate these in Python/OVITO)

# Average Global RDFs
fix rdf_CO_avg all ave/time 1000 10 10000 c_rdf_CO[1] c_rdf_CO[2] c_rdf_CO[3] file rdf_CO.dat mode vector
fix rdf_CC_avg all ave/time 1000 10 10000 c_rdf_CC[1] c_rdf_CC[2] c_rdf_CC[3] file rdf_CC.dat mode vector
fix rdf_OO_avg all ave/time 1000 10 10000 c_rdf_OO[1] c_rdf_OO[2] c_rdf_OO[3] file rdf_OO.dat mode vector

# Average Individual C60-Water RDFs
fix rdf_C60_1_O_avg all ave/time 1000 10 10000 c_rdf_C60_1_O[1] c_rdf_C60_1_O[2] c_rdf_C60_1_O[3] file rdf_C60_1_water.dat mode vector
fix rdf_C60_2_O_avg all ave/time 1000 10 10000 c_rdf_C60_2_O[1] c_rdf_C60_2_O[2] c_rdf_C60_2_O[3] file rdf_C60_2_water.dat mode vector
fix rdf_C60_3_O_avg all ave/time 1000 10 10000 c_rdf_C60_3_O[1] c_rdf_C60_3_O[2] c_rdf_C60_3_O[3] file rdf_C60_3_water.dat mode vector

# Compute MSD for water oxygen (diffusion analysis)
# Need to use the oxygen group defined earlier
compute msd_water oxygen msd
# MSD compute outputs: [1]=dxÂ², [2]=dyÂ², [3]=dzÂ², [4]=total rÂ²
fix msd_avg all ave/time 100 10 1000 c_msd_water[1] c_msd_water[2] c_msd_water[3] c_msd_water[4] file msd_water.dat

# Dump images every 20 ps for visualization
dump prod_img all image 10000 production_*.ppm type type     axes yes 0.8 0.02 view 60 30 zoom 1.5     box no 0.01 shiny 0.5
dump_modify prod_img pad 6 backcolor white

run 1000000  # 2000 ps = 2 ns at 2 fs timestep
PPPM initialization ...
  extracting TIP4P info from pair style
  using 12-bit tables for long-range coulomb
  G vector (1/distance) = 0.28859774
  grid = 50 50 50
  stencil order = 5
  estimated absolute RMS force accuracy = 0.00032493791
  estimated relative force accuracy = 9.7854086e-07
  using double precision FFTW3
  3d grid and FFT values/proc = 205379 125000
Generated 0 of 3 mixed pair_coeff terms from geometric mixing rule
Neighbor list info ...
  update: every = 1 steps, delay = 5 steps, check = yes
  max neighbors/atom: 2000, page size: 100000
  master list distance cutoff = 14.3092
  ghost atom cutoff = 18
  binsize = 7.1546, bins = 6 6 6
  6 neighbor lists, perpetual/occasional/extra = 0 6 0
  (1) compute rdf, occasional
      attributes: half, newton off
      pair build: half/bin/newtoff
      stencil: full/bin/3d
      bin: standard
  (2) compute rdf, occasional
      attributes: half, newton off
      pair build: half/bin/newtoff
      stencil: full/bin/3d
      bin: standard
  (3) compute rdf, occasional
      attributes: half, newton off
      pair build: half/bin/newtoff
      stencil: full/bin/3d
      bin: standard
  (4) compute rdf, occasional
      attributes: half, newton off
      pair build: half/bin/newtoff
      stencil: full/bin/3d
      bin: standard
  (5) compute rdf, occasional
      attributes: half, newton off
      pair build: half/bin/newtoff
      stencil: full/bin/3d
      bin: standard
  (6) compute rdf, occasional
      attributes: half, newton off
      pair build: half/bin/newtoff
      stencil: full/bin/3d
      bin: standard
Per MPI rank memory allocation (min/avg/max) = 69.53 | 69.53 | 69.53 Mbytes
   Step          Temp          Press          Volume         PotEng         KinEng         TotEng        Density    
    600010   290.70801     -103.46779      53438.406     -21593.083      3252.1447     -18340.938      1.0675367    
    601000   307.25217     -230.36684      54225.697     -21608.605      3437.224      -18171.381      1.0520373    
    602000   297.06531     -594.59146      54489.935     -21387.466      3323.2638     -18064.202      1.0469357    
    603000   301.05262      468.8758       54190.92      -21519.557      3367.8697     -18151.688      1.0527125    
    604000   301.62809      203.5868       54085.986     -21676.826      3374.3075     -18302.518      1.0547549    
    605000   297.87339      264.83995      53621.864     -21670.179      3332.3037     -18337.875      1.0638843    
    606000   304.66926     -1195.4504      53786.3       -21586.223      3408.329      -18177.894      1.0606317    
    607000   297.02794     -91.567912      53943.009     -21530.655      3322.8456     -18207.809      1.0575505    
    608000   298.49157      161.47147      53321.016     -21689.627      3339.2193     -18350.408      1.0698869    
    609000   301.15835     -230.75932      53972.632     -21612.543      3369.0525     -18243.49       1.0569701    
    610000   300.3245      -649.71552      53701.42      -21499.181      3359.7243     -18139.457      1.0623082    
    611000   303.52385      379.92493      53468.734     -21523.297      3395.5152     -18127.781      1.0669312    
    612000   296.5688       266.79499      53795.553     -21575.842      3317.7092     -18258.133      1.0604493    
    613000   303.72554      74.795729      54403.739     -21547.719      3397.7716     -18149.948      1.0485944    
    614000   293.12751     -762.45046      54170.975     -21667.968      3279.2116     -18388.757      1.0531001    
    615000   299.04789      392.81531      54139.471     -21639.496      3345.4428     -18294.054      1.0537129    
    616000   294.23314      147.91725      53756.233     -21617.461      3291.5803     -18325.881      1.061225     
    617000   296.68687      415.07727      53528.653     -21510.247      3319.0301     -18191.217      1.0657368    
    618000   298.56838     -614.23704      53860.634     -21521.754      3340.0785     -18181.675      1.059168     
    619000   294.86042     -41.91154       53341.199     -21525.72       3298.5977     -18227.122      1.0694821    
    620000   287.39919      514.19849      53547.494     -21598.764      3215.129      -18383.635      1.0653619    
    621000   299.92617     -385.71178      54149.011     -21601.739      3355.2681     -18246.471      1.0535272    
    622000   298.69195      754.42764      54222.632     -21602.335      3341.461      -18260.874      1.0520968    
    623000   301.47985     -61.371298      54254.235     -21560.913      3372.6491     -18188.264      1.051484     
    624000   304.71955     -449.24205      53600.526     -21597.722      3408.8915     -18188.83       1.0643078    
    625000   297.49432     -942.63344      54079.135     -21590.735      3328.0631     -18262.672      1.0548885    
    626000   292.21789     -140.09995      53796.324     -21550.922      3269.0357     -18281.886      1.0604341    
    627000   296.87065      499.72229      54314.259     -21426.802      3321.086      -18105.716      1.0503219    
    628000   296.23184     -431.72195      53795.645     -21567.018      3313.9397     -18253.079      1.0604475    
    629000   299.61153      763.96729      53470.679     -21581.116      3351.7483     -18229.368      1.0668923    
    630000   295.62144      182.63917      53584.633     -21717.437      3307.1111     -18410.326      1.0646235    
    631000   301.4389       7.977404       53844.699     -21564.804      3372.1909     -18192.613      1.0594814    
    632000   296.98072      146.8055       53510.356     -21454.698      3322.3175     -18132.381      1.0661013    
    633000   301.34712     -95.788834      54111.398     -21544.202      3371.1642     -18173.038      1.0542595    
    634000   303.40206      52.225871      54091.853     -21490.379      3394.1528     -18096.226      1.0546405    
    635000   300.89969      31.512717      54442.291     -21514.847      3366.1588     -18148.688      1.0478519    
    636000   297.37333     -774.87096      54233.935     -21615.124      3326.7095     -18288.415      1.0518775    
    637000   304.20545      438.09276      54153.975     -21570.699      3403.1403     -18167.559      1.0534307    
    638000   296.4631       817.88453      53719.653     -21697.012      3316.5268     -18380.486      1.0619476    
    639000   301.31293     -54.205398      54066.283     -21586.465      3370.7817     -18215.684      1.0551393    
    640000   305.25815      947.34551      53400.852     -21576.629      3414.9169     -18161.712      1.0682874    
    641000   302.04712     -287.90214      53264.94      -21524.543      3378.9952     -18145.547      1.0710133    
    642000   297.97979      468.33789      53867.487     -21477.124      3333.494      -18143.63       1.0590332    
    643000   296.81833      402.28065      53277.3       -21600.495      3320.5008     -18279.994      1.0707648    
    644000   296.3946      -719.65527      53844.96      -21605.517      3315.7605     -18289.757      1.0594763    
    645000   300.96836      577.7067       53999.294     -21566.4        3366.9271     -18199.473      1.0564482    
    646000   301.49235      133.82839      53869.022     -21436.766      3372.7889     -18063.977      1.059003     
    647000   306.78152     -715.41273      53928.011     -21582.994      3431.9587     -18151.035      1.0578446    
    648000   307.50304      464.9749       53710.941     -21524.603      3440.0304     -18084.572      1.0621199    
    649000   299.06605     -158.87374      53786.475     -21556.459      3345.646      -18210.813      1.0606283    
    650000   296.98602     -372.71952      53873.945     -21562.484      3322.3767     -18240.107      1.0589063    
    651000   296.86343     -831.47903      54342.54      -21529.126      3321.0052     -18208.121      1.0497753    
    652000   298.08658     -698.99993      54226.905     -21618.053      3334.6886     -18283.364      1.0520139    
    653000   292.28396      456.4396       53670.853     -21534.986      3269.7749     -18265.211      1.0629132    
    654000   302.34402      617.92582      53787.196     -21611.524      3382.3166     -18229.207      1.0606141    
    655000   293.7439      -51.789394      53857.077     -21583.852      3286.1071     -18297.745      1.0592379    
    656000   299.35937     -1030.3756      53804.612     -21582.566      3348.9273     -18233.639      1.0602708    
    657000   294.72408      464.23492      53408.685     -21540.626      3297.0724     -18243.553      1.0681307    
    658000   293.21375     -963.27866      53539.589     -21616.582      3280.1763     -18336.405      1.0655192    
    659000   294.28668      139.50876      53587.655     -21581.631      3292.1792     -18289.452      1.0645634    
    660000   300.49675     -509.22508      53733.962     -21602.762      3361.6511     -18241.11       1.0616648    
    661000   305.64415      1202.6417      53549.465     -21572.483      3419.235      -18153.248      1.0653226    
    662000   299.03209      27.532471      53616.201     -21481.163      3345.2661     -18135.897      1.0639966    
    663000   299.29396      633.68199      53984.886     -21617.105      3348.1955     -18268.91       1.0567302    
    664000   297.19517      36.638797      54103.422     -21635.256      3324.7164     -18310.539      1.054415     
    665000   290.19585     -622.82013      53205.09      -21631.899      3246.4152     -18385.484      1.072218     
    666000   300.5961      -321.01634      53765.31      -21548.742      3362.7626     -18185.98       1.0610458    
    667000   305.59718     -604.21879      54697.613     -21506.84       3418.7096     -18088.13       1.0429606    
    668000   297.11225     -743.44583      53319.385     -21596.427      3323.7888     -18272.639      1.0699196    
    669000   298.83137     -11.127704      53710.323     -21693.993      3343.0206     -18350.973      1.0621321    
    670000   302.0749      -284.17243      54115.168     -21623.083      3379.3059     -18243.777      1.0541861    
    671000   294.89793      289.29916      53633.683     -21541.136      3299.0173     -18242.119      1.0636498    
    672000   302.17718      292.49594      53844.727     -21431.011      3380.4501     -18050.561      1.0594809    
    673000   299.81808     -360.51716      53574.74      -21510.941      3354.0589     -18156.882      1.0648201    
    674000   294.50885     -667.03281      53627.041     -21533.545      3294.6646     -18238.88       1.0637816    
    675000   301.78078     -14.758661      53888.517     -21558.258      3376.0156     -18182.242      1.0586199    
    676000   305.30929      1113.7821      53568.069     -21442.704      3415.489      -18027.215      1.0649527    
    677000   302.33051     -281.84189      54460.848     -21478.796      3382.1655     -18096.63       1.0474949    
    678000   299.77804      286.24647      53801.613     -21586.281      3353.611      -18232.67       1.0603299    
    679000   300.35753     -230.66278      54397.162     -21623.532      3360.0937     -18263.439      1.0487212    
    680000   299.83457      396.57437      53933.648     -21615.431      3354.2433     -18261.188      1.0577341    
    681000   304.25149     -311.198        53967.044     -21515.782      3403.6554     -18112.126      1.0570795    
    682000   301.26482      79.676248      54364.045     -21595.922      3370.2436     -18225.679      1.0493601    
    683000   291.62806     -215.88663      54159.444     -21529.172      3262.4373     -18266.735      1.0533243    
    684000   294.12653     -1143.08        53703.062     -21581.953      3290.3877     -18291.565      1.0622757    
    685000   296.18533     -249.93641      54081.392     -21612.013      3313.4194     -18298.594      1.0548445    
    686000   302.86342      402.26517      53476.674     -21669.064      3388.1271     -18280.937      1.0667727    
    687000   300.9051       632.11576      53529.926     -21588.118      3366.2194     -18221.898      1.0657115    
    688000   303.52265      717.98902      53986.332     -21559.703      3395.5019     -18164.201      1.0567019    
    689000   302.96008      278.51526      53253.733     -21629.143      3389.2084     -18239.935      1.0712387    
    690000   305.81138     -188.75501      53968.963     -21511.551      3421.1059     -18090.445      1.0570419    
    691000   303.85763      523.64847      53809.59      -21467.721      3399.2492     -18068.472      1.0601727    
    692000   301.60748      1008.4065      53475.941     -21649.272      3374.0768     -18275.195      1.0667873    
    693000   297.4766       202.12329      54479.272     -21549.341      3327.8648     -18221.476      1.0471406    
    694000   295.62343      276.32528      54159.208     -21603.193      3307.1334     -18296.06       1.0533289    
    695000   305.60735     -444.73451      54332.603     -21588.934      3418.8234     -18170.11       1.0499673    
    696000   301.32789      45.942939      53700.206     -21493.447      3370.9491     -18122.498      1.0623322    
    697000   300.41148      730.81529      53684.45      -21592.862      3360.6972     -18232.165      1.062644     
    698000   298.77469     -409.30932      53727.323     -21611.502      3342.3865     -18269.116      1.061796     
    699000   300.20873     -197.10791      54254.383     -21527.925      3358.4291     -18169.496      1.0514811    
    700000   301.04368     -889.84373      54175.229     -21560.749      3367.7697     -18192.979      1.0530174    
    701000   302.76066      64.201452      54522.553     -21466.311      3386.9775     -18079.333      1.0463094    
    702000   300.42654      33.266734      53630.488     -21601.049      3360.8658     -18240.184      1.0637132    
    703000   307.70331      1420.0179      53863.451     -21620.673      3442.2708     -18178.402      1.0591126    
    704000   301.10869      86.942524      54076.364     -21577.007      3368.497      -18208.51       1.0549426    
    705000   290.53123      59.321231      54174.214     -21576.557      3250.167      -18326.389      1.0530371    
    706000   296.98897     -320.3348       54525.762     -21529.744      3322.4097     -18207.335      1.0462478    
    707000   299.41202     -45.937991      53999.971     -21711.042      3349.5164     -18361.525      1.056435     
    708000   305.11969     -462.79901      53820.674     -21574.148      3413.3679     -18160.78       1.0599543    
    709000   299.16096     -375.64751      54428.302     -21350.915      3346.7078     -18004.208      1.0481212    
    710000   301.97713      226.04108      53616.395     -21484.858      3378.2122     -18106.645      1.0639928    
    711000   301.16935     -534.87844      53865.872     -21550.233      3369.1755     -18181.057      1.059065     
    712000   307.1009       1500.8992      54029.436     -21501.858      3435.5316     -18066.326      1.0558588    
    713000   299.95874     -34.715741      54272.748     -21630.668      3355.6325     -18275.036      1.0511253    
    714000   294.52751      378.35839      54152.024     -21629.516      3294.8733     -18334.643      1.0534686    
    715000   304.66888      717.84326      54034.872     -21714.679      3408.3247     -18306.354      1.0557526    
    716000   294.1695       77.36599       54035.427     -21625.406      3290.8684     -18334.538      1.0557418    
    717000   300.03851     -625.36623      53646.812     -21621.83       3356.5249     -18265.305      1.0633895    
    718000   298.93623     -269.88771      54146.574     -21601.508      3344.1937     -18257.314      1.0535746    
    719000   300.62855     -172.17884      54166.022     -21639.319      3363.1256     -18276.193      1.0531964    
    720000   298.87206     -209.07528      53849.218     -21646.963      3343.4758     -18303.488      1.0593925    
    721000   292.74882      879.99653      53377.635     -21545.129      3274.9752     -18270.154      1.0687521    
    722000   298.50029      76.308982      53585.535     -21614.523      3339.3168     -18275.206      1.0646055    
    723000   302.36384     -132.07405      53833.09      -21429.598      3382.5383     -18047.06       1.0597099    
    724000   302.14027      982.08491      53823.764     -21622.567      3380.0372     -18242.53       1.0598935    
    725000   300.56375      166.64687      53753.493     -21692.144      3362.4007     -18329.744      1.0612791    
    726000   293.22273      464.68474      53663.513     -21627.468      3280.2769     -18347.191      1.0630586    
    727000   299.17989      470.29897      53492.118     -21516.477      3346.9195     -18169.558      1.0664647    
    728000   306.85239     -621.87537      53621.847     -21631.455      3432.7515     -18198.704      1.0638846    
    729000   293.19269      205.42132      53655.366     -21506.009      3279.9408     -18226.068      1.06322      
    730000   301.6392      -11.161816      53780.573     -21629.4        3374.4317     -18254.969      1.0607447    
    731000   302.60171     -216.98714      53727.759     -21631.969      3385.1993     -18246.769      1.0617874    
    732000   296.5591      -237.44896      53387.674     -21540.506      3317.6008     -18222.905      1.0685511    
    733000   299.62319      479.53938      53836.133     -21517.498      3351.8787     -18165.619      1.05965      
    734000   294.04987      259.81668      53810.037     -21583.954      3289.53       -18294.424      1.0601639    
    735000   305.13612     -264.58775      53686.763     -21551.274      3413.5517     -18137.722      1.0625982    
    736000   295.00988     -256.83114      53648.477     -21533.85       3300.2696     -18233.58       1.0633565    
    737000   299.11864     -558.80815      54083.548     -21690.621      3346.2343     -18344.386      1.0548024    
    738000   298.70524     -444.80048      53788.345     -21518.077      3341.6096     -18176.467      1.0605914    
    739000   296.20428     -524.56691      53487.766     -21689.219      3313.6314     -18375.588      1.0665515    
    740000   293.11857      507.33606      53952.54      -21670.033      3279.1116     -18390.921      1.0573637    
    741000   297.72096     -51.548443      54144.147     -21482.088      3330.5985     -18151.489      1.0536219    
    742000   299.68816     -348.24865      54209.785     -21570.828      3352.6055     -18218.223      1.0523461    
    743000   301.0427      -351.9623       54109.718     -21580.997      3367.7587     -18213.238      1.0542923    
    744000   296.25164     -214.07158      54107.281     -21515.863      3314.1613     -18201.702      1.0543398    
    745000   296.21227      304.76246      54254.64      -21663.502      3313.7208     -18349.781      1.0514761    
    746000   300.01146     -118.14582      53906.368     -21621.409      3356.2222     -18265.187      1.0582694    
    747000   297.26336      891.64149      53940.588     -21525.734      3325.4793     -18200.254      1.057598     
    748000   295.70611     -510.72039      53918.353     -21727.472      3308.0584     -18419.414      1.0580341    
    749000   297.04234      173.09942      54347.591     -21714.328      3323.0067     -18391.321      1.0496778    
    750000   301.42568     -670.37014      54119.939     -21593.437      3372.0431     -18221.394      1.0540932    
    751000   308.42648      345.83068      53626.152     -21562.582      3450.3609     -18112.221      1.0637992    
    752000   299.85081      399.74783      54218.499     -21593.326      3354.4251     -18238.901      1.052177     
    753000   300.09532      270.38726      53742.416     -21635.353      3357.1604     -18278.193      1.0614978    
    754000   305.50215     -769.07129      54226.673     -21599.329      3417.6465     -18181.682      1.0520184    
    755000   295.98005      871.59609      53433.371     -21746.946      3311.1229     -18435.823      1.0676373    
    756000   300.60813      197.78607      53851.782     -21582.951      3362.8972     -18220.054      1.0593421    
    757000   298.53413      39.85606       54135.433     -21634.06       3339.6954     -18294.365      1.0537915    
    758000   300.31345     -36.350554      54461.232     -21628.232      3359.6006     -18268.631      1.0474875    
    759000   300.09211      41.902676      54003.547     -21575.242      3357.1245     -18218.117      1.056365     
    760000   307.82068     -628.46851      54179.45      -21640.091      3443.5839     -18196.507      1.0529353    
    761000   297.48819      496.94493      53603.827     -21538.315      3327.9944     -18210.32       1.0642423    
    762000   300.55556      596.9767       53742.318     -21618.063      3362.3091     -18255.754      1.0614998    
    763000   297.01757     -988.0922       54257.571     -21388.654      3322.7296     -18065.924      1.0514193    
    764000   294.68101      68.921956      54163.956     -21578.812      3296.5906     -18282.221      1.0532365    
    765000   301.27688     -972.73264      54562.149     -21496.634      3370.3785     -18126.256      1.04555      
    766000   299.27788     -148.1132       53444.261     -21577.728      3348.0156     -18229.713      1.0674197    
    767000   298.87218     -624.72071      53837.131     -21573.39       3343.4771     -18229.913      1.0596303    
    768000   296.9522       692.89752      53899.665     -21539.539      3321.9984     -18217.541      1.058401     
    769000   301.20516     -999.65673      53543.32      -21557.276      3369.5761     -18187.7        1.0654449    
    770000   295.00751     -274.92145      53835.873     -21440.735      3300.2431     -18140.492      1.0596551    
    771000   307.25846     -72.185633      53868.006     -21446.585      3437.2943     -18009.291      1.059023     
    772000   299.87951      55.551248      53691.912     -21560.584      3354.7462     -18205.838      1.0624963    
    773000   297.38677      160.45556      54040.227     -21706.469      3326.8599     -18379.609      1.055648     
    774000   299.34502     -730.29359      54278.149     -21595.58       3348.7668     -18246.813      1.0510207    
    775000   297.50451     -861.95728      54244.498     -21531.51       3328.177      -18203.333      1.0516727    
    776000   298.86075     -259.16053      53616.265     -21580.872      3343.3493     -18237.523      1.0639954    
    777000   302.12612      523.70635      54538.596     -21601.294      3379.8789     -18221.415      1.0460016    
    778000   305.09796     -308.19529      53903.782     -21478.309      3413.1248     -18065.184      1.0583201    
    779000   306.32557     -5.0521082      54007.513     -21639.96       3426.858      -18213.102      1.0562874    
    780000   293.43596     -97.13832       53631.838     -21609.232      3282.6623     -18326.57       1.0636864    
    781000   292.78492      307.94549      53667.07      -21581.106      3275.3791     -18305.727      1.0629881    
    782000   303.2356       1652.9638      53881.867     -21684.316      3392.2906     -18292.026      1.0587506    
    783000   301.93347     -59.463822      54293.787     -21676.321      3377.7237     -18298.597      1.050718     
    784000   297.94847     -104.54528      53848.877     -21598.943      3333.1437     -18265.8        1.0593992    
    785000   298.58107      184.35701      53230.78      -21631.526      3340.2205     -18291.306      1.0717006    
    786000   301.4769       163.20767      53784.305     -21592.734      3372.6161     -18220.118      1.0606711    
    787000   297.91042      266.73988      54038.448     -21649.222      3332.7179     -18316.504      1.0556828    
    788000   295.76112      982.67597      53744.716     -21540.998      3308.6737     -18232.324      1.0614524    
    789000   300.76981      62.10219       54246.176     -21488.712      3364.7058     -18124.006      1.0516402    
    790000   295.61273      829.68266      53930.885     -21704.761      3307.0137     -18397.747      1.0577883    
    791000   303.17422      543.84         53745.144     -21531.879      3391.604      -18140.275      1.0614439    
    792000   303.74402     -703.24107      53725.934     -21564.67       3397.9783     -18166.692      1.0618235    
    793000   309.75183     -177.30673      53753.163     -21679.968      3465.1876     -18214.78       1.0612856    
    794000   298.41699      95.297132      53898.403     -21532.746      3338.3849     -18194.361      1.0584258    
    795000   307.32991     -555.00054      53823.161     -21507.437      3438.0936     -18069.344      1.0599054    
    796000   300.40616      401.69541      54029.48      -21593.118      3360.6377     -18232.48       1.055858     
    797000   305.27226      129.0582       54021.907     -21504.76       3415.0747     -18089.685      1.056006     
    798000   297.52396      817.36546      53558.797     -21724.476      3328.3946     -18396.082      1.065137     
    799000   303.52889     -301.54746      53442.897     -21737.281      3395.5716     -18341.709      1.067447     
    800000   304.76828      697.84404      54001.724     -21696.801      3409.4367     -18287.365      1.0564007    
    801000   305.95722      293.18204      54081.612     -21648.941      3422.7374     -18226.204      1.0548402    
    802000   301.00215     -330.24537      54098.731     -21538.484      3367.3051     -18171.179      1.0545064    
    803000   304.6254      -670.18158      54411.526     -21547.22       3407.8383     -18139.382      1.0484444    
    804000   299.31025      152.6636       54222.233     -21535.961      3348.3778     -18187.583      1.0521045    
    805000   306.67352      195.92986      53971.105     -21568.411      3430.7506     -18137.661      1.057        
    806000   300.91474      324.17886      54060.744     -21583.095      3366.3272     -18216.768      1.0552474    
    807000   300.7613       160.79345      54148.458     -21516.1        3364.6106     -18151.489      1.053538     
    808000   301.61798     -511.73157      53810.903     -21605.264      3374.1944     -18231.07       1.0601468    
    809000   304.77824     -236.32109      53682.414     -21510.631      3409.5481     -18101.083      1.0626843    
    810000   300.3725       149.23114      53827.398     -21560.568      3360.2612     -18200.306      1.0598219    
    811000   302.52167      126.39978      54024.108     -21600.522      3384.3039     -18216.218      1.055963     
    812000   296.21714     -158.50257      53921.373     -21558.519      3313.7753     -18244.743      1.0579749    
    813000   301.80359     -775.88157      54055.166     -21552.622      3376.2707     -18176.351      1.0553563    
    814000   304.81831      106.19735      53866.986     -21646.472      3409.9964     -18236.476      1.0590431    
    815000   299.00851      302.39175      53908.625     -21511.886      3345.0023     -18166.884      1.0582251    
    816000   296.45745      520.24587      54192.252     -21542.873      3316.4636     -18226.409      1.0526866    
    817000   295.43521     -332.08861      53830.816     -21695.544      3305.0278     -18390.516      1.0597546    
    818000   300.23134     -466.96834      54666.277     -21559.733      3358.682      -18201.051      1.0435585    
    819000   296.76858     -549.19213      54633.924     -21491.306      3319.9442     -18171.361      1.0441765    
    820000   300.20342      586.27869      53994.583     -21493.409      3358.3697     -18135.039      1.0565404    
    821000   296.47426     -103.64007      53772.889     -21526.591      3316.6517     -18209.939      1.0608963    
    822000   300.67703     -619.96006      53895.3       -21564.499      3363.6679     -18200.831      1.0584867    
    823000   293.88751      328.07857      54560.531     -21617.373      3287.7138     -18329.659      1.0455811    
    824000   302.76732      276.71307      53851.066     -21556.521      3387.052      -18169.469      1.0593561    
    825000   296.32381      231.90493      53980.383     -21586.205      3314.9686     -18271.236      1.0568183    
    826000   290.51729      413.08878      54259.305     -21681.905      3250.0112     -18431.894      1.0513857    
    827000   292.32456      960.63173      53602.577     -21677.356      3270.229      -18407.127      1.0642671    
    828000   299.56327     -712.46651      53642.48      -21575.404      3351.2083     -18224.196      1.0634754    
    829000   299.68732     -898.24145      54587.229     -21483.566      3352.5961     -18130.97       1.0450697    
    830000   304.53026      73.622773      53570.758     -21587.15       3406.7739     -18180.376      1.0648992    
    831000   310.89157      6.5616683      53687.079     -21553.819      3477.9378     -18075.881      1.0625919    
    832000   301.87248      62.70654       54071.475     -21566.365      3377.0414     -18189.324      1.0550379    
    833000   295.18244      221.06579      54009.736     -21546.34       3302.2001     -18244.14       1.056244     
    834000   293.94041     -128.92294      54006.078     -21589.212      3288.3055     -18300.907      1.0563155    
    835000   307.22045     -58.764674      53743.902     -21522.381      3436.8691     -18085.512      1.0614685    
    836000   295.6503      -979.45439      53709.108     -21652.292      3307.434      -18344.858      1.0621561    
    837000   301.33387      83.256809      54400.079     -21562.566      3371.016      -18191.55       1.048665     
    838000   304.25767      816.68692      53877.264     -21659.91       3403.7245     -18256.185      1.058841     
    839000   304.83926     -133.36305      53999.575     -21593.026      3410.2308     -18182.795      1.0564427    
    840000   298.88306     -173.11858      53610.892     -21455.766      3343.5989     -18112.168      1.064102     
    841000   300.45874      1114.454       53791.382     -21537.517      3361.226      -18176.291      1.0605315    
    842000   303.11476     -713.20238      53587.457     -21631.785      3390.9388     -18240.846      1.0645674    
    843000   290.99104     -407.1247       53996.482     -21524.548      3255.311      -18269.237      1.0565032    
    844000   302.90167     -480.39474      53826.166     -21678.438      3388.5549     -18289.883      1.0598462    
    845000   294.09948     -45.615566      54023.271     -21483.318      3290.085      -18193.233      1.0559793    
    846000   301.47645     -331.90855      54321.679     -21508.252      3372.611      -18135.641      1.0501785    
    847000   298.14141      1346.923       53536.757     -21605.126      3335.302      -18269.824      1.0655755    
    848000   300.42018      280.88905      53407.639     -21567.403      3360.7945     -18206.608      1.0681516    
    849000   302.6783       360.35661      53668.477     -21537.828      3386.0561     -18151.771      1.0629602    
    850000   297.02934      1020.71        53534.487     -21502.942      3322.8613     -18180.081      1.0656207    
    851000   291.48352     -541.60426      54038.765     -21531.106      3260.8204     -18270.286      1.0556766    
    852000   302.29536     -590.42015      54163.099     -21592.061      3381.7721     -18210.289      1.0532532    
    853000   293.60291      28.761871      53534.866     -21588.202      3284.53       -18303.672      1.0656132    
    854000   300.95856      172.46094      54607.483     -21537.814      3366.8174     -18170.997      1.0446821    
    855000   294.06054      174.81256      54020.895     -21512.41       3289.6494     -18222.76       1.0560258    
    856000   303.94087     -384.51788      54110.058     -21640.719      3400.1805     -18240.539      1.0542857    
    857000   299.24113      966.76017      53546.666     -21552.558      3347.6045     -18204.954      1.0653783    
    858000   300.34737     -619.07332      53595.984     -21626.367      3359.9801     -18266.387      1.064398     
    859000   302.73989     -902.04161      53621.17      -21462.079      3386.7451     -18075.334      1.063898     
    860000   299.63269      299.05656      53703.819     -21662.127      3351.985      -18310.142      1.0622607    
    861000   302.69979      679.30986      53703.91      -21542.76       3386.2965     -18156.463      1.0622589    
    862000   294.92285     -372.09564      54252.448     -21511.993      3299.296      -18212.697      1.0515186    
    863000   297.85517     -178.68919      53658.937     -21559.075      3332.0999     -18226.975      1.0631492    
    864000   300.65885     -195.72004      53845.91      -21397.539      3363.4646     -18034.075      1.0594576    
    865000   301.39179     -12.967147      53745.326     -21640.934      3371.6639     -18269.27       1.0614403    
    866000   304.43599      865.25059      53405.185     -21481.023      3405.7194     -18075.304      1.0682007    
    867000   293.39099     -956.69083      53485.657     -21471.622      3282.1592     -18189.463      1.0665936    
    868000   292.47368     -278.62267      53691.837     -21526.089      3271.8973     -18254.191      1.0624978    
    869000   303.82121     -530.53003      53503.44      -21663.232      3398.8418     -18264.39       1.0662391    
    870000   302.87412     -358.24179      54115.679     -21539.368      3388.2468     -18151.121      1.0541761    
    871000   295.85592     -399.26675      53536.876     -21548.197      3309.7343     -18238.463      1.0655732    
    872000   299.98727      297.50361      54280.99      -21603.343      3355.9516     -18247.392      1.0509657    
    873000   293.03283      605.43472      53864.101     -21613.914      3278.1525     -18335.761      1.0590998    
    874000   299.95933     -1133.791       54032.018     -21607.63       3355.6391     -18251.991      1.0558084    
    875000   294.96614      371.25759      53975.152     -21639.415      3299.7804     -18339.635      1.0569207    
    876000   295.14337      803.45818      53509.152     -21637.455      3301.763      -18335.692      1.0661252    
    877000   296.37651     -720.01918      54381.599     -21481.679      3315.5581     -18166.121      1.0490213    
    878000   291.89904     -337.57055      54033.798     -21480.724      3265.4688     -18215.255      1.0557736    
    879000   300.4269       688.73565      54211.469     -21451.166      3360.8697     -18090.297      1.0523134    
    880000   300.04076     -0.023211325    54511.763     -21478.887      3356.5501     -18122.337      1.0465165    
    881000   299.60522     -146.52175      53893.535     -21483.447      3351.6777     -18131.769      1.0585214    
    882000   297.60707     -22.972625      54094.2       -21675.604      3329.3244     -18346.28       1.0545947    
    883000   302.94863      330.51791      53691.282     -21587.539      3389.0803     -18198.459      1.0625088    
    884000   309.27861      191.28119      53578.597     -21578.39       3459.8936     -18118.497      1.0647434    
    885000   300.33208      188.87652      53784.768     -21621.297      3359.809      -18261.488      1.060662     
    886000   296.70657      124.88941      53468.672     -21549.961      3319.2505     -18230.71       1.0669324    
    887000   300.53119     -828.97032      53342.22      -21626.692      3362.0365     -18264.656      1.0694616    
    888000   300.46748     -727.27124      54154.225     -21555.565      3361.3237     -18194.241      1.0534258    
    889000   296.57528      894.23848      53507.089     -21618.341      3317.7817     -18300.559      1.0661663    
    890000   310.4802       242.90345      53385.149     -21619.221      3473.3358     -18145.885      1.0686016    
    891000   301.32436      509.59122      53232.741     -21551.121      3370.9097     -18180.211      1.0716611    
    892000   301.56778     -839.51542      54228.049     -21462.081      3373.6328     -18088.448      1.0519917    
    893000   295.87097      358.08051      53333.813     -21633.645      3309.9026     -18323.743      1.0696302    
    894000   296.15676     -576.37135      53962.937     -21568.39       3313.0998     -18255.291      1.05716      
    895000   299.25864      446.64997      53791.724     -21536.905      3347.8005     -18189.105      1.0605248    
    896000   291.98374     -252.29945      53833.386     -21558.3        3266.4163     -18291.884      1.0597041    
    897000   293.5431       145.76917      53591.426     -21555.606      3283.8608     -18271.745      1.0644885    
    898000   298.52067      114.22921      53670.902     -21562.973      3339.5449     -18223.428      1.0629122    
    899000   300.02922      519.54533      53803.467     -21583.951      3356.4209     -18227.53       1.0602933    
    900000   300.88299     -183.19798      54039.843     -21502.834      3365.972      -18136.862      1.0556555    
    901000   301.02967     -1287.5067      54882.014     -21559.285      3367.6129     -18191.672      1.0394563    
    902000   297.78731      438.32544      53685.729     -21488.964      3331.3407     -18157.623      1.0626187    
    903000   297.41525      28.144287      53738.642     -21510.974      3327.1785     -18183.795      1.0615724    
    904000   290.91754      152.2863       53773.094     -21516.578      3254.4887     -18262.089      1.0608922    
    905000   298.55343      587.35741      53671.507     -21703.416      3339.9113     -18363.505      1.0629002    
    906000   293.42642     -541.40413      54430.559     -21718.76       3282.5555     -18436.204      1.0480778    
    907000   298.92216      365.97429      54182.587     -21588.003      3344.0363     -18243.966      1.0528744    
    908000   303.11597     -446.28282      54410.94      -21648.002      3390.9523     -18257.05       1.0484557    
    909000   303.56284     -425.66495      54713.915     -21464.669      3395.9514     -18068.718      1.0426499    
    910000   296.48488     -327.19242      53385.567     -21593.25       3316.7704     -18276.479      1.0685933    
    911000   299.34513     -321.10399      53904.023     -21649.847      3348.768      -18301.079      1.0583154    
    912000   304.1823       105.59338      54345.608     -21603.578      3402.8814     -18200.697      1.0497161    
    913000   295.19264     -284.88611      54322.936     -21683.107      3302.3142     -18380.793      1.0501542    
    914000   300.76778     -305.54894      53741.919     -21558.966      3364.6832     -18194.283      1.0615076    
    915000   298.72004     -64.772963      53760.534     -21556.629      3341.7751     -18214.854      1.0611401    
    916000   295.04591     -74.971902      53634.705     -21541.612      3300.6727     -18240.939      1.0636296    
    917000   294.3729       384.85442      54087.432     -21431.97       3293.1438     -18138.827      1.0547267    
    918000   307.3702       112.45183      54026.22      -21567.253      3438.5444     -18128.708      1.0559217    
    919000   301.70393      195.6069       53960.801     -21441.664      3375.1558     -18066.508      1.0572018    
    920000   302.71223      346.92049      53894.025     -21505.125      3386.4357     -18118.69       1.0585117    
    921000   301.001        665.38016      53587.765     -21520.538      3367.2922     -18153.246      1.0645612    
    922000   291.32717      891.17612      53836.825     -21548.174      3259.0713     -18289.102      1.0596364    
    923000   303.13794     -166.13197      53905.289     -21578.715      3391.1981     -18187.517      1.0582905    
    924000   298.12941      762.01018      54018.302     -21528.392      3335.1678     -18193.224      1.0560765    
    925000   304.40404      759.16542      54056.729     -21525.733      3405.3619     -18120.371      1.0553257    
    926000   306.56828      302.16304      54054.697     -21620.603      3429.5732     -18191.03       1.0553654    
    927000   299.83358     -571.12414      53778.331     -21630.569      3354.2323     -18276.337      1.0607889    
    928000   296.10707      501.4512       53497.154     -21597.712      3312.5439     -18285.168      1.0663643    
    929000   308.34438     -446.6886       53661.916     -21580.562      3449.4425     -18131.119      1.0630902    
    930000   295.59829     -950.02062      54183.828     -21604.075      3306.8522     -18297.222      1.0528503    
    931000   295.55821      587.71501      53902.613     -21635.279      3306.4038     -18328.876      1.0583431    
    932000   305.41601     -337.0646       53976.624     -21537.214      3416.6829     -18120.531      1.0568919    
    933000   297.7331      -50.709028      53657.604     -21677.888      3330.7342     -18347.153      1.0631756    
    934000   301.89026     -256.45294      53522.945     -21455.694      3377.2403     -18078.453      1.0658505    
    935000   295.43415     -548.98064      53889.259     -21642.855      3305.016      -18337.839      1.0586053    
    936000   298.51696      324.51643      54037.718     -21627.288      3339.5033     -18287.785      1.055697     
    937000   300.66631      223.32382      54033.955     -21625.948      3363.548      -18262.4        1.0557705    
    938000   299.79599      26.275366      54053.796     -21605.177      3353.8118     -18251.365      1.055383     
    939000   301.59429     -37.697031      53603.455     -21704.574      3373.9294     -18330.645      1.0642496    
    940000   295.71779     -246.0203       54375.385     -21648.237      3308.189      -18340.048      1.0491412    
    941000   295.97637     -286.41921      54349.201     -21664.766      3311.0818     -18353.685      1.0496467    
    942000   298.67245     -419.80262      53602.191     -21582.335      3341.2427     -18241.092      1.0642747    
    943000   314.26962     -707.33474      54065.704     -21560.624      3515.728      -18044.896      1.0551506    
    944000   297.31022     -26.423318      54011.958     -21633.29       3326.0036     -18307.286      1.0562005    
    945000   299.5495       39.422881      54402.652     -21446.474      3351.0543     -18095.419      1.0486154    
    946000   298.45566      964.83166      53626.115     -21544.236      3338.8175     -18205.418      1.0637999    
    947000   299.84978      734.09832      53799.788     -21530.524      3354.4136     -18176.111      1.0603659    
    948000   300.0493       407.22084      53820.992     -21585.608      3356.6456     -18228.962      1.0599481    
    949000   303.3895      -150.02167      53934.859     -21542.482      3394.0123     -18148.469      1.0577103    
    950000   307.81535     -279.4637       53872.843     -21648.782      3443.5242     -18205.258      1.0589279    
    951000   305.1265       375.86449      53274.066     -21533.876      3413.444      -18120.432      1.0708298    
    952000   299.7471      -940.00026      54180.025     -21424.475      3353.2648     -18071.21       1.0529242    
    953000   309.42097     -984.95683      54068.518     -21516.665      3461.4863     -18055.179      1.0550956    
    954000   295.7708      -146.7129       54302.062     -21640.937      3308.782      -18332.155      1.0505579    
    955000   301.34092      57.970698      54013.677     -21488.162      3371.0949     -18117.067      1.0561669    
    956000   293.84141     -108.21568      54107.847     -21571.444      3287.198      -18284.246      1.0543287    
    957000   301.76239     -1038.0297      54143.572     -21586.009      3375.8098     -18210.199      1.0536331    
    958000   297.13217      215.64454      53760.03      -21581.01       3324.0117     -18256.998      1.06115      
    959000   302.17491     -598.28515      54211.081     -21582.678      3380.4247     -18202.254      1.052321     
    960000   301.61965      538.49727      54090.159     -21546.356      3374.213      -18172.143      1.0546735    
    961000   303.64549      328.8554       53737.636     -21550.625      3396.876      -18153.749      1.0615922    
    962000   299.56171      175.52882      54013.699     -21612.734      3351.1909     -18261.544      1.0561665    
    963000   303.87591     -659.37898      54351.64      -21508.232      3399.4537     -18108.778      1.0495996    
    964000   290.63783      212.55107      53534.18      -21571.529      3251.3596     -18320.17       1.0656268    
    965000   298.74281     -196.57401      54203.319     -21553.059      3342.0299     -18211.029      1.0524717    
    966000   299.55998     -521.56157      53640.043     -21668.169      3351.1716     -18316.997      1.0635237    
    967000   300.34556      347.70194      53152         -21638.721      3359.9598     -18278.761      1.073289     
    968000   296.72458     -320.1825       54152.251     -21602.022      3319.452      -18282.57       1.0534642    
    969000   300.82659     -476.9393       54242.082     -21502.679      3365.3411     -18137.338      1.0517195    
    970000   299.79346      315.03657      54338.471     -21537.626      3353.7835     -18183.843      1.0498539    
    971000   300.45125     -928.2684       53820.666     -21612.436      3361.1421     -18251.293      1.0599545    
    972000   299.60911      300.88844      53894.31      -21468.561      3351.7211     -18116.84       1.0585061    
    973000   300.1262      -163.8844       53520.101     -21540.028      3357.5058     -18182.522      1.0659071    
    974000   298.20549     -44.641889      54147.769     -21524.418      3336.0189     -18188.399      1.0535514    
    975000   292.25         524.86775      53717.709     -21530.316      3269.3949     -18260.921      1.0619861    
    976000   301.04467     -125.41403      53676.545     -21543.403      3367.7807     -18175.622      1.0628005    
    977000   292.73922     -95.7763        54272.598     -21604.37       3274.8678     -18329.502      1.0511282    
    978000   301.14539     -50.222323      54314.844     -21531.987      3368.9075     -18163.08       1.0503106    
    979000   296.16623     -796.76854      53660.32      -21631.453      3313.2058     -18318.248      1.0631218    
    980000   293.39006      348.06177      53254.615     -21589.678      3282.1487     -18307.53       1.0712209    
    981000   302.95831      487.06632      53692.09      -21474.783      3389.1886     -18085.595      1.0624928    
    982000   300.62617      845.39505      53495.278     -21482.803      3363.099      -18119.704      1.0664017    
    983000   299.98107     -232.17684      53859.938     -21658.718      3355.8822     -18302.835      1.0591817    
    984000   298.42816      118.78007      53225.314     -21652.153      3338.5098     -18313.643      1.0718106    
    985000   303.46558     -534.02607      54010.126     -21516.723      3394.8634     -18121.86       1.0562363    
    986000   299.92385      781.40419      53720.627     -21528.804      3355.2421     -18173.562      1.0619284    
    987000   300.52355      409.41293      54022.691     -21440.663      3361.9509     -18078.712      1.0559907    
    988000   300.52822      487.04013      53787.094     -21471.927      3362.0032     -18109.924      1.0606161    
    989000   299.03704     -113.58581      53835.859     -21470.576      3345.3215     -18125.255      1.0596554    
    990000   299.97888     -58.398648      53594.94      -21419.726      3355.8578     -18063.868      1.0644187    
    991000   292.43776      223.1487       53882.608     -21588.389      3271.4954     -18316.894      1.058736     
    992000   299.82981     -29.764563      53836.301     -21539.975      3354.1901     -18185.785      1.0596467    
    993000   299.69598      504.98782      54303.033     -21452.812      3352.6929     -18100.119      1.0505391    
    994000   296.19635     -1.3210415      53697.922     -21588.293      3313.5426     -18274.751      1.0623774    
    995000   299.49377     -623.86147      53975.627     -21568.628      3350.4309     -18218.197      1.0569114    
    996000   295.63931      525.48533      53680.308     -21553.98       3307.3111     -18246.669      1.062726     
    997000   298.26464     -651.46438      54347.427     -21577.282      3336.6806     -18240.602      1.0496809    
    998000   299.37563     -458.02278      54170.118     -21585.217      3349.1092     -18236.108      1.0531167    
    999000   299.74056     -646.46289      54659.854     -21542.355      3353.1917     -18189.163      1.0436811    
   1000000   300.91466      1176.1096      53909.689     -21670.678      3366.3263     -18304.351      1.0582042    
   1001000   301.8122      -455.53274      54171.777     -21489.919      3376.3671     -18113.552      1.0530845    
   1002000   302.15286     -174.7824       53681.885     -21490.042      3380.178      -18109.864      1.0626948    
   1003000   296.49266      457.29767      53623.605     -21596.344      3316.8575     -18279.487      1.0638497    
   1004000   296.47443     -430.41742      53772.407     -21530.039      3316.6536     -18213.385      1.0609058    
   1005000   299.16655      183.73055      53412.419     -21560.791      3346.7702     -18214.021      1.0680561    
   1006000   301.64763     -51.36295       53962.938     -21575.352      3374.5261     -18200.826      1.05716      
   1007000   301.18861      602.45356      54029.057     -21453.498      3369.391      -18084.107      1.0558662    
   1008000   295.19542      5.4178618      53602.307     -21671.546      3302.3453     -18369.2        1.0642724    
   1009000   297.65685     -151.58221      53586.588     -21528.874      3329.8813     -18198.993      1.0645846    
   1010000   298.9338      -15.474849      54766.408     -21545.328      3344.1665     -18201.162      1.0416505    
   1011000   303.27346      362.77279      54038.589     -21569.924      3392.7142     -18177.21       1.05568      
   1012000   295.76172      261.63851      54218.43      -21587.63       3308.6804     -18278.95       1.0521783    
   1013000   306.20141     -104.36266      53656.666     -21538.43       3425.4691     -18112.961      1.0631942    
   1014000   301.73019      396.53806      54254.612     -21561.881      3375.4496     -18186.432      1.0514766    
   1015000   300.56301     -64.191995      54081.615     -21469.8        3362.3924     -18107.408      1.0548401    
   1016000   304.51693      195.3537       53463.036     -21582.958      3406.6248     -18176.334      1.0670449    
   1017000   297.00889     -12.239969      53883.73      -21685.15       3322.6325     -18362.518      1.058714     
   1018000   299.43153      259.19547      53657.1       -21473.346      3349.7346     -18123.612      1.0631856    
   1019000   300.01039     -494.77007      53746.702     -21593.105      3356.2103     -18236.895      1.0614132    
   1020000   301.15646     -276.70735      54299.297     -21451.888      3369.0313     -18082.856      1.0506113    
   1021000   293.36783      178.347        53777.796     -21628.324      3281.9001     -18346.424      1.0607995    
   1022000   307.7542      -196.80228      53946.27      -21547.779      3442.8401     -18104.939      1.0574866    
   1023000   304.70149      353.44832      53279.148     -21581.969      3408.6895     -18173.279      1.0707277    
   1024000   297.09733      487.86818      53590.523     -21714.646      3323.6219     -18391.024      1.0645065    
   1025000   295.58729     -316.17105      53913.668     -21642.743      3306.7291     -18336.014      1.0581261    
   1026000   307.1489      -689.48024      53972.912     -21565.354      3436.0686     -18129.286      1.0569646    
   1027000   304.09979     -285.0582       53852.499     -21670.776      3401.9583     -18268.817      1.059328     
   1028000   300.59629      144.18348      53641.938     -21549.412      3362.7648     -18186.647      1.0634861    
   1029000   303.70375     -624.3498       53259.637     -21595.28       3397.5278     -18197.752      1.0711199    
   1030000   302.59242     -21.627197      53317.464     -21658.169      3385.0954     -18273.074      1.0699582    
   1031000   306.98014     -642.1573       54116.535     -21492.115      3434.1808     -18057.935      1.0541595    
   1032000   296.76028      372.09707      54091.944     -21527.273      3319.8513     -18207.421      1.0546387    
   1033000   303.63609     -303.45283      54060.542     -21586.422      3396.7709     -18189.651      1.0552513    
   1034000   301.76502     -593.83834      53791.601     -21589.243      3375.8393     -18213.404      1.0605272    
   1035000   307.47771      753.31998      53721.925     -21677.759      3439.747      -18238.012      1.0619027    
   1036000   298.50685     -68.229366      54314.441     -21468.784      3339.3901     -18129.394      1.0503184    
   1037000   302.84732      156.8695       53852.059     -21682.813      3387.947      -18294.866      1.0593366    
   1038000   300.11665     -184.47967      54199.938     -21619.761      3357.399      -18262.362      1.0525373    
   1039000   301.00192     -216.61024      54198.451     -21556.938      3367.3025     -18189.635      1.0525662    
   1040000   299.5165       697.22093      53458.121     -21528.285      3350.6852     -18177.6        1.067143     
   1041000   302.58457      385.55951      54140.35      -21393.768      3385.0076     -18008.761      1.0536958    
   1042000   301.91376      458.01907      54168.32      -21571.257      3377.5033     -18193.754      1.0531517    
   1043000   295.77157     -220.07619      53907.859     -21614.264      3308.7906     -18305.473      1.0582401    
   1044000   302.61512     -74.184734      54326.453     -21690.524      3385.3493     -18305.175      1.0500862    
   1045000   295.45892     -117.91411      54236.642     -21542.136      3305.2931     -18236.843      1.051825     
   1046000   294.87893      703.44969      53527.207     -21696.547      3298.8048     -18397.743      1.0657656    
   1047000   296.46783      120.9117       53633.43      -21669.749      3316.5797     -18353.169      1.0636548    
   1048000   297.75303      1088.4657      53527.721     -21612.307      3330.9573     -18281.35       1.0657554    
   1049000   307.97055      84.926724      54020.435     -21507.005      3445.2605     -18061.744      1.0560348    
   1050000   303.97605     -449.45062      54071.397     -21610.088      3400.574      -18209.514      1.0550395    
   1051000   299.55769     -513.08199      53698.918     -21477.609      3351.1459     -18126.463      1.0623577    
   1052000   308.08972     -789.37373      53530.165     -21507.275      3446.5936     -18060.682      1.0657067    
   1053000   302.90679      250.74962      53788.783     -21693.409      3388.6122     -18304.797      1.0605828    
   1054000   297.9765      -224.86459      54103.797     -21629.291      3333.4571     -18295.834      1.0544076    
   1055000   298.79131     -257.41241      53903.646     -21617.306      3342.5725     -18274.733      1.0583228    
   1056000   299.44663      297.17116      54255.881     -21523.676      3349.9035     -18173.773      1.0514521    
   1057000   296.24718      510.78361      54055.794     -21535.843      3314.1113     -18221.732      1.055344     
   1058000   299.70707     -665.7702       54548.787     -21574.093      3352.8171     -18221.276      1.0458062    
   1059000   301.46064      284.07239      54350.961     -21460.872      3372.4342     -18088.438      1.0496127    
   1060000   302.41114     -754.30858      54070.088     -21687.268      3383.0675     -18304.201      1.055065     
   1061000   299.12766     -726.50661      53525.332     -21509.653      3346.3352     -18163.318      1.065803     
   1062000   294.39574     -64.905309      53896.867     -21596.682      3293.3993     -18303.283      1.0584559    
   1063000   299.2983       6.5949975      53455.488     -21717.731      3348.2441     -18369.487      1.0671955    
   1064000   294.52927     -684.92982      53887.921     -21603.507      3294.8931     -18308.614      1.0586316    
   1065000   303.16325      377.931        53430.583     -21661.789      3391.4813     -18270.308      1.067693     
   1066000   303.89747      344.54134      53850.629     -21582.504      3399.6949     -18182.809      1.0593647    
   1067000   294.59321     -188.314        54368.311     -21478.415      3295.6084     -18182.806      1.0492777    
   1068000   289.17286      392.61997      53474.436     -21621.091      3234.9711     -18386.12       1.0668174    
   1069000   296.48398     -685.96441      54293.053     -21538.835      3316.7604     -18222.074      1.0507322    
   1070000   301.22825      301.77262      53612.566     -21615.469      3369.8345     -18245.635      1.0640688    
   1071000   301.10248     -452.43288      53683.497     -21630.257      3368.4275     -18261.829      1.0626628    
   1072000   300.3879       377.34316      53951.877     -21624.873      3360.4335     -18264.439      1.0573767    
   1073000   308.14464      94.479051      54067.746     -21713.104      3447.208      -18265.896      1.0551107    
   1074000   302.60959      556.43008      53790.325     -21519.519      3385.2875     -18134.232      1.0605524    
   1075000   294.04548     -107.1485       53995.402     -21496.519      3289.4809     -18207.038      1.0565244    
   1076000   303.26901     -191.60258      54412.228     -21588.419      3392.6644     -18195.754      1.0484308    
   1077000   296.00287     -13.432424      53700.418     -21534.369      3311.3782     -18222.991      1.062328     
   1078000   299.60854     -809.04767      54145.254     -21543.039      3351.7148     -18191.324      1.0536003    
   1079000   295.83051      386.95375      53990.768     -21522.448      3309.45       -18212.998      1.056615     
   1080000   296.22807     -443.48735      54320.568     -21606.026      3313.8975     -18292.128      1.0501999    
   1081000   303.24056     -381.46686      53611.096     -21606.376      3392.3461     -18214.03       1.064098     
   1082000   300.14484     -715.58761      53927.101     -21683.777      3357.7143     -18326.063      1.0578625    
   1083000   299.46899      230.30558      53538.066     -21626.1        3350.1536     -18275.947      1.0655495    
   1084000   305.43944     -509.39823      53702.373     -21649.019      3416.945      -18232.074      1.0622893    
   1085000   295.22824     -594.09558      54330.504     -21502.666      3302.7125     -18199.954      1.0500079    
   1086000   301.9764       318.5594       53601.218     -21530.376      3378.2039     -18152.172      1.0642941    
   1087000   298.37718     -559.30464      53969.94      -21443.64       3337.9396     -18105.701      1.0570228    
   1088000   297.32052      93.949845      53493.301     -21634.645      3326.1188     -18308.526      1.0664412    
   1089000   298.09639      172.27005      53731.508     -21584.191      3334.7984     -18249.392      1.0617133    
   1090000   296.1698       338.76697      53522.623     -21610.015      3313.2457     -18296.769      1.0658569    
   1091000   307.00835      108.96959      53555.74      -21500.931      3434.4963     -18066.434      1.0651978    
   1092000   303.92814      87.553466      53974.696     -21544.705      3400.038      -18144.667      1.0569297    
   1093000   305.42083     -458.15349      54180.057     -21591.262      3416.7367     -18174.525      1.0529235    
   1094000   296.76752     -477.83863      53982.079     -21623.184      3319.9323     -18303.252      1.0567851    
   1095000   294.54494     -266.19044      53380.254     -21697.922      3295.0684     -18402.853      1.0686996    
   1096000   299.62998     -161.33171      53969.718     -21611.368      3351.9546     -18259.413      1.0570272    
   1097000   301.55444     -765.42551      53979.774     -21476.29       3373.4835     -18102.806      1.0568302    
   1098000   298.74467     -803.11384      54092.305     -21603.712      3342.0507     -18261.661      1.0546317    
   1099000   298.52663      410.97631      53427.704     -21783.907      3339.6115     -18444.295      1.0677505    
   1100000   298.18935     -517.21141      54253.449     -21635.105      3335.8383     -18299.266      1.0514992    
   1101000   294.81752      574.51261      53988.15      -21558.875      3298.1177     -18260.758      1.0566663    
   1102000   300.86643      177.35157      53431.251     -21647.858      3365.7868     -18282.071      1.0676796    
   1103000   311.81729      225.46955      53711.623     -21677.056      3488.2938     -18188.762      1.0621064    
   1104000   297.20815     -496.72412      54254.838     -21657.155      3324.8617     -18332.293      1.0514723    
   1105000   298.64182     -115.38888      53879.949     -21541.247      3340.9001     -18200.347      1.0587883    
   1106000   298.76553     -151.95965      54007.68      -21544.81       3342.2841     -18202.526      1.0562842    
   1107000   304.56411     -250.80051      53570.982     -21605.032      3407.1527     -18197.88       1.0648948    
   1108000   292.51617     -13.691581      53940.752     -21555.512      3272.3726     -18283.139      1.0575948    
   1109000   298.79085      556.58944      53805.612     -21581.614      3342.5672     -18239.047      1.0602511    
   1110000   294.33467     -29.059167      53642.062     -21558.02       3292.7161     -18265.304      1.0634837    
   1111000   297.76933      176.2053       54378.014     -21556.966      3331.1395     -18225.826      1.0490905    
   1112000   299.85387     -701.54213      54354.591     -21537.037      3354.4593     -18182.577      1.0495426    
   1113000   307.71338     -190.5323       53511.332     -21587.36       3442.3835     -18144.977      1.0660818    
   1114000   308.1476      -7.5286549      54021.894     -21568.1        3447.241      -18120.859      1.0560063    
   1115000   302.07189     -101.0958       53937.706     -21619.615      3379.2722     -18240.342      1.0576545    
   1116000   301.1958       489.4424       53263.962     -21538.994      3369.4714     -18169.523      1.0710329    
   1117000   300.39225     -632.76452      54253.208     -21522.191      3360.4821     -18161.709      1.0515039    
   1118000   302.36232      161.11061      53833.129     -21494.096      3382.5213     -18111.575      1.0597091    
   1119000   303.4967      -271.69799      53613.256     -21506.972      3395.2115     -18111.76       1.0640551    
   1120000   299.89321     -503.00979      53747.667     -21583.398      3354.8993     -18228.499      1.0613941    
   1121000   303.77737      835.31024      53823.45      -21509.06       3398.3514     -18110.709      1.0598997    
   1122000   302.2572      -159.94444      53628.437     -21465.685      3381.3453     -18084.339      1.0637539    
   1123000   301.70023      335.89785      54032.393     -21510.461      3375.1145     -18135.346      1.055801     
   1124000   302.85027     -279.83348      53438.188     -21530.526      3387.98       -18142.546      1.067541     
   1125000   295.33648     -92.111815      53761.05      -21540.754      3303.9234     -18236.83       1.0611299    
   1126000   295.80362     -111.58037      54168.198     -21650.9        3309.1492     -18341.751      1.0531541    
   1127000   294.35279      36.523625      53888.001     -21597.57       3292.9188     -18304.652      1.05863      
   1128000   297.74284     -774.04505      54120.872     -21431.02       3330.8433     -18100.177      1.054075     
   1129000   304.36747      23.724543      54325.007     -21635.886      3404.9528     -18230.933      1.0501141    
   1130000   297.77447     -315.93476      53962.961     -21570.285      3331.1971     -18239.088      1.0571595    
   1131000   299.17628      17.701684      54376.025     -21516.536      3346.8791     -18169.657      1.0491289    
   1132000   289.00459     -193.95912      53667.143     -21510.24       3233.0886     -18277.152      1.0629867    
   1133000   297.95966      125.82582      53879.047     -21587.438      3333.2688     -18254.169      1.058806     
   1134000   303.19443      95.632506      53916.053     -21556.885      3391.83       -18165.055      1.0580793    
   1135000   299.58349      622.50623      53540.013     -21483.835      3351.4345     -18132.4        1.0655107    
   1136000   303.30877     -560.5189       54192.812     -21621.331      3393.1091     -18228.222      1.0526757    
   1137000   299.78289      226.17542      54038.482     -21662.357      3353.6652     -18308.692      1.0556821    
   1138000   301.55131     -25.065713      53623.755     -21490.251      3373.4485     -18116.802      1.0638467    
   1139000   295.07141      236.57961      53523.633     -21549.958      3300.9579     -18249          1.0658368    
   1140000   298.91835      51.236928      53847.882     -21596.594      3343.9937     -18252.6        1.0594188    
   1141000   304.73292      747.28593      53772.117     -21655.174      3409.0411     -18246.133      1.0609115    
   1142000   307.0688      -1265.5836      54044.604     -21644.102      3435.1725     -18208.93       1.0555625    
   1143000   301.04074      746.26903      53707.152     -21574.173      3367.7368     -18206.437      1.0621948    
   1144000   298.18454      245.69047      53720.683     -21503.611      3335.7845     -18167.827      1.0619273    
   1145000   300.84301     -318.03971      54172.916     -21598.694      3365.5248     -18233.169      1.0530623    
   1146000   300.3222      -478.27587      54232.257     -21549.136      3359.6985     -18189.438      1.0519101    
   1147000   296.83518     -711.12954      54276.455     -21559.516      3320.6892     -18238.827      1.0510535    
   1148000   304.06964      36.066062      54036.195     -21614.594      3401.621      -18212.973      1.0557268    
   1149000   292.32421      143.00754      54516.087     -21559.392      3270.2251     -18289.167      1.0464335    
   1150000   305.75722      598.12763      54221.902     -21638.863      3420.5        -18218.363      1.052111     
   1151000   300.15791     -495.1027       54117.759     -21525.064      3357.8606     -18167.204      1.0541356    
   1152000   299.58894     -81.674907      54217.398     -21567.774      3351.4955     -18216.278      1.0521984    
   1153000   299.86832     -205.62875      53639.152     -21586.24       3354.6209     -18231.619      1.0635414    
   1154000   296.74213     -322.32099      53732.997     -21548.698      3319.6483     -18229.05       1.0616839    
   1155000   298.21458      500.51551      53825.495     -21540.183      3336.1206     -18204.062      1.0598594    
   1156000   305.15999     -471.16353      53552.874     -21607.305      3413.8187     -18193.487      1.0652548    
   1157000   307.87328     -541.77128      53325.341     -21658.217      3444.1723     -18214.045      1.0698002    
   1158000   302.66659     -644.71668      54048.363     -21603.416      3385.9251     -18217.491      1.0554891    
   1159000   297.7068      -87.602535      54378.29      -21493.933      3330.4401     -18163.493      1.0490852    
   1160000   306.23773      188.73665      54491.878     -21536.81       3425.8754     -18110.934      1.0468984    
   1161000   299.28657      82.556497      54111.673     -21557.769      3348.1129     -18209.656      1.0542542    
   1162000   304.32707      136.69214      54240.471     -21467.955      3404.5009     -18063.454      1.0517508    
   1163000   302.97389      306.02993      53940.74      -21497.222      3389.3629     -18107.859      1.057595     
   1164000   305.45325      792.86511      53595.042     -21582.455      3417.0995     -18165.355      1.0644167    
   1165000   303.37948      194.73453      53937.528     -21622.442      3393.9002     -18228.542      1.057658     
   1166000   299.10727     -1176.6801      53508.739     -21499.015      3346.107      -18152.908      1.0661335    
   1167000   307.69127      379.73893      53841.83      -21554.426      3442.1361     -18112.29       1.0595379    
   1168000   294.69336      505.08996      53440.954     -21561.406      3296.7287     -18264.678      1.0674858    
   1169000   296.09166      642.23519      53963.621     -21471.874      3312.3715     -18159.503      1.0571466    
   1170000   300.72217      465.79138      53830.51      -21507.677      3364.1729     -18143.504      1.0597607    
   1171000   296.14303     -1193.2884      54448.789     -21505.027      3312.9462     -18192.081      1.0477268    
   1172000   302.86536     -12.795863      53715.252     -21545.031      3388.1488     -18156.882      1.0620346    
   1173000   301.11282      228.02023      53941.04      -21589.127      3368.5432     -18220.584      1.0575891    
   1174000   297.95178     -25.107098      53051.274     -21635.504      3333.1807     -18302.324      1.0753268    
   1175000   296.07844      191.21225      53186.799     -21559.032      3312.2236     -18246.808      1.0725868    
   1176000   309.94847      421.24827      53747.292     -21639.526      3467.3874     -18172.138      1.0614015    
   1177000   309.92389     -838.34025      53730.722     -21631.972      3467.1123     -18164.86       1.0617288    
   1178000   302.37185      638.30659      53934.735     -21574.814      3382.6279     -18192.186      1.0577128    
   1179000   296.88184     -201.58097      53882.099     -21618.397      3321.2112     -18297.186      1.058746     
   1180000   296.38786      14.985966      54375.321     -21422.979      3315.6851     -18107.294      1.0491425    
   1181000   305.62352     -255.25568      54076.994     -21593.808      3419.0043     -18174.804      1.0549303    
   1182000   300.80214     -326.11213      53972.708     -21585.723      3365.0676     -18220.655      1.0569686    
   1183000   298.45625     -189.72563      53523.613     -21528.179      3338.8242     -18189.354      1.0658372    
   1184000   293.82001      657.25095      54264.173     -21551.205      3286.9586     -18264.246      1.0512914    
   1185000   297.83786      439.57357      54231.944     -21637.703      3331.9062     -18305.797      1.0519161    
   1186000   297.04798     -915.92151      54816.609     -21517.263      3323.0699     -18194.193      1.0406966    
   1187000   303.85089     -203.16691      54465.491     -21674.085      3399.1739     -18274.911      1.0474056    
   1188000   297.02402      301.87652      53813.594     -21607.835      3322.8018     -18285.033      1.0600938    
   1189000   299.39767      791.38259      54221.423     -21559.264      3349.3558     -18209.908      1.0521203    
   1190000   297.66508     -68.517825      53802.009     -21699.942      3329.9733     -18369.969      1.0603221    
   1191000   293.30031     -648.20973      54213.409     -21405.392      3281.1447     -18124.247      1.0522758    
   1192000   305.35814      598.51123      53885.125     -21475.339      3416.0354     -18059.303      1.0586866    
   1193000   304.94133      433.53009      54314.919     -21510.654      3411.3726     -18099.282      1.0503092    
   1194000   301.56128      464.14829      53613.194     -21491.919      3373.5601     -18118.358      1.0640563    
   1195000   297.84774     -306.64772      54067.356     -21523.556      3332.0168     -18191.539      1.0551183    
   1196000   300.43119      973.78391      53863.404     -21759.222      3360.9177     -18398.304      1.0591135    
   1197000   306.95098      457.54644      54196.546     -21580.088      3433.8545     -18146.233      1.0526032    
   1198000   297.3516      -289.08856      54234.169     -21587.566      3326.4664     -18261.099      1.051873     
   1199000   296.18381      244.43544      54400.317     -21522.538      3313.4024     -18209.136      1.0486604    
   1200000   301.99894      462.4705       54439.993     -21527.887      3378.4562     -18149.431      1.0478961    
   1201000   297.90702     -214.61981      54106.213     -21528.646      3332.68       -18195.966      1.0543606    
   1202000   299.70537      106.82626      53852.765     -21561.04       3352.798      -18208.242      1.0593227    
   1203000   294.92481     -426.39985      54172.614     -21484.352      3299.318      -18185.034      1.0530682    
   1204000   296.68754      306.72472      53316.195     -21592.94       3319.0377     -18273.902      1.0699837    
   1205000   297.44434     -495.15673      53868.536     -21581.718      3327.504      -18254.214      1.0590126    
   1206000   310.63416      396.18246      53717.591     -21464.43       3475.0582     -17989.372      1.0619884    
   1207000   301.93339      313.80269      53887.544     -21514.491      3377.7228     -18136.768      1.058639     
   1208000   306.47299      729.45322      53609.614     -21590.947      3428.5072     -18162.44       1.0641274    
   1209000   297.98838     -93.537831      54007.67      -21460.822      3333.5901     -18127.232      1.0562844    
   1210000   296.43652     -1098.6271      54364.144     -21580.437      3316.2294     -18264.208      1.0493581    
   1211000   299.8811      -107.40759      53772.701     -21482.103      3354.7639     -18127.339      1.0609       
   1212000   307.03816      377.14728      53556.016     -21665.835      3434.8297     -18231.005      1.0651923    
   1213000   300.96828     -478.28426      54026.61      -21586.104      3366.9262     -18219.178      1.0559141    
   1214000   296.15453     -57.910099      54081.345     -21652.118      3313.0748     -18339.043      1.0548454    
   1215000   292.45437      12.543453      53637.851     -21487.947      3271.6813     -18216.266      1.0635672    
   1216000   297.23009      162.74754      53539.751     -21727.505      3325.1071     -18402.398      1.0655159    
   1217000   301.96807     -407.12738      54508.062     -21576.932      3378.1108     -18198.822      1.0465875    
   1218000   298.83649      361.37832      53954.208     -21682.103      3343.0779     -18339.025      1.057331     
   1219000   295.99234     -113.2904       53909.646     -21693.641      3311.2604     -18382.381      1.058205     
   1220000   294.5749      -360.18843      53952.393     -21564.985      3295.4035     -18269.581      1.0573666    
   1221000   300.31978     -369.98975      54401.158     -21457.087      3359.6715     -18097.415      1.0486442    
   1222000   296.14306     -769.64351      54281.105     -21534.179      3312.9465     -18221.232      1.0509635    
   1223000   302.75297      492.20945      54082.269     -21512.744      3386.8915     -18125.853      1.0548274    
   1224000   306.04972      26.741988      54228.719     -21428.923      3423.7722     -18005.151      1.0519787    
   1225000   303.97283     -688.52885      54223.535     -21545.027      3400.538      -18144.489      1.0520793    
   1226000   299.37297      371.65507      53436.867     -21583.855      3349.0795     -18234.775      1.0675674    
   1227000   294.8677      -47.578486      54057.471     -21566.664      3298.6791     -18267.985      1.0553112    
   1228000   304.60925      328.41516      54057.209     -21472.27       3407.6576     -18064.613      1.0553164    
   1229000   298.30542      89.338016      53835.633     -21568.181      3337.1368     -18231.044      1.0596598    
   1230000   299.91833     -240.40291      53799.818     -21532.347      3355.1804     -18177.166      1.0603652    
   1231000   302.05564     -756.25437      53732.473     -21651.218      3379.0904     -18272.128      1.0616942    
   1232000   301.09318     -408.30493      53854.445     -21527.763      3368.3234     -18159.439      1.0592897    
   1233000   295.91592      281.17925      53717.417     -21698.198      3310.4056     -18387.793      1.0619918    
   1234000   292.73847      574.97492      53576.775     -21575.07       3274.8594     -18300.21       1.0647796    
   1235000   300.86174      211.35485      53891.13      -21611.41       3365.7343     -18245.676      1.0585686    
   1236000   298.7572       322.00798      54146.559     -21561.282      3342.1908     -18219.091      1.0535749    
   1237000   304.93987      439.76949      53529.81      -21634.676      3411.3562     -18223.32       1.0657138    
   1238000   295.78298     -275.14034      53702.34      -21602.491      3308.9183     -18293.573      1.06229      
   1239000   302.68316     -293.53837      53908.721     -21576.454      3386.1105     -18190.344      1.0582232    
   1240000   300.7528       479.15804      54117.338     -21468.928      3364.5156     -18104.412      1.0541438    
   1241000   298.66118      195.74134      53967.845     -21610.196      3341.1167     -18269.079      1.0570638    
   1242000   297.76436      472.01659      54035.995     -21560.686      3331.0839     -18229.602      1.0557307    
   1243000   303.26909      677.5334       53856.561     -21701.928      3392.6652     -18309.263      1.0592481    
   1244000   291.41213      388.40186      53998.288     -21548.953      3260.0217     -18288.932      1.0564679    
   1245000   309.55379     -68.500548      54126.343     -21579.489      3462.9721     -18116.516      1.0539684    
   1246000   297.65819     -843.76384      54529.484     -21534.896      3329.8962     -18204.999      1.0461764    
   1247000   296.67963      182.88175      53669.938     -21718.712      3318.9491     -18399.763      1.0629313    
   1248000   302.38546     -11.459042      54128.953     -21576.606      3382.7801     -18193.826      1.0539176    
   1249000   306.61566      111.15701      54269.066     -21586.153      3430.1033     -18156.05       1.0511966    
   1250000   297.50086      345.76284      54304.858     -21590.145      3328.1362     -18262.009      1.0505038    
   1251000   300.86689      508.67631      54043.538     -21540.398      3365.7919     -18174.606      1.0555833    
   1252000   297.14212     -641.78665      53693.669     -21607.751      3324.123      -18283.628      1.0624615    
   1253000   302.86912     -1003.1784      54012.821     -21548.957      3388.1909     -18160.766      1.0561836    
   1254000   301.60278      513.64615      53750.423     -21630.272      3374.0243     -18256.248      1.0613397    
   1255000   301.04432     -53.186786      53879.485     -21607.273      3367.7768     -18239.497      1.0587974    
   1256000   298.35527      453.95669      53993.322     -21514.164      3337.6945     -18176.47       1.0565651    
   1257000   306.75637     -588.37527      53720.214     -21616.428      3431.6775     -18184.751      1.0619365    
   1258000   295.95279     -706.79778      53912.342     -21634.242      3310.818      -18323.424      1.0581521    
   1259000   301.27604     -269.75894      53490.2       -21554.952      3370.3691     -18184.583      1.066503     
   1260000   296.54372      292.04363      54088.7       -21527.016      3317.4287     -18209.588      1.054702     
   1261000   299.88184      836.62071      53689.76      -21512.766      3354.7722     -18157.994      1.0625389    
   1262000   303.7374      -176.66468      55061.559     -21513.948      3397.9042     -18116.044      1.0360669    
   1263000   302.07148     -138.55845      53882.839     -21439.538      3379.2677     -18060.27       1.0587315    
   1264000   305.70634     -150.24837      54100.097     -21676.369      3419.9307     -18256.438      1.0544798    
   1265000   310.75612      583.89396      53928.897     -21585.326      3476.4226     -18108.903      1.0578273    
   1266000   298.30306      681.6857       53530.492     -21410.197      3337.1104     -18073.087      1.0657002    
   1267000   300.81584      829.2226       53965.421     -21586.789      3365.2208     -18221.569      1.0571113    
   1268000   301.22249     -894.62678      54228.763     -21638.69       3369.77       -18268.92       1.0519779    
   1269000   296.70646      483.50748      53646.793     -21714.852      3319.2492     -18395.603      1.0633899    
   1270000   298.27583     -249.2179       53807.125     -21524.798      3336.8058     -18187.992      1.0602212    
   1271000   301.07826     -28.956548      54401.674     -21657.944      3368.1565     -18289.788      1.0486342    
   1272000   301.94452     -25.948258      53782.137     -21696.683      3377.8473     -18318.836      1.0607139    
   1273000   301.53109     -602.31784      54062.132     -21699.618      3373.2223     -18326.396      1.0552203    
   1274000   307.722       -93.884222      53622.244     -21567.65       3442.4798     -18125.17       1.0638767    
   1275000   297.56343     -341.21885      53807.137     -21670.481      3328.8361     -18341.645      1.060221     
   1276000   303.94387     -518.86307      53816.482     -21621.275      3400.214      -18221.061      1.0600369    
   1277000   299.34231     -308.31657      53753.292     -21508.807      3348.7365     -18160.071      1.061283     
   1278000   301.62158     -170.50061      54038.077     -21675.563      3374.2346     -18301.329      1.05569      
   1279000   310.00566     -697.88961      54296.129     -21509.545      3468.0272     -18041.518      1.0506727    
   1280000   301.06919      49.899544      53547.219     -21624.651      3368.0551     -18256.596      1.0653673    
   1281000   307.74731     -499.78113      54583.4       -21565.913      3442.7631     -18123.15       1.045143     
   1282000   295.84947     -712.16566      53707.922     -21640.375      3309.6621     -18330.712      1.0621796    
   1283000   296.70761      291.5187       54136.994     -21617.272      3319.2622     -18298.009      1.0537611    
   1284000   294.10096      831.38271      53697.535     -21542.941      3290.1016     -18252.839      1.062385     
   1285000   298.71619      200.71836      53361.36      -21570.157      3341.7321     -18228.425      1.069078     
   1286000   303.36367      948.28416      53863.258     -21608.308      3393.7234     -18214.585      1.0591164    
   1287000   303.68484      100.08776      54004.042     -21626.48       3397.3163     -18229.164      1.0563553    
   1288000   303.62815      421.57986      53661.542     -21756.83       3396.6821     -18360.148      1.0630976    
   1289000   301.21415     -484.10713      53494.173     -21554.568      3369.6767     -18184.891      1.0664238    
   1290000   305.66976      1016.8085      53345.943     -21625.78       3419.5215     -18206.259      1.069387     
   1291000   305.46345     -124.88866      53887.254     -21697.266      3417.2136     -18280.052      1.0586447    
   1292000   293.59695     -172.79267      54094.618     -21695.949      3284.4632     -18411.486      1.0545866    
   1293000   294.55228      523.71322      53877.668     -21618.93       3295.1505     -18323.779      1.0588331    
   1294000   302.42324     -891.96657      54529.404     -21351.474      3383.2027     -17968.272      1.0461779    
   1295000   301.31882      111.06493      54288.104     -21476.115      3370.8477     -18105.267      1.050828     
   1296000   302.63273     -132.1104       53773.969     -21595.928      3385.5464     -18210.381      1.060875     
   1297000   300.49906     -507.80642      54378.39      -21606.526      3361.677      -18244.849      1.0490832    
   1298000   303.14517     -246.11614      54794.786     -21651.453      3391.279      -18260.174      1.041111     
   1299000   302.23632      650.18322      53820.268     -21623.001      3381.1117     -18241.889      1.0599623    
   1300000   297.86261      63.655321      53684.349     -21565.659      3332.1831     -18233.476      1.062646     
   1301000   305.44963     -6.2977132      54418.64      -21620.352      3417.0589     -18203.293      1.0483073    
   1302000   302.90741      395.15242      53862.375     -21635.95       3388.6192     -18247.331      1.0591337    
   1303000   303.01575      97.523827      53880.006     -21656.472      3389.8312     -18266.641      1.0587871    
   1304000   300.0105      -977.21934      54098.705     -21555.144      3356.2115     -18198.932      1.0545069    
   1305000   302.93735      431.95296      53556.972     -21580.228      3388.9542     -18191.274      1.0651733    
   1306000   289.94237      54.966759      53404.885     -21593.139      3243.5795     -18349.559      1.0682067    
   1307000   307.11005      704.3045       53651.344     -21545.846      3435.634      -18110.212      1.0632997    
   1308000   300.23535     -268.70873      54055.407     -21732.66       3358.7269     -18373.933      1.0553515    
   1309000   307.70686     -257.17602      54442.053     -21534.42       3442.3105     -18092.109      1.0478565    
   1310000   301.85778     -145.30406      54056.423     -21623.775      3376.8769     -18246.899      1.0553317    
   1311000   303.0382      -489.75623      53787.805     -21559.007      3390.0824     -18168.925      1.0606021    
   1312000   311.02047      31.310138      54221.894     -21535.715      3479.3798     -18056.335      1.0521111    
   1313000   299.22633      556.49968      53850.485     -21694.374      3347.439      -18346.935      1.0593676    
   1314000   294.53946      865.14398      54034.997     -21633.116      3295.0071     -18338.109      1.0557502    
   1315000   294.64408      131.32739      53854.301     -21586.349      3296.1775     -18290.171      1.0592925    
   1316000   309.53905      367.43961      54011.25      -21618.942      3462.8072     -18156.135      1.0562144    
   1317000   297.36039     -85.008969      54025.907     -21687.657      3326.5647     -18361.092      1.0559278    
   1318000   300.47077      108.38018      54217.886     -21615.36       3361.3606     -18253.999      1.0521889    
   1319000   305.26551     -20.302442      53904.045     -21632.726      3414.9992     -18217.726      1.058315     
   1320000   300.78038      392.09549      53640.772     -21639.874      3364.8242     -18275.05       1.0635093    
   1321000   299.99225     -674.67804      53759.337     -21497.63       3356.0074     -18141.623      1.0611637    
   1322000   304.36366     -475.1887       54130.728     -21529.071      3404.9102     -18124.161      1.0538831    
   1323000   294.40999     -48.830898      53861.989     -21616.701      3293.5587     -18323.143      1.0591413    
   1324000   296.18399     -36.990118      53587.296     -21664.875      3313.4044     -18351.47       1.0645706    
   1325000   300.53253     -229.15269      54200.523     -21455.587      3362.0515     -18093.535      1.052526     
   1326000   302.86627     -697.81818      52999.364     -21562.428      3388.159      -18174.27       1.07638      
   1327000   298.42086      326.26414      53300.438     -21646.864      3338.4282     -18308.436      1.0703       
   1328000   292.48821     -45.848771      53592.208     -21628.773      3272.0598     -18356.713      1.064473     
   1329000   295.33684     -1516.1028      54028.885     -21480.828      3303.9273     -18176.901      1.0558696    
   1330000   299.83282      610.72571      53570.142     -21599.902      3354.2238     -18245.679      1.0649115    
   1331000   297.8487       757.60241      53922.941     -21640.069      3332.0275     -18308.041      1.0579441    
   1332000   296.98758      58.873968      53796.53      -21541.287      3322.3941     -18218.892      1.0604301    
   1333000   297.68438     -43.174167      54082.895     -21512.935      3330.1892     -18182.745      1.0548152    
   1334000   299.74779      662.52392      53314.434     -21650.147      3353.2726     -18296.875      1.070019     
   1335000   302.89421     -182.10029      53845.964     -21670.244      3388.4715     -18281.773      1.0594565    
   1336000   296.80118     -94.538971      53649.535     -21611.285      3320.3089     -18290.976      1.0633356    
   1337000   300.98059      515.39796      53599.076     -21557.866      3367.0639     -18190.802      1.0643366    
   1338000   303.75067     -408.10325      53840.519     -21664.393      3398.0527     -18266.34       1.0595637    
   1339000   296.14555      113.28827      53514.406     -21659.259      3312.9744     -18346.285      1.0660206    
   1340000   297.28673      300.13127      53937.268     -21605.112      3325.7408     -18279.371      1.0576631    
   1341000   301.49117      463.58168      53398.907     -21642.108      3372.7757     -18269.333      1.0683263    
   1342000   308.1967       147.13974      53481.447     -21596.459      3447.7903     -18148.669      1.0666775    
   1343000   301.42971      74.965087      53895.175     -21543.022      3372.0881     -18170.934      1.0584891    
   1344000   294.98764     -471.78234      53893.671     -21563.18       3300.0209     -18263.159      1.0585187    
   1345000   296.09381     -468.22983      54108.83      -21542.105      3312.3955     -18229.71       1.0543096    
   1346000   299.9717      -919.90493      54124.947     -21725.902      3355.7775     -18370.124      1.0539956    
   1347000   299.47366      324.01353      53950.577     -21571.463      3350.2059     -18221.257      1.0574022    
   1348000   299.59017      551.61856      53382.457     -21598.595      3351.5093     -18247.085      1.0686555    
   1349000   298.77504      83.695294      53620.143     -21634.525      3342.3904     -18292.134      1.0639184    
   1350000   302.38798      642.81324      53723.473     -21595.383      3382.8083     -18212.574      1.0618721    
   1351000   300.5031       105.93486      54024.816     -21533.57       3361.7222     -18171.848      1.0559491    
   1352000   300.16958      384.16572      53476.798     -21563.814      3357.9911     -18205.823      1.0667703    
   1353000   303.01399      151.26257      53856.634     -21587.333      3389.8115     -18197.521      1.0592466    
   1354000   301.26612     -11.228307      53787.648     -21455.065      3370.2581     -18084.807      1.0606052    
   1355000   301.08424      49.335335      54039.813     -21578.926      3368.2234     -18210.703      1.0556561    
   1356000   306.97924      19.289077      54195.56      -21534.033      3434.1706     -18099.862      1.0526223    
   1357000   302.63234      79.25067       53726.616     -21563.476      3385.5419     -18177.934      1.06181      
   1358000   301.27202     -383.36553      53811.258     -21796.566      3370.3241     -18426.242      1.0601398    
   1359000   300.5518       342.73928      53847.981     -21657.635      3362.267      -18295.368      1.0594168    
   1360000   301.64666      574.65706      54225.433     -21625.066      3374.5152     -18250.551      1.0520424    
   1361000   298.28042      364.24736      53802.573     -21468.347      3336.8571     -18131.49       1.060311     
   1362000   298.91704     -278.33212      53741.087     -21649.738      3343.979      -18305.759      1.0615241    
   1363000   292.3058       814.40787      53838.274     -21619.671      3270.0192     -18349.652      1.0596078    
   1364000   299.05979      398.96217      53218.884     -21577.094      3345.5759     -18231.518      1.0719401    
   1365000   301.4647       56.087726      53812.822     -21549.198      3372.4797     -18176.718      1.060109     
   1366000   303.00339     -170.332        53698.504     -21552.662      3389.6929     -18162.969      1.0623659    
   1367000   304.73161      75.499662      53304.608     -21619.972      3409.0265     -18210.946      1.0702162    
   1368000   295.32543     -312.67622      53643.886     -21590.923      3303.7997     -18287.123      1.0634475    
   1369000   303.83041     -335.94885      53338.087     -21599.399      3398.9447     -18200.455      1.0695445    
   1370000   296.59759      133.94746      53921.457     -21547.943      3318.0314     -18229.912      1.0579732    
   1371000   302.40929      479.09147      54149.95      -21555.727      3383.0467     -18172.68       1.053509     
   1372000   296.38356     -369.08941      54299.893     -21486.61       3315.637      -18170.973      1.0505998    
   1373000   304.49913      478.75171      53734.517     -21550.171      3406.4258     -18143.745      1.0616539    
   1374000   300.26543     -291.6322       54137.075     -21555.851      3359.0634     -18196.788      1.0537595    
   1375000   299.34429      896.92872      53344.645     -21523.715      3348.7586     -18174.957      1.069413     
   1376000   297.00975     -439.89309      53339.702     -21566.37       3322.6422     -18243.727      1.0695121    
   1377000   295.49919      939.24453      53798.043     -21634.488      3305.7435     -18328.745      1.0604002    
   1378000   304.94277     -318.63342      54615.329     -21569.53       3411.3887     -18158.141      1.044532     
   1379000   301.19963      261.36786      53876.141     -21582.372      3369.5143     -18212.857      1.0588631    
   1380000   303.1014      -187.37784      53986.179     -21623.451      3390.7894     -18232.662      1.0567049    
   1381000   296.06879     -412.01672      54278.672     -21476.735      3312.1157     -18164.619      1.0510106    
   1382000   295.1065      -25.115897      53617.191     -21633.697      3301.3505     -18332.347      1.063977     
   1383000   297.83357     -145.45018      54040.221     -21517.79       3331.8582     -18185.931      1.0556481    
   1384000   298.88558      691.12454      53965.2       -21632.791      3343.6271     -18289.164      1.0571157    
   1385000   300.86139      944.10322      53961.686     -21542.199      3365.7304     -18176.469      1.0571845    
   1386000   301.23591     -353.90326      53961.946     -21692.418      3369.9201     -18322.498      1.0571794    
   1387000   300.71166      800.62586      54083.083     -21664.913      3364.0553     -18300.858      1.0548115    
   1388000   302.12605     -207.30452      53630.512     -21620.074      3379.8781     -18240.196      1.0637127    
   1389000   304.99763      13.670009      54076.153     -21612.68       3412.0025     -18200.678      1.0549467    
   1390000   298.48822      960.19586      53923.266     -21501.001      3339.1818     -18161.819      1.0579377    
   1391000   291.03502     -368.45668      53987.398     -21462.199      3255.803      -18206.396      1.056681     
   1392000   303.83458     -65.318588      54278.697     -21474.601      3398.9914     -18075.61       1.0510101    
   1393000   296.93328      692.12242      54282.113     -21476.944      3321.7867     -18155.157      1.0509439    
   1394000   298.79263     -557.60083      54420.134     -21632.045      3342.5872     -18289.458      1.0482785    
   1395000   304.98626      301.28174      53758.939     -21566.688      3411.8752     -18154.813      1.0611716    
   1396000   299.27028      271.08686      53495.105     -21633.079      3347.9307     -18285.148      1.0664052    
   1397000   302.37631      58.271522      53487.89      -21735.71       3382.6778     -18353.032      1.066549     
   1398000   299.47692      402.02232      53534.487     -21645.445      3350.2423     -18295.202      1.0656207    
   1399000   298.86236     -160.30035      54118.924     -21584.121      3343.3673     -18240.754      1.0541129    
   1400000   300.6536       623.23457      54441.266     -21625.747      3363.4058     -18262.341      1.0478716    
   1401000   301.29938      107.2969       54267.088     -21596.375      3370.6302     -18225.744      1.0512349    
   1402000   302.5625      -80.510946      53398.469     -21692.141      3384.7607     -18307.38       1.0683351    
   1403000   293.74007     -374.71136      54227.257     -21459.522      3286.0643     -18173.458      1.0520071    
   1404000   299.28153      1153.5424      52923.342     -21648.283      3348.0565     -18300.226      1.0779262    
   1405000   304.43168      87.145413      53151.679     -21564.646      3405.6712     -18158.975      1.0732955    
   1406000   294.26391     -98.927652      53869.081     -21607.002      3291.9246     -18315.077      1.0590019    
   1407000   293.98894     -48.793735      53618.573     -21624.729      3288.8485     -18335.88       1.0639496    
   1408000   296.27074      569.67055      53944.309     -21481.317      3314.3749     -18166.942      1.057525     
   1409000   301.51256     -319.68254      54076.232     -21589.214      3373.015      -18216.199      1.0549451    
   1410000   307.44774     -129.12511      53670.964     -21640.873      3439.4118     -18201.461      1.062911     
   1411000   303.01925      143.54495      53617.813     -21567.816      3389.8703     -18177.946      1.0639646    
   1412000   297.43626     -579.0524       53947.411     -21549.547      3327.4135     -18222.134      1.0574642    
   1413000   296.94355     -67.81334       53756.778     -21573.339      3321.9016     -18251.437      1.0612142    
   1414000   295.87933     -921.23917      53904.838     -21525.672      3309.9961     -18215.675      1.0582994    
   1415000   301.7017      -383.51465      53952.214     -21481.102      3375.1309     -18105.971      1.0573701    
   1416000   297.59053      169.60318      53330.774     -21718.867      3329.1393     -18389.727      1.0696912    
   1417000   296.33316     -588.14583      53771.079     -21603.919      3315.0732     -18288.846      1.060932     
   1418000   307.29917     -709.50137      53586.77      -21572.736      3437.7497     -18134.986      1.064581     
   1419000   310.80877      355.89414      54126.487     -21702.243      3477.0115     -18225.232      1.0539656    
   1420000   306.00805      190.02238      54056.12      -21657.081      3423.306      -18233.775      1.0553376    
   1421000   304.02407     -51.14634       53817.661     -21658.154      3401.1112     -18257.043      1.0600137    
   1422000   306.74176     -383.02838      54102.879     -21634.899      3431.5139     -18203.385      1.0544255    
   1423000   301.17271      141.89679      54162.49      -21628.039      3369.2131     -18258.826      1.053265     
   1424000   302.35121      261.71755      53880.029     -21594.914      3382.397      -18212.517      1.0587867    
   1425000   303.90247     -361.23648      54163.241     -21631.585      3399.7509     -18231.834      1.0532504    
   1426000   299.51178     -264.19594      54083.659     -21668.259      3350.6323     -18317.627      1.0548003    
   1427000   301.53017     -573.9774       54085.17      -21672.171      3373.212      -18298.959      1.0547708    
   1428000   299.11368     -427.99776      54440.965     -21513.738      3346.1788     -18167.559      1.0478774    
   1429000   299.08747     -274.93251      53786.119     -21632.129      3345.8855     -18286.244      1.0606353    
   1430000   300.99379      120.99933      53516.302     -21514.148      3367.2116     -18146.937      1.0659828    
   1431000   301.6423       533.42323      53657.961     -21460.184      3374.4665     -18085.717      1.0631686    
   1432000   303.05566      462.4949       53873.132     -21544.111      3390.2776     -18153.834      1.0589222    
   1433000   293.70073     -96.705802      53384.727     -21586.658      3285.6242     -18301.034      1.0686101    
   1434000   292.88094      485.09587      53743.218     -21519.525      3276.4532     -18243.072      1.061482     
   1435000   296.39799     -75.5615        54079.134     -21580.541      3315.7984     -18264.743      1.0548885    
   1436000   307.11048      614.31288      53867.585     -21635.57       3435.6389     -18199.932      1.0590313    
   1437000   303.2262      -583.49389      53989.819     -21542.432      3392.1854     -18150.246      1.0566336    
   1438000   299.46839     -207.46779      54198.186     -21568.387      3350.147      -18218.24       1.0525714    
   1439000   290.67524      653.85756      53704.435     -21730.686      3251.7781     -18478.907      1.0622485    
   1440000   298.36264      390.90893      53743.729     -21686.927      3337.7769     -18349.15       1.0614719    
   1441000   303.71718      155.79283      54413.421     -21545.043      3397.678      -18147.365      1.0484078    
   1442000   299.53924      252.69738      54199.468     -21649.954      3350.9395     -18299.014      1.0525465    
   1443000   301.41025     -277.87024      53832.085     -21766.537      3371.8705     -18394.666      1.0597297    
   1444000   304.78628     -2.1950519      53270.042     -21578.712      3409.638      -18169.074      1.0709107    
   1445000   301.09538     -84.307644      53603.063     -21603.374      3368.348      -18235.026      1.0642574    
   1446000   299.0922       5.9503984      53678.034     -21562.054      3345.9385     -18216.115      1.062771     
   1447000   309.06303      111.41606      54235.561     -21494.212      3457.4819     -18036.73       1.051846     
   1448000   297.15894      156.02083      54200.63      -21620.442      3324.3111     -18296.131      1.0525239    
   1449000   303.21476      83.324842      53567.891     -21618.388      3392.0574     -18226.33       1.0649562    
   1450000   297.0402       819.26162      53591.375     -21578.439      3322.9828     -18255.456      1.0644895    
   1451000   297.1767       158.50893      53974.341     -21614.471      3324.5099     -18289.961      1.0569366    
   1452000   300.60307      167.803        53839.478     -21601.382      3362.8406     -18238.542      1.0595841    
   1453000   303.00601      307.16893      54061.085     -21707.505      3389.7222     -18317.783      1.0552407    
   1454000   296.69189     -28.678797      53675.85      -21477.366      3319.0863     -18158.28       1.0628142    
   1455000   304.98964      168.79907      53752.143     -21515.433      3411.913      -18103.52       1.0613057    
   1456000   295.79114      683.73377      53432.301     -21574.284      3309.0096     -18265.274      1.0676586    
   1457000   299.65373     -264.64154      53988.436     -21652.797      3352.2203     -18300.576      1.0566607    
   1458000   303.60447      465.1138       54040.056     -21498.926      3396.4171     -18102.509      1.0556513    
   1459000   304.02333      49.458501      54025.207     -21616.611      3401.103      -18215.508      1.0559415    
   1460000   301.16895      89.34763       53762.091     -21605.941      3369.171      -18236.77       1.0611094    
   1461000   305.27581     -440.3107       53965.371     -21560.301      3415.1144     -18145.186      1.0571123    
   1462000   302.07743      484.29535      53749.087     -21584.364      3379.3342     -18205.03       1.0613661    
   1463000   299.80758      347.52349      53555.333     -21492.154      3353.9415     -18138.213      1.0652059    
   1464000   300.08192     -64.856826      53610.062     -21633.657      3357.0105     -18276.647      1.0641185    
   1465000   299.7249       248.98937      53896.25      -21793.875      3353.0166     -18440.858      1.058468     
   1466000   304.19205      1201.6571      53222.644     -21774.086      3402.9904     -18371.096      1.0718644    
   1467000   300.91072     -346.98689      53855.574     -21762.576      3366.2822     -18396.293      1.0592675    
   1468000   297.13505      1045.4937      53983.486     -21560.673      3324.0439     -18236.629      1.0567576    
   1469000   300.23657     -658.19461      54159.566     -21570.196      3358.7406     -18211.456      1.0533219    
   1470000   296.91711     -134.52479      53879.46      -21491.751      3321.6058     -18170.145      1.0587979    
   1471000   295.23776     -329.30532      52964.218     -21711.981      3302.819      -18409.162      1.0770943    
   1472000   297.37415     -973.75733      53976.229     -21504.56       3326.7187     -18177.842      1.0568997    
   1473000   301.8781       1218.0772      53567.32      -21747.324      3377.1043     -18370.22       1.0649676    
   1474000   301.33661     -330.12131      54619.04      -21481.389      3371.0466     -18110.342      1.044461     
   1475000   300.07568      80.261552      53383.706     -21616.996      3356.9406     -18260.055      1.0686305    
   1476000   298.03123      662.98631      53462.922     -21499.494      3334.0695     -18165.424      1.0670471    
   1477000   306.80874     -41.908413      53250.012     -21632.613      3432.2633     -18200.349      1.0713135    
   1478000   301.03265      233.55004      53931.135     -21536.252      3367.6463     -18168.605      1.0577834    
   1479000   297.89436      218.49731      54160.502     -21570.824      3332.5383     -18238.286      1.0533037    
   1480000   290.3364      -10.887825      53963.383     -21708.11       3247.9875     -18460.122      1.0571512    
   1481000   296.59117     -242.85214      54108.191     -21491.344      3317.9595     -18173.385      1.054322     
   1482000   298.83646     -189.03087      53613.685     -21642.078      3343.0776     -18299.001      1.0640466    
   1483000   298.00775      905.88618      53550.148     -21651.836      3333.8068     -18318.029      1.0653091    
   1484000   297.04868     -15.326666      53730.899     -21649.372      3323.0777     -18326.295      1.0617253    
   1485000   300.50953     -330.92624      53749.364     -21675.175      3361.7941     -18313.381      1.0613606    
   1486000   296.54734     -687.64251      54528.757     -21578.174      3317.4692     -18260.705      1.0461903    
   1487000   304.50305      182.67828      54134.841     -21693.324      3406.4696     -18286.854      1.053803     
   1488000   298.76847     -557.69592      53853.108     -21582.923      3342.3169     -18240.606      1.059316     
   1489000   306.2819      -54.84466       53825.666     -21659.237      3426.3695     -18232.867      1.059856     
   1490000   300.84824      272.73549      54091.972     -21596.927      3365.5832     -18231.344      1.0546382    
   1491000   303.58436     -115.56247      54062.691     -21647.697      3396.1922     -18251.505      1.0552094    
   1492000   306.04288      609.34292      53778.567     -21535.094      3423.6956     -18111.398      1.0607843    
   1493000   298.66765      302.94687      53777.907     -21624.647      3341.189      -18283.458      1.0607973    
   1494000   307.4942       477.54765      53756.755     -21513.187      3439.9315     -18073.255      1.0612147    
   1495000   304.17904      395.44049      53742.84      -21593.635      3402.8449     -18190.79       1.0614895    
   1496000   293.25233     -64.170573      53843.786     -21646.634      3280.608      -18366.026      1.0594994    
   1497000   304.88037     -852.3741       53706.107     -21680.767      3410.6906     -18270.076      1.0622155    
   1498000   299.10415      347.75515      54169.619     -21551.787      3346.0722     -18205.714      1.0531264    
   1499000   296.30142      222.48231      54305.755     -21528.72       3314.718      -18214.002      1.0504864    
   1500000   300.57704      192.17869      54104.38      -21627.285      3362.5494     -18264.736      1.0543963    
   1501000   290.97815      208.55927      53946.922     -21651.098      3255.1668     -18395.931      1.0574738    
   1502000   300.15594     -282.20531      54209.3       -21619.491      3357.8385     -18261.653      1.0523555    
   1503000   299.0443      -132.73027      54304.779     -21581.506      3345.4026     -18236.103      1.0505053    
   1504000   303.86806     -23.253731      53988.115     -21549.274      3399.3659     -18149.908      1.056667     
   1505000   303.51791     -622.2955       54177.679     -21686.539      3395.4488     -18291.09       1.0529698    
   1506000   298.26672     -211.83248      54043.337     -21516.286      3336.7038     -18179.582      1.0555873    
   1507000   298.08716     -380.11422      54431.237     -21451.929      3334.6952     -18117.234      1.0480647    
   1508000   300.78697      294.82395      54021.892     -21565.587      3364.8978     -18200.689      1.0560063    
   1509000   311.96695      393.00616      53482.18      -21520.163      3489.968      -18030.195      1.0666629    
   1510000   293.55657      298.77144      53300.969     -21630.989      3284.0115     -18346.978      1.0702893    
   1511000   307.51096     -85.546249      53824.5       -21406.57       3440.119      -17966.451      1.059879     
   1512000   294.25434     -280.51486      53896.465     -21543.979      3291.8175     -18252.162      1.0584638    
   1513000   296.63944     -98.239021      53382.252     -21529.048      3318.4996     -18210.548      1.0686596    
   1514000   300.9315       472.89499      53561.114     -21732.035      3366.5148     -18365.52       1.0650909    
   1515000   303.62784      555.69672      54262.345     -21570.733      3396.6786     -18174.054      1.0513268    
   1516000   298.14525      272.77034      53427.588     -21565.601      3335.3449     -18230.256      1.0677528    
   1517000   302.19642      499.80293      53512.558     -21650.631      3380.6653     -18269.965      1.0660574    
   1518000   298.74946      758.30942      54139.031     -21715.892      3342.1042     -18373.787      1.0537214    
   1519000   305.22553     -467.60751      53693.984     -21609.747      3414.552      -18195.196      1.0624553    
   1520000   294.94154      501.76901      54084.391     -21515.36       3299.5051     -18215.855      1.054786     
   1521000   297.30935      238.32284      54070.953     -21510.669      3325.9938     -18184.676      1.0550481    
   1522000   304.78971      1351.9571      53768.068     -21465.746      3409.6764     -18056.07       1.0609914    
   1523000   300.1844      -520.98684      54383.302     -21532.404      3358.1569     -18174.247      1.0489885    
   1524000   298.74789      307.68369      54050.29      -21612.2        3342.0867     -18270.113      1.0554515    
   1525000   299.2176       493.40647      53972.834     -21566.945      3347.3414     -18219.603      1.0569661    
   1526000   299.28367     -193.04006      53873.157     -21594.834      3348.0805     -18246.754      1.0589217    
   1527000   295.68742      862.40575      53965.875     -21500.239      3307.8493     -18192.39       1.0571024    
   1528000   299.7544       535.22506      53793.687     -21465.984      3353.3465     -18112.637      1.0604861    
   1529000   310.59518      6.5623602      54037.039     -21545.53       3474.6221     -18070.908      1.0557103    
   1530000   308.01815      17.691388      53689.678     -21637.304      3445.7929     -18191.511      1.0625405    
   1531000   298.58374      1011.8854      53575.684     -21599.26       3340.2503     -18259.01       1.0648013    
   1532000   299.86702     -543.87762      54445.917     -21568.562      3354.6063     -18213.955      1.0477821    
   1533000   296.15249      41.544393      54006.648     -21547.906      3313.0521     -18234.854      1.0563043    
   1534000   298.55719     -156.43211      54421.632     -21500.479      3339.9533     -18160.526      1.0482497    
   1535000   299.35155      548.37395      53858.334     -21573.62       3348.8398     -18224.781      1.0592132    
   1536000   299.33694     -314.93406      54103.812     -21453.593      3348.6764     -18104.917      1.0544074    
   1537000   297.50541     -43.789877      54445.883     -21529.26       3328.1872     -18201.073      1.0477828    
   1538000   295.1128       871.16232      53708.034     -21582.878      3301.4211     -18281.457      1.0621774    
   1539000   300.02713      448.17426      53961.403     -21660.282      3356.3975     -18303.884      1.05719      
   1540000   304.74662     -679.1457       53292.225     -21591.886      3409.1944     -18182.692      1.0704649    
   1541000   300.4789       776.49886      53357.602     -21577.352      3361.4515     -18215.901      1.0691533    
   1542000   302.09814      1357.5983      53380.833     -21614.65       3379.5659     -18235.084      1.068688     
   1543000   293.34561     -455.93158      54037.532     -21543.88       3281.6515     -18262.228      1.0557006    
   1544000   299.68233     -1207.0939      54325.981     -21467.383      3352.5403     -18114.842      1.0500953    
   1545000   302.49433      98.369945      54053.103     -21585.69       3383.9981     -18201.691      1.0553965    
   1546000   300.42907      241.01902      53788.075     -21534.68       3360.894      -18173.786      1.0605968    
   1547000   292.2522       325.58309      54076.434     -21615.338      3269.4196     -18345.918      1.0549412    
   1548000   301.31616     -608.35292      54490.952     -21418.827      3370.8179     -18048.009      1.0469161    
   1549000   298.08405     -87.028115      54312.758     -21517.612      3334.6604     -18182.951      1.050351     
   1550000   293.49385     -94.812503      54314.09      -21558.032      3283.3099     -18274.722      1.0503252    
   1551000   301.83657     -320.4836       53906.97      -21586.717      3376.6397     -18210.077      1.0582575    
   1552000   302.22872     -934.37242      54308.769     -21709.548      3381.0267     -18328.521      1.0504281    
   1553000   300.45736      185.76605      53940.42      -21590.494      3361.2105     -18229.284      1.0576013    
   1554000   297.85594     -262.17757      54377.234     -21431.075      3332.1085     -18098.966      1.0491055    
   1555000   298.81398      373.01377      54098.202     -21583.112      3342.826      -18240.286      1.0545167    
   1556000   308.91268      145.47995      53705.484     -21636.505      3455.8001     -18180.705      1.0622278    
   1557000   304.82598      390.544        53829.912     -21660.05       3410.0822     -18249.968      1.0597724    
   1558000   296.70541     -253.55149      53734.4       -21499.952      3319.2376     -18180.714      1.0616562    
   1559000   306.09895     -1383.0533      53674.058     -21604.794      3424.3229     -18180.471      1.0628497    
   1560000   297.9834       752.86496      53282.948     -21620.135      3333.5343     -18286.601      1.0706513    
   1561000   301.13465      465.57629      54048.605     -21567.125      3368.7874     -18198.338      1.0554844    
   1562000   295.92048      97.075778      54089.525     -21683.565      3310.4565     -18373.108      1.0546859    
   1563000   301.10844     -91.927185      53870.138     -21593.661      3368.4941     -18225.167      1.0589811    
   1564000   296.19176      514.03045      53490.205     -21640.722      3313.4913     -18327.231      1.0665029    
   1565000   305.47678      226.5407       53603.186     -21602.409      3417.3626     -18185.046      1.064255     
   1566000   299.22973     -707.32976      53746.599     -21565.598      3347.477      -18218.121      1.0614152    
   1567000   290.41479      197.07587      53719.053     -21540.213      3248.8644     -18291.348      1.0619595    
   1568000   297.27065     -788.65575      54874.7       -21636.687      3325.5609     -18311.127      1.0395949    
   1569000   302.52655     -21.742366      54009.583     -21601.713      3384.3585     -18217.355      1.056247     
   1570000   303.52139     -366.76575      53878.759     -21629.201      3395.4877     -18233.713      1.0588116    
   1571000   299.41721      542.98219      53929.792     -21536.964      3349.5744     -18187.39       1.0578097    
   1572000   294.11795     -149.40495      53805.308     -21542.85       3290.2917     -18252.558      1.0602571    
   1573000   294.12713     -379.30198      54400.083     -21546.327      3290.3943     -18255.933      1.0486649    
   1574000   297.27091     -574.29265      54323.17      -21512.317      3325.5637     -18186.754      1.0501497    
   1575000   302.95987      650.33396      53953.958     -21521.184      3389.2061     -18131.978      1.0573359    
   1576000   298.49517      76.556037      53782.978     -21445.698      3339.2595     -18106.439      1.0606973    
   1577000   296.90403      94.207901      54370.032     -21545.931      3321.4595     -18224.471      1.0492445    
   1578000   294.32063      241.89783      54052.322     -21518.092      3292.559      -18225.533      1.0554118    
   1579000   302.37484      252.03507      53833.009     -21522.11       3382.6614     -18139.449      1.0597115    
   1580000   301.42102     -166.7813       53967.417     -21555.933      3371.9909     -18183.942      1.0570722    
   1581000   299.98036     -857.57015      53680.024     -21565.402      3355.8743     -18209.528      1.0627316    
   1582000   301.37578      515.41365      53838.725     -21529.373      3371.4849     -18157.888      1.059599     
   1583000   304.00026     -111.0319       53995.628     -21613.422      3400.8449     -18212.578      1.0565199    
   1584000   294.06617      221.95746      54661.724     -21569.379      3289.7124     -18279.667      1.0436454    
   1585000   303.43586      1187.3719      54025.555     -21516.377      3394.5309     -18121.846      1.0559347    
   1586000   303.73427     -87.230907      53750.462     -21688.04       3397.8692     -18290.171      1.0613389    
   1587000   301.09715      1311.0775      53291.099     -21646.25       3368.3679     -18277.882      1.0704875    
   1588000   300.04515      55.31441       53881.385     -21490.105      3356.5991     -18133.506      1.05876      
   1589000   296.94647     -711.30901      53492.621     -21577.679      3321.9343     -18255.745      1.0664547    
   1590000   299.67317      359.01775      53896.587     -21559.655      3352.4378     -18207.217      1.0584614    
   1591000   306.44448      58.117356      53679.671     -21720.112      3428.1883     -18291.923      1.0627386    
   1592000   297.6485      -233.57141      54424.835     -21671.566      3329.7879     -18341.778      1.048188     
   1593000   300.74828      264.64656      54141.839     -21638.325      3364.465      -18273.86       1.0536668    
   1594000   300.60978     -807.95505      54120.416     -21542.942      3362.9156     -18180.026      1.0540839    
   1595000   303.15748      50.256531      53846.739     -21613.377      3391.4167     -18221.961      1.0594413    
   1596000   304.85996      870.86086      53985.531     -21652.71       3410.4623     -18242.248      1.0567175    
   1597000   300.58517     -908.1078       54111.877     -21634.128      3362.6404     -18271.488      1.0542502    
   1598000   293.68683      55.75952       53899.696     -21572.501      3285.4688     -18287.033      1.0584004    
   1599000   296.55137      295.61662      53726.693     -21609.799      3317.5143     -18292.285      1.0618085    
   1600000   296.49025     -536.63578      53902.116     -21499.527      3316.8306     -18182.696      1.0583528    
   1600010   294.65335     -238.07914      53947.251     -21491.76       3296.2811     -18195.479      1.0574674    
Loop time of 44308 on 5 procs for 1000000 steps with 5541 atoms

Performance: 3.900 ns/day, 6.154 hours/ns, 22.569 timesteps/s, 125.056 katom-step/s
336.8% CPU use with 1 MPI tasks x 5 OpenMP threads

MPI task timing breakdown:
Section |  min time  |  avg time  |  max time  |%varavg| %total
---------------------------------------------------------------
Pair    | 1853.8     | 1853.8     | 1853.8     |   0.0 |  4.18
Bond    | 19.145     | 19.145     | 19.145     |   0.0 |  0.04
Kspace  | 22507      | 22507      | 22507      |   0.0 | 50.80
Neigh   | 40.391     | 40.391     | 40.391     |   0.0 |  0.09
Comm    | 546.57     | 546.57     | 546.57     |   0.0 |  1.23
Output  | 22.478     | 22.478     | 22.478     |   0.0 |  0.05
Modify  | 19128      | 19128      | 19128      |   0.0 | 43.17
Other   |            | 191        |            |       |  0.43

Nlocal:           5541 ave        5541 max        5541 min
Histogram: 1 0 0 0 0 0 0 0 0 0
Nghost:          35768 ave       35768 max       35768 min
Histogram: 1 0 0 0 0 0 0 0 0 0
Neighs:     4.8233e+06 ave  4.8233e+06 max  4.8233e+06 min
Histogram: 1 0 0 0 0 0 0 0 0 0

Total # of neighbors = 4823305
Ave neighs/atom = 870.47555
Ave special neighs/atom = 2.4872767
Neighbor list builds = 93218
Dangerous builds = 0

unfix mynpt
undump prod_traj
undump prod_dcd
undump prod_img
unfix thermo_avg
unfix thermo_detailed
unfix rdf_CO_avg
unfix rdf_CC_avg
unfix rdf_OO_avg
unfix rdf_C60_1_O_avg
unfix rdf_C60_2_O_avg
unfix rdf_C60_3_O_avg

unfix msd_avg
uncompute rdf_CO
uncompute rdf_CC
uncompute rdf_OO
uncompute rdf_C60_1_O
uncompute rdf_C60_2_O
uncompute rdf_C60_3_O

uncompute msd_water

#==============================================================================
# FINAL OUTPUT AND VERIFICATION
#==============================================================================
print ""

print "===== Saving Final Configuration ====="
===== Saving Final Configuration =====

write_data equilibrated_system.data
System init for write_data ...
PPPM initialization ...
  extracting TIP4P info from pair style
  using 12-bit tables for long-range coulomb
  G vector (1/distance) = 0.28843083
  grid = 50 50 50
  stencil order = 5
  estimated absolute RMS force accuracy = 0.00032787955
  estimated relative force accuracy = 9.8739954e-07
  using double precision FFTW3
  3d grid and FFT values/proc = 205379 125000
Generated 0 of 3 mixed pair_coeff terms from geometric mixing rule
WARNING: Not all mixed pair coeffs generated from mixing. Use write_data with 'pair ij' option to store all pair coeffs. (src/write_data.cpp:364)
write_restart equilibrated_system.restart
System init for write_restart ...
PPPM initialization ...
  extracting TIP4P info from pair style
  using 12-bit tables for long-range coulomb
  G vector (1/distance) = 0.28843083
  grid = 50 50 50
  stencil order = 5
  estimated absolute RMS force accuracy = 0.00032787955
  estimated relative force accuracy = 9.8739954e-07
  using double precision FFTW3
  3d grid and FFT values/proc = 205379 125000
Generated 0 of 3 mixed pair_coeff terms from geometric mixing rule

print ""

print "â•â•â•â•â•â•â•â•â•â•â•â•â•â•â•â•â•â•â•â•â•â•â•â•â•â•â•â•â•â•â•â•â•â•â•â•â•â•â•â•â•â•â•â•â•â•â•â•â•â•â•â•â•â•â•â•â•â•â•â•â•â•â•â•â•â•â•â•â•â•â•â•â•â•â•â•"
••••••••••••••••••••••••••••••••••••••••••••••••••••••••••••••••••••••••••••
print "                     EQUILIBRATION COMPLETE - SUCCESS!"
                     EQUILIBRATION COMPLETE - SUCCESS!
print "â•â•â•â•â•â•â•â•â•â•â•â•â•â•â•â•â•â•â•â•â•â•â•â•â•â•â•â•â•â•â•â•â•â•â•â•â•â•â•â•â•â•â•â•â•â•â•â•â•â•â•â•â•â•â•â•â•â•â•â•â•â•â•â•â•â•â•â•â•â•â•â•â•â•â•â•"
••••••••••••••••••••••••••••••••••••••••••••••••••••••••••••••••••••••••••••
print ""

print "Simulation Summary:"
Simulation Summary:
print "  Total simulation time: 5.22 ns"
  Total simulation time: 5.22 ns
print "    - NVT thermalization:     50 ps"
    - NVT thermalization:     50 ps
print "    - Pre-equilibration:      50 ps  (NEW - prevents PPPM artifacts)"
    - Pre-equilibration:      50 ps  (NEW - prevents PPPM artifacts)
print "    - Pressure ramp:         100 ps  (EXTENDED and with drag damping)"
    - Pressure ramp:         100 ps  (EXTENDED and with drag damping)
print "    - NPT equilibration:    1000 ps"
    - NPT equilibration:    1000 ps
print "    - Production run:       4000 ps (4 ns)"
    - Production run:       4000 ps (4 ns)
print ""


# Final measurements
variable final_temp equal temp
variable final_press equal press
variable final_dens equal density
variable final_vol equal vol
variable final_boxsize equal vol^(1.0/3.0)
variable final_pe equal pe
variable final_ke equal ke
variable final_etotal equal etotal

print "Final Thermodynamic State:"
Final Thermodynamic State:
print "  Temperature:    ${final_temp} K      (target: 300K)"
  Temperature:    294.653347919319 K      (target: 300K)
print "  Pressure:       ${final_press} atm   (target: 1 atm)"
  Pressure:       -238.079136444586 atm   (target: 1 atm)
print "  Density:        ${final_dens} g/cmÂ³  (target: 0.95-1.05)"
  Density:        1.05746735996987 g/cm³  (target: 0.95-1.05)
print "  Volume:         ${final_vol} Ã…Â³"
  Volume:         53947.2514951416 …³
print "  Box size:       ${final_boxsize} Ã…    (expected: 58-63)"
  Box size:       37.785320274079 …    (expected: 58-63)
print ""

print "Final Energies:"
Final Energies:
print "  Potential:      ${final_pe} kcal/mol"
  Potential:      -21491.7603411468 kcal/mol
print "  Kinetic:        ${final_ke} kcal/mol"
  Kinetic:        3296.28114477243 kcal/mol
print "  Total:          ${final_etotal} kcal/mol"
  Total:          -18195.4791963743 kcal/mol
print ""


# Comprehensive validation - simplified to avoid quoting issues
print ""

if "${final_dens} >= 0.85" then   "if \"${final_dens} <= 1.15\" then \"jump SELF validation_success\" else \"jump SELF validation_warning\""
if "${final_dens} >= 0.85" then   "if \"1.05746735996987 <= 1.15\" then \"jump SELF validation_success\" else \"jump SELF validation_warning\""
ERROR: Input line quote not followed by white-space (src/input.cpp:556)
Last input line: if "${final_dens} >= 0.85" then "if \"${final_dens} <= 1.15\" then \"jump SELF validation_success\" else \"jump SELF validation_warning\""
