LAMMPS (10 Sep 2025)
  using 10 OpenMP thread(s) per MPI task
package gpu 1 neigh yes newton off binsize 2.8 split 1.0
# LAMMPS Input Script: FULLY CORRECTED NPT Equilibration
# Purpose: Equilibrate solvated nanoparticle system at 300K, 1 bar
# Water Model: TIP4P/2005 (implicit M-site)
# GPU acceleration: Enabled for MD stages
#
# COMPLETE FIXES APPLIED (2024-11-13):
# 1. âœ… CRITICAL FIX: PPPM grid locked to prevent recalculation artifacts
# 2. âœ… CRITICAL FIX: Pre-equilibration stage to reduce initial pressure
# 3. âœ… FIXED: Gentler pressure ramp (100 atm â†’ 1 atm) with drag damping
# 4. âœ… FIXED: SHAKE verification and proper constraint application
# 5. âœ… EXTENDED: Longer equilibration (1000 ps) and production (4000 ps)
# 6. âœ… ENHANCED: Multiple density checkpoints to catch failures early
# 7. âœ… OPTIMIZED: 2 fs timestep (SHAKE allows this, 2Ã— speedup)
#
# Total time: 5.22 ns (50ps NVT + 50ps pre-equil + 100ps ramp + 1000ps NPT + 4000ps prod)
#
# ROOT CAUSE OF PREVIOUS FAILURE:
# - PPPM grid recalculation at step 51,000 caused 169,712 atm pressure spike
# - Barostat overreacted â†’ box expanded 63Ã— â†’ gas phase (Ï=0.025 g/cmÂ³)
# - All epsilon values failed identically (proves it's numerical, not physical)
#
# SOLUTION: Lock PPPM grid + reduce initial pressure + add checkpoints

# ===== INITIALIZATION =====
units real
atom_style full
boundary p p p
atom_modify map array

# ===== COMMUNICATION =====
# Increased cutoff to handle potential box fluctuations safely
comm_modify cutoff 18.0

# ===== FORCE FIELD (FULLY GPU-accelerated) =====
# CORRECTED: O=type2, H=type3 (C60 carbon is type1)
pair_style lj/cut/tip4p/long/gpu 2 3 2 1 0.1546 12.0

# ğŸ”§ CRITICAL: Use pppm/gpu for FULL GPU acceleration of Coulomb forces
# pppm/tip4p is CPU-based bottleneck (~90% CPU, ~10% GPU)
# pppm/gpu runs Coulomb solver on GPU â†’ 5-10Ã— speedup for long-range forces
kspace_style pppm/gpu 1.0e-4

# ğŸ”§ CRITICAL FIX #1: Lock PPPM grid to prevent recalculation
# This prevents the 169,712 atm pressure spike that caused gas-phase failure
kspace_modify mesh 50 50 50    # Fixed grid (handles boxes up to ~125 Ã…, increased from 40)
kspace_modify order 5           # Higher interpolation order for accuracy
kspace_modify force/disp/real 0.8  # Balance real/k-space work

bond_style harmonic
angle_style harmonic

read_data large_C60_solvated.data
Reading data file ...
  orthogonal box = (-20 -20 -20) to (20 20 20)
  1 by 1 by 1 MPI processor grid
  reading atoms ...
  5541 atoms
  reading velocities ...
  5541 velocities
  scanning bonds ...
  3 = max bonds/atom
  scanning angles ...
  1 = max angles/atom
  orthogonal box = (-20 -20 -20) to (20 20 20)
  1 by 1 by 1 MPI processor grid
  reading bonds ...
  3844 bonds
  reading angles ...
  1787 angles
Finding 1-2 1-3 1-4 neighbors ...
  special bond factors lj:    0        0        0       
  special bond factors coul:  0        0        0       
     3 = max # of 1-2 neighbors
     6 = max # of 1-3 neighbors
    18 = max # of 1-4 neighbors
    17 = max # of special neighbors
  special bonds CPU = 0.002 seconds
  read_data CPU = 0.062 seconds

# ===== PAIR COEFFICIENTS (CORRECTED ATOM TYPE MAPPING) =====
# Type 1: C60 carbon (180 atoms from 3 C60 particles)
# Type 2: Water oxygen (~2000 molecules)
# Type 3: Water hydrogen (~4000 atoms)
# TIP4P/2005 parameters (verified against literature)
pair_coeff 2 2 0.1852 3.1589    # O-O (type 2, Îµ=0.1852 kcal/mol, Ïƒ=3.1589 Ã…)
pair_coeff 3 3 0.0 0.0          # H-H (type 3, no interaction)

# C60 fullerene parameters
pair_coeff 1 1 0.07 3.4         # C-C (type 1, Îµ=0.07 kcal/mol, Ïƒ=3.4 Ã…)

# C60-water cross interactions
# Tunable parameter (passed from bash script via -var)
variable epsilon_co equal ${EPSILON_CO}
variable epsilon_co equal 0.35
pair_coeff 1 2 ${epsilon_co} 3.2   # C-O (hydrophobicity parameter)
pair_coeff 1 2 0.35 3.2   
pair_coeff 1 3 0.0 0.0             # C-H (no interaction)
pair_coeff 2 3 0.0 0.0             # O-H (no LJ, only Coulombic)

# Bond and angle coefficients
bond_coeff 1 938.0 1.42         # C-C bonds in C60 (bond type 1)
bond_coeff 2 0.0 0.9572         # O-H bonds in water (bond type 2, SHAKE controlled)
angle_coeff 1 0.0 104.52        # H-O-H angle in water (angle type 1, SHAKE controlled)

# ===== SETTINGS =====
neighbor 2.0 bin                 # Increased skin for safety
neigh_modify delay 5 every 1 check yes

# Define groups (CORRECTED)
group carbon type 1        # C60 atoms (type 1)
180 atoms in group carbon
group water type 2 3       # All water atoms (O=type2, H=type3)
5361 atoms in group water
group oxygen type 2        # Water oxygen atoms (type 2)
1787 atoms in group oxygen
group hydrogen type 3      # Water hydrogen atoms (type 3)
3574 atoms in group hydrogen

# Define thermodynamic variables
variable temp equal c_thermo_temp
variable press equal c_thermo_press
variable pe equal pe
variable ke equal ke
variable etotal equal etotal
variable vol equal vol
variable dens equal density

thermo_style custom step temp press vol pe ke etotal density
thermo 1000

# ğŸ”§ CRITICAL FIX #2: Use 2 fs timestep (SHAKE allows this, 2Ã— speedup)
timestep 2.0

# Print system info
print "â•â•â•â•â•â•â•â•â•â•â•â•â•â•â•â•â•â•â•â•â•â•â•â•â•â•â•â•â•â•â•â•â•â•â•â•â•â•â•â•â•â•â•â•â•â•â•â•â•â•â•â•â•â•â•â•â•â•â•â•â•â•â•â•â•â•â•â•â•â•â•â•â•â•â•â•"
WARNING: Detected non-ASCII characters in input. Will try to continue by replacing with ASCII equivalents where known. (src/input.cpp:479)
••••••••••••••••••••••••••••••••••••••••••••••••••••••••••••••••••••••••••••
print "SYSTEM INFORMATION:"
SYSTEM INFORMATION:
print "  Epsilon (O-C): ${epsilon_co} kcal/mol"
  Epsilon (O-C): 0.35 kcal/mol
print "  Random seed:   ${RANDOM_SEED}"
  Random seed:   42
print "  Timestep:      2.0 fs (with SHAKE constraints)"
  Timestep:      2.0 fs (with SHAKE constraints)
print "  PPPM grid:     40Ã—40Ã—40 (LOCKED to prevent artifacts)"
  PPPM grid:     40—40—40 (LOCKED to prevent artifacts)
print "â•â•â•â•â•â•â•â•â•â•â•â•â•â•â•â•â•â•â•â•â•â•â•â•â•â•â•â•â•â•â•â•â•â•â•â•â•â•â•â•â•â•â•â•â•â•â•â•â•â•â•â•â•â•â•â•â•â•â•â•â•â•â•â•â•â•â•â•â•â•â•â•â•â•â•â•"
••••••••••••••••••••••••••••••••••••••••••••••••••••••••••••••••••••••••••••
print ""


#==============================================================================
# STAGE 0: Gentle Minimization (CPU pair style for stability)
#==============================================================================
print "===== STAGE 0: Gentle Minimization (removing any overlaps) ====="
===== STAGE 0: Gentle Minimization (removing any overlaps) =====
print "Using CPU pair style for numerical stability during minimization"
Using CPU pair style for numerical stability during minimization
print ""


# Switch to CPU pair style for minimization (GPU can be unstable)
pair_style lj/cut/tip4p/long 2 3 2 1 0.1546 12.0
kspace_style pppm/tip4p 1.0e-4
kspace_modify mesh 50 50 50
kspace_modify order 5

# Re-apply pair coefficients with current epsilon_co
pair_coeff 1 1 0.07 3.4            # C-C
pair_coeff 2 2 0.1852 3.1589       # O-O
pair_coeff 3 3 0.0 0.0             # H-H
pair_coeff 1 2 ${epsilon_co} 3.2   # C-O (variable)
pair_coeff 1 2 0.35 3.2   
pair_coeff 1 3 0.0 0.0             # C-H
pair_coeff 2 3 0.0 0.0             # O-H

# Very gentle minimization (just remove bad contacts, if any)
# Using very relaxed tolerances and limited steps for speed
thermo 100
minimize 0.0 10.0 10 100  # Ultra-gentle: etol=0, ftol=10, max 10 eval, max 100 iter

CITE-CITE-CITE-CITE-CITE-CITE-CITE-CITE-CITE-CITE-CITE-CITE-CITE

Your simulation uses code contributions which should be cited:

- GPU package (short-range, long-range and three-body potentials): doi:10.1016/j.cpc.2010.12.021, doi:10.1016/j.cpc.2011.10.012, doi:10.1016/j.cpc.2013.08.002, doi:10.1016/j.commatsci.2014.10.068, doi:10.1016/j.cpc.2016.10.020, doi:10.3233/APC200086

@Article{Brown11,
 author = {W. M. Brown and P. Wang and S. J. Plimpton and A. N. Tharrington},
 title = {Implementing Molecular Dynamics on Hybrid High Performance Computers---Short Range Forces},
 journal = {Comput.\ Phys.\ Commun.},
 year =    2011,
 volume =  182,
 pages =   {898--911},
 doi =     {10.1016/j.cpc.2010.12.021}
}

@Article{Brown12,
 author = {W. M. Brown and A. Kohlmeyer and S. J. Plimpton and A. N. Tharrington},
 title = {Implementing Molecular Dynamics on Hybrid High Performance Computers - Particle-Particle Particle-Mesh},
 journal = {Comput.\ Phys.\ Commun.},
 year =    2012,
 volume =  183,
 doi =     {10.1016/j.cpc.2011.10.012},
 pages =   {449--459}
}

@Article{Brown13,
 author = {W. M. Brown and Y. Masako},
 title = {Implementing Molecular Dynamics on Hybrid High Performance Computers---Three-Body Potentials},
 journal = {Comput.\ Phys.\ Commun.},
 year =    2013,
 volume =  184,
 pages =   {2785--2793},
 doi =     {10.1016/j.cpc.2013.08.002},
}

@Article{Trung15,
 author = {T. D. Nguyen and S. J. Plimpton},
 title = {Accelerating Dissipative Particle Dynamics Simulations for Soft Matter Systems},
 journal = {Comput.\ Mater.\ Sci.},
 year =    2015,
 doi =     {10.1016/j.commatsci.2014.10.068},
 volume =  100,
 pages =   {173--180}
}

@Article{Trung17,
 author = {T. D. Nguyen},
 title = {{GPU}-Accelerated {T}ersoff Potentials for Massively Parallel
    Molecular Dynamics Simulations},
 journal = {Comput.\ Phys.\ Commun.},
 year =    2017,
 doi =     {10.1016/j.cpc.2016.10.020},
 volume =  212,
 pages =   {113--122}
}

@inproceedings{Nikolskiy19,
 author = {V. Nikolskiy and V. Stegailov},
 title = {{GPU} Acceleration of Four-Site Water Models in {LAMMPS}},
 booktitle = {Proceedings of the International Conference on Parallel
    Computing (ParCo 2019), Prague, Czech Republic},
 doi =     {10.3233/APC200086},
 year =    2019
}

CITE-CITE-CITE-CITE-CITE-CITE-CITE-CITE-CITE-CITE-CITE-CITE-CITE

Switching to 'neigh_modify every 1 delay 0 check yes' setting during minimization
PPPM initialization ...
  extracting TIP4P info from pair style
  using 12-bit tables for long-range coulomb
  G vector (1/distance) = 0.28512662
  grid = 50 50 50
  stencil order = 5
  estimated absolute RMS force accuracy = 0.00038934319
  estimated relative force accuracy = 1.1724955e-06
  using double precision FFTW3
  3d grid and FFT values/proc = 185193 125000
Generated 0 of 3 mixed pair_coeff terms from geometric mixing rule
Per MPI rank memory allocation (min/avg/max) = 59.33 | 59.33 | 59.33 Mbytes
   Step          Temp          Press          Volume         PotEng         KinEng         TotEng        Density    
         0   36.495381      27231.151      64000         -23229.374      602.67332     -22626.7        0.89136653   
        10   36.495381     -19475.193      64000         -142261.01      602.67332     -141658.34      0.89136653   
Loop time of 0.176186 on 10 procs for 10 steps with 5541 atoms

965.6% CPU use with 1 MPI tasks x 10 OpenMP threads

Minimization stats:
  Stopping criterion = max iterations
  Energy initial, next-to-last, final = 
     -23229.3736046379  -124515.938872442  -142261.012298662
  Force two-norm initial, final = 2152.6582 6846.0648
  Force max component initial, final = 49.701261 358.11103
  Final line search alpha, max atom move = 0.00038656333 0.13843259
  Iterations, force evaluations = 10 10

MPI task timing breakdown:
Section |  min time  |  avg time  |  max time  |%varavg| %total
---------------------------------------------------------------
Pair    | 0.0039308  | 0.0039308  | 0.0039308  |   0.0 |  2.23
Bond    | 0.0017254  | 0.0017254  | 0.0017254  |   0.0 |  0.98
Kspace  | 0.16496    | 0.16496    | 0.16496    |   0.0 | 93.63
Neigh   | 0          | 0          | 0          |   0.0 |  0.00
Comm    | 0.0026416  | 0.0026416  | 0.0026416  |   0.0 |  1.50
Output  | 8.0415e-05 | 8.0415e-05 | 8.0415e-05 |   0.0 |  0.05
Modify  | 1.262e-06  | 1.262e-06  | 1.262e-06  |   0.0 |  0.00
Other   |            | 0.00285    |            |       |  1.62

Nlocal:           5541 ave        5541 max        5541 min
Histogram: 1 0 0 0 0 0 0 0 0 0
Nghost:          33839 ave       33839 max       33839 min
Histogram: 1 0 0 0 0 0 0 0 0 0
Neighs:              0 ave           0 max           0 min
Histogram: 1 0 0 0 0 0 0 0 0 0

Total # of neighbors = 0
Ave neighs/atom = 0
Ave special neighs/atom = 2.4872767
Neighbor list builds = 0
Dangerous builds = 0

variable pe_minimized equal pe
print "Minimization complete. PE = ${pe_minimized} kcal/mol (was -23,217)"
Minimization complete. PE = -142261.012298662 kcal/mol (was -23,217)

# Switch back to GPU pair style for MD
pair_style lj/cut/tip4p/long/gpu 2 3 2 1 0.1546 12.0
kspace_style pppm/tip4p 1.0e-4
kspace_modify mesh 50 50 50
kspace_modify order 5

# Re-apply pair coefficients again after style change
pair_coeff 1 1 0.07 3.4            # C-C
pair_coeff 2 2 0.1852 3.1589       # O-O
pair_coeff 3 3 0.0 0.0             # H-H
pair_coeff 1 2 ${epsilon_co} 3.2   # C-O (variable)
pair_coeff 1 2 0.35 3.2   
pair_coeff 1 3 0.0 0.0             # C-H
pair_coeff 2 3 0.0 0.0             # O-H

print ""


#==============================================================================
# STAGE 0.5: Apply SHAKE Constraints
#==============================================================================
thermo 1000

# ğŸ”§ CRITICAL FIX #3: Apply SHAKE with proper verification
print "Applying SHAKE constraints..."
Applying SHAKE constraints...
# CORRECTED: bond type 2 = O-H, angle type 1 = H-O-H
fix myshk water shake 0.0001 20 0 b 2 a 1
Finding SHAKE clusters ...
       0 = # of size 2 clusters
       0 = # of size 3 clusters
       0 = # of size 4 clusters
    1787 = # of frozen angles
  find clusters CPU = 0.001 seconds

# Verify SHAKE is working
print "SHAKE constraint verification:"
SHAKE constraint verification:
print "  Expected: ~2000 water molecules with constrained bonds and angles"
  Expected: ~2000 water molecules with constrained bonds and angles
print "  Check minimization output for cluster sizes"
  Check minimization output for cluster sizes
print ""

print "GPU Acceleration Status:"
GPU Acceleration Status:
print "  âœ“ Pair forces (LJ):      GPU (lj/cut/tip4p/long/gpu)"
  œ“ Pair forces (LJ):      GPU (lj/cut/tip4p/long/gpu)
print "  âœ“ Coulomb (PPPM):        CPU (pppm/tip4p) - GPU suffix not available"
  œ“ Coulomb (PPPM):        CPU (pppm/tip4p) - GPU suffix not available
print "  âœ“ Neighbor lists:        GPU (neigh yes)"
  œ“ Neighbor lists:        GPU (neigh yes)
print "  â†’ Expected speedup:      2-3Ã— vs CPU-only version (pair forces only)"
  †’ Expected speedup:      2-3— vs CPU-only version (pair forces only)

#==============================================================================
# STAGE 1: NVT Thermalization (50 ps)
#==============================================================================
print ""

print "===== STAGE 1: NVT Thermalization (50 ps, GPU) ====="
===== STAGE 1: NVT Thermalization (50 ps, GPU) =====
print "Objective: Reach 300K while maintaining initial density"
Objective: Reach 300K while maintaining initial density

velocity all create 300.0 ${RANDOM_SEED} dist gaussian loop geom
velocity all create 300.0 42 dist gaussian loop geom

fix mynvt all nvt temp 300.0 300.0 100.0

# Trajectory output (every 4 ps) - using wrapped coordinates for proper visualization
dump nvt_traj all custom 2000 nvt_thermalization.lammpstrj id type xu yu zu
dump_modify nvt_traj sort id

dump nvt_dcd all dcd 2000 nvt_thermalization.dcd
dump_modify nvt_dcd unwrap yes

run 25000  # 50 ps at 2 fs timestep
PPPM initialization ...
  extracting TIP4P info from pair style
  using 12-bit tables for long-range coulomb
  G vector (1/distance) = 0.28512662
  grid = 50 50 50
  stencil order = 5
  estimated absolute RMS force accuracy = 0.00038934319
  estimated relative force accuracy = 1.1724955e-06
  using double precision FFTW3
  3d grid and FFT values/proc = 185193 125000
Generated 0 of 3 mixed pair_coeff terms from geometric mixing rule
Per MPI rank memory allocation (min/avg/max) = 58.79 | 58.79 | 58.79 Mbytes
   Step          Temp          Press          Volume         PotEng         KinEng         TotEng        Density    
        10   300           -111889.9       64000         -142261.01      3356.094      -138904.92      0.89136653   
      1000   298.52976     -1032.3772      64000         -20048.013      3339.6465     -16708.366      0.89136653   
      2000   298.1992      -1042.3188      64000         -20365.992      3335.9486     -17030.044      0.89136653   
      3000   303.05782     -1155.779       64000         -20414.79       3390.3018     -17024.488      0.89136653   
      4000   296.94439     -306.78095      64000         -20423.041      3321.9109     -17101.131      0.89136653   
      5000   303.07738     -1152.0171      64000         -20311.957      3390.5207     -16921.436      0.89136653   
      6000   304.49113     -1054.4086      64000         -20449.622      3406.3363     -17043.286      0.89136653   
      7000   297.82106     -1392.0776      64000         -20269.9        3331.7183     -16938.181      0.89136653   
      8000   299.43702     -1340.4003      64000         -20378.464      3349.7959     -17028.668      0.89136653   
      9000   293.06576     -891.43239      64000         -20436.837      3278.5209     -17158.316      0.89136653   
     10000   297.10878     -769.399        64000         -20416.802      3323.75       -17093.052      0.89136653   
     11000   309.33242     -1231.1488      64000         -20368.83       3460.4957     -16908.334      0.89136653   
     12000   291.14038     -1617.8801      64000         -20350.675      3256.9816     -17093.693      0.89136653   
     13000   302.40597     -1308.4739      64000         -20519.203      3383.0096     -17136.193      0.89136653   
     14000   299.8425      -1764.8079      64000         -20406.049      3354.3321     -17051.717      0.89136653   
     15000   308.19849     -1637.2721      64000         -20373.388      3447.8104     -16925.577      0.89136653   
     16000   296.9473      -1560.2163      64000         -20508.655      3321.9435     -17186.712      0.89136653   
     17000   296.70271     -786.8356       64000         -20312.153      3319.2073     -16992.945      0.89136653   
     18000   307.90768     -838.90678      64000         -20272.49       3444.5571     -16827.933      0.89136653   
     19000   294.20431     -1301.2357      64000         -20441.332      3291.2578     -17150.074      0.89136653   
     20000   298.376       -1071.2566      64000         -20456.659      3337.9263     -17118.733      0.89136653   
     21000   298.22476     -1111.2529      64000         -20255.027      3336.2344     -16918.793      0.89136653   
     22000   305.85777     -1061.9375      64000         -20382.659      3421.6247     -16961.034      0.89136653   
     23000   301.36575     -1322.4205      64000         -20379.14       3371.3726     -17007.768      0.89136653   
     24000   292.50078     -1307.2451      64000         -20480.647      3272.2004     -17208.447      0.89136653   
     25000   294.80063     -640.50381      64000         -20595.632      3297.9287     -17297.703      0.89136653   
     25010   294.83775     -1474.4625      64000         -20599.65       3298.344      -17301.306      0.89136653   
Loop time of 566.666 on 10 procs for 25000 steps with 5541 atoms

Performance: 7.624 ns/day, 3.148 hours/ns, 44.118 timesteps/s, 244.456 katom-step/s
925.4% CPU use with 1 MPI tasks x 10 OpenMP threads

MPI task timing breakdown:
Section |  min time  |  avg time  |  max time  |%varavg| %total
---------------------------------------------------------------
Pair    | 22.459     | 22.459     | 22.459     |   0.0 |  3.96
Bond    | 0.23324    | 0.23324    | 0.23324    |   0.0 |  0.04
Kspace  | 510.99     | 510.99     | 510.99     |   0.0 | 90.18
Neigh   | 0.050389   | 0.050389   | 0.050389   |   0.0 |  0.01
Comm    | 9.0716     | 9.0716     | 9.0716     |   0.0 |  1.60
Output  | 0.10896    | 0.10896    | 0.10896    |   0.0 |  0.02
Modify  | 20.847     | 20.847     | 20.847     |   0.0 |  3.68
Other   |            | 2.902      |            |       |  0.51

Nlocal:           5541 ave        5541 max        5541 min
Histogram: 1 0 0 0 0 0 0 0 0 0
Nghost:          33157 ave       33157 max       33157 min
Histogram: 1 0 0 0 0 0 0 0 0 0
Neighs:              0 ave           0 max           0 min
Histogram: 1 0 0 0 0 0 0 0 0 0

Total # of neighbors = 0
Ave neighs/atom = 0
Ave special neighs/atom = 2.4872767
Neighbor list builds = 2331
Dangerous builds = 1

unfix mynvt
undump nvt_traj
undump nvt_dcd

write_restart nvt_complete.restart
System init for write_restart ...
PPPM initialization ...
  extracting TIP4P info from pair style
  using 12-bit tables for long-range coulomb
  G vector (1/distance) = 0.28512662
  grid = 50 50 50
  stencil order = 5
  estimated absolute RMS force accuracy = 0.00038934319
  estimated relative force accuracy = 1.1724955e-06
  using double precision FFTW3
  3d grid and FFT values/proc = 185193 125000
Generated 0 of 3 mixed pair_coeff terms from geometric mixing rule

# Check temperature
variable current_temp equal temp
print "NVT complete. Temperature: ${current_temp} K (target: 300K)"
NVT complete. Temperature: 294.837746603927 K (target: 300K)

# ğŸ”§ CHECKPOINT #1: Verify we're still at reasonable density
variable current_dens equal density
if "${current_dens} < 0.7" then     "print 'ERROR: Density dropped during NVT! Current: ${current_dens} g/cmÂ³'"     "print 'This should not happen - check initial configuration'"     "quit 1"

print "âœ“ Checkpoint 1 PASSED: Density = ${current_dens} g/cmÂ³"
œ“ Checkpoint 1 PASSED: Density = 0.891366525253081 g/cm³

#==============================================================================
# STAGE 1.5: Pre-Equilibration at 100 atm (50 ps) - NEW STAGE
#==============================================================================
print ""

print "===== STAGE 1.5: Pre-Equilibration at 100 atm (50 ps, GPU) ====="
===== STAGE 1.5: Pre-Equilibration at 100 atm (50 ps, GPU) =====
print "ğŸ”§ CRITICAL FIX: Reducing initial pressure before main ramp"
Ÿ”§ CRITICAL FIX: Reducing initial pressure before main ramp
print "Objective: Equilibrate volume at moderate pressure to prevent PPPM artifacts"
Objective: Equilibrate volume at moderate pressure to prevent PPPM artifacts
print ""

print "Why this is needed:"
Why this is needed:
print "  - NVT creates high pressure (~800 atm) in fixed volume"
  - NVT creates high pressure (~800 atm) in fixed volume
print "  - Direct ramp from 800â†’1 atm caused 169k atm spike (PPPM grid change)"
  - Direct ramp from 800†’1 atm caused 169k atm spike (PPPM grid change)
print "  - Pre-equilibrating at 100 atm reduces initial pressure safely"
  - Pre-equilibrating at 100 atm reduces initial pressure safely
print "  - Main ramp (100â†’1 atm) will then cause only ~5% box expansion"
  - Main ramp (100†’1 atm) will then cause only ~5% box expansion

# Higher barostat damping for this stage (more conservative)
fix mynpt_pre all npt temp 300.0 300.0 100.0 iso 100.0 100.0 5000.0

dump pre_dcd all dcd 2000 pre_equilibration.dcd
dump_modify pre_dcd unwrap yes

run 25000  # 50 ps at 2 fs timestep
PPPM initialization ...
  extracting TIP4P info from pair style
  using 12-bit tables for long-range coulomb
  G vector (1/distance) = 0.28512662
  grid = 50 50 50
  stencil order = 5
  estimated absolute RMS force accuracy = 0.00038934319
  estimated relative force accuracy = 1.1724955e-06
  using double precision FFTW3
  3d grid and FFT values/proc = 185193 125000
Generated 0 of 3 mixed pair_coeff terms from geometric mixing rule
Per MPI rank memory allocation (min/avg/max) = 58.79 | 58.79 | 58.79 Mbytes
   Step          Temp          Press          Volume         PotEng         KinEng         TotEng        Density    
     25010   294.83775     -1474.2608      64000         -20599.65       3298.344      -17301.306      0.89136653   
     26000   299.86871     -836.65435      61431.715     -20549.542      3354.6253     -17194.917      0.92863201   
     27000   302.82304     -525.70094      59479.111     -20682.993      3387.6753     -17295.318      0.95911753   
     28000   304.22579     -219.23074      58130.346     -20633.039      3403.3679     -17229.671      0.98137138   
     29000   294.71873     -601.78294      56800.812     -20617.461      3297.0126     -17320.449      1.0043423    
     30000   296.13209     -342.94973      55854.609     -20723.48       3312.8238     -17410.656      1.0213563    
     31000   308.25881     -131.23536      55202.887     -20737.795      3448.4852     -17289.31       1.0334144    
     32000   300.34988      778.82096      54885.113     -20720.653      3360.0082     -17360.645      1.0393976    
     33000   296.89471     -34.168096      55210.217     -20701.784      3321.3552     -17380.429      1.0332772    
     34000   306.30743      119.00255      54691.587     -20886.961      3426.6552     -17460.306      1.0430756    
     35000   298.07891      183.88054      54607.692     -20732.11       3334.6028     -17397.507      1.0446781    
     36000   301.10666      592.97793      54393.043     -20730.02       3368.4742     -17361.546      1.0488006    
     37000   301.50471      67.916401      54575.224     -20808.983      3372.9272     -17436.055      1.0452996    
     38000   305.02764     -327.2567       54575.307     -20785.991      3412.3381     -17373.653      1.045298     
     39000   301.40915      852.9795       54180.566     -20746.569      3371.8581     -17374.711      1.0529137    
     40000   299.98516      39.505865      54154.013     -20853.324      3355.928      -17497.396      1.0534299    
     41000   298.75774      375.00702      54185.043     -20720.601      3342.1969     -17378.404      1.0528266    
     42000   298.82422      0.52347066     54599.986     -20857.141      3342.9406     -17514.201      1.0448255    
     43000   300.92492      370.83516      54852.918     -20752.084      3366.4411     -17385.643      1.0400077    
     44000   298.08835     -515.71308      54769.563     -20732.363      3334.7085     -17397.654      1.0415905    
     45000   301.99004      758.59635      54622.418     -20674.765      3378.3566     -17296.409      1.0443964    
     46000   300.82201      32.216744      55137.005     -20798.544      3365.2899     -17433.254      1.0346492    
     47000   308.18321      88.361988      55320.749     -20797.502      3447.6395     -17349.862      1.0312127    
     48000   304.67846      818.6363       54218.124     -20884.138      3408.4319     -17475.706      1.0521843    
     49000   295.97971      47.004176      54531.627     -20863.716      3311.1192     -17552.596      1.0461353    
     50000   294.81926     -600.77108      54914.626     -20866.916      3298.1372     -17568.779      1.038839     
     50010   299.12878     -859.49985      54910.604     -20906.386      3346.3478     -17560.038      1.0389151    
Loop time of 970.894 on 10 procs for 25000 steps with 5541 atoms

Performance: 4.450 ns/day, 5.394 hours/ns, 25.749 timesteps/s, 142.678 katom-step/s
668.3% CPU use with 1 MPI tasks x 10 OpenMP threads

MPI task timing breakdown:
Section |  min time  |  avg time  |  max time  |%varavg| %total
---------------------------------------------------------------
Pair    | 21.468     | 21.468     | 21.468     |   0.0 |  2.21
Bond    | 0.3432     | 0.3432     | 0.3432     |   0.0 |  0.04
Kspace  | 495.08     | 495.08     | 495.08     |   0.0 | 50.99
Neigh   | 0.048096   | 0.048096   | 0.048096   |   0.0 |  0.00
Comm    | 9.5333     | 9.5333     | 9.5333     |   0.0 |  0.98
Output  | 0.014769   | 0.014769   | 0.014769   |   0.0 |  0.00
Modify  | 440.12     | 440.12     | 440.12     |   0.0 | 45.33
Other   |            | 4.287      |            |       |  0.44

Nlocal:           5541 ave        5541 max        5541 min
Histogram: 1 0 0 0 0 0 0 0 0 0
Nghost:          35335 ave       35335 max       35335 min
Histogram: 1 0 0 0 0 0 0 0 0 0
Neighs:              0 ave           0 max           0 min
Histogram: 1 0 0 0 0 0 0 0 0 0

Total # of neighbors = 0
Ave neighs/atom = 0
Ave special neighs/atom = 2.4872767
Neighbor list builds = 2335
Dangerous builds = 0

unfix mynpt_pre
undump pre_dcd

write_restart pre_equilibration_complete.restart
System init for write_restart ...
PPPM initialization ...
  extracting TIP4P info from pair style
  using 12-bit tables for long-range coulomb
  G vector (1/distance) = 0.28811875
  grid = 50 50 50
  stencil order = 5
  estimated absolute RMS force accuracy = 0.00033344993
  estimated relative force accuracy = 1.0041746e-06
  using double precision FFTW3
  3d grid and FFT values/proc = 205379 125000
Generated 0 of 3 mixed pair_coeff terms from geometric mixing rule
write_data pre_equilibration_complete.data
System init for write_data ...
PPPM initialization ...
  extracting TIP4P info from pair style
  using 12-bit tables for long-range coulomb
  G vector (1/distance) = 0.28811875
  grid = 50 50 50
  stencil order = 5
  estimated absolute RMS force accuracy = 0.00033344993
  estimated relative force accuracy = 1.0041746e-06
  using double precision FFTW3
  3d grid and FFT values/proc = 205379 125000
Generated 0 of 3 mixed pair_coeff terms from geometric mixing rule
WARNING: Not all mixed pair coeffs generated from mixing. Use write_data with 'pair ij' option to store all pair coeffs. (src/write_data.cpp:364)

# ğŸ”§ CHECKPOINT #2: Verify still in liquid phase after pre-equilibration
variable current_dens equal density
variable current_press equal press
variable current_vol equal vol

print ""

print "Pre-equilibration complete:"
Pre-equilibration complete:
print "  Density:  ${current_dens} g/cmÂ³"
  Density:  1.03891514365325 g/cm³
print "  Pressure: ${current_press} atm"
  Pressure: -859.499849950345 atm
print "  Volume:   ${current_vol} Ã…Â³"
  Volume:   54910.6035894276 …³

if "${current_dens} < 0.85" then     "print 'ERROR: Density dropped to ${current_dens} during pre-equilibration!'"     "print 'Expected: Still ~0.95 g/cmÂ³ (may increase slightly due to compression)'"     "print 'System failed before main pressure ramp even started!'"     "quit 1"

print "âœ“ Checkpoint 2 PASSED: System stable at 100 atm"
œ“ Checkpoint 2 PASSED: System stable at 100 atm

#==============================================================================
# STAGE 2: GENTLE Pressure Ramp (100 â†’ 1 atm, 100 ps) - CORRECTED
#==============================================================================
print ""

print "===== STAGE 2: Gentle Pressure Ramp (100 ps, GPU) ====="
===== STAGE 2: Gentle Pressure Ramp (100 ps, GPU) =====
print "Ramping pressure from 100 atm â†’ 1 atm with drag damping"
Ramping pressure from 100 atm †’ 1 atm with drag damping
print ""

print "COMPARISON TO FAILED VERSION:"
COMPARISON TO FAILED VERSION:
print "  OLD: 50 atm â†’ 1 atm, no pre-equil â†’ 169,712 atm spike at step 51k"
  OLD: 50 atm †’ 1 atm, no pre-equil †’ 169,712 atm spike at step 51k
print "  NEW: 100 atm â†’ 1 atm, with pre-equil â†’ should be smooth (< 500 atm max)"
  NEW: 100 atm †’ 1 atm, with pre-equil †’ should be smooth (< 500 atm max)

# ğŸ”§ CRITICAL FIX #4: Add drag damping to prevent explosive expansion
fix mynpt_ramp all npt temp 300.0 300.0 100.0 iso 100.0 1.0 2000.0 drag 2.0

dump ramp_dcd all dcd 1000 pressure_ramp.dcd
dump_modify ramp_dcd unwrap yes

# Monitor closely during ramp (every 500 steps = 1 ps)
thermo 500

run 50000  # 100 ps at 2 fs timestep
PPPM initialization ...
  extracting TIP4P info from pair style
  using 12-bit tables for long-range coulomb
  G vector (1/distance) = 0.28811875
  grid = 50 50 50
  stencil order = 5
  estimated absolute RMS force accuracy = 0.00033344993
  estimated relative force accuracy = 1.0041746e-06
  using double precision FFTW3
  3d grid and FFT values/proc = 205379 125000
Generated 0 of 3 mixed pair_coeff terms from geometric mixing rule
Per MPI rank memory allocation (min/avg/max) = 59.64 | 59.64 | 59.64 Mbytes
   Step          Temp          Press          Volume         PotEng         KinEng         TotEng        Density    
     50010   299.12878     -863.05277      54910.604     -20906.393      3346.3478     -17560.045      1.0389151    
     50500   303.44205      731.7068       54559.3       -20854.152      3394.6002     -17459.552      1.0456046    
     51000   298.12443      151.01081      54453.219     -20790.025      3335.1121     -17454.912      1.0476416    
     51500   301.86837      497.8634       54287.943     -20794.022      3376.9955     -17417.026      1.0508311    
     52000   302.85566      449.56404      54617.5       -20828.646      3388.0402     -17440.606      1.0444905    
     52500   295.43212      287.24798      54681.123     -20763.444      3304.9933     -17458.451      1.0432752    
     53000   300.26313     -149.57178      54526.834     -20763.228      3359.0377     -17404.191      1.0462272    
     53500   299.72739      637.67073      54214.468     -20759.775      3353.0444     -17406.73       1.0522552    
     54000   298.0451       691.74481      54284.454     -20762.851      3334.2246     -17428.627      1.0508986    
     54500   302.43109      306.58104      54399.307     -20779.884      3383.2906     -17396.593      1.0486799    
     55000   296.27279      734.10296      54299.954     -20718.256      3314.3978     -17403.859      1.0505986    
     55500   300.59755     -394.91331      54762.351     -20801.296      3362.7788     -17438.517      1.0417277    
     56000   301.27912     -245.82181      55125.906     -20776.016      3370.4035     -17405.613      1.0348575    
     56500   296.95465     -354.78903      54727.336     -20702.034      3322.0257     -17380.009      1.0423942    
     57000   297.47335     -723.27346      54744.181     -20755.857      3327.8285     -17428.028      1.0420734    
     57500   301.73837      653.68734      54636.645     -20815.105      3375.5412     -17439.564      1.0441245    
     58000   301.17768     -503.81912      54553.927     -20792.64       3369.2687     -17423.371      1.0457076    
     58500   300.43162     -569.33146      54333.654     -20803.127      3360.9226     -17442.204      1.049947     
     59000   298.55134      226.74058      53984.499     -20784.245      3339.8879     -17444.357      1.0567377    
     59500   298.98772      198.71671      54422         -20801.895      3344.7697     -17457.126      1.0482426    
     60000   299.14463     -478.2978       54599.89      -20777.474      3346.525      -17430.949      1.0448273    
     60500   297.56516      81.387002      54292.406     -20738.758      3328.8556     -17409.903      1.0507447    
     61000   296.52392     -376.90621      54233.898     -20776.836      3317.2072     -17459.629      1.0518782    
     61500   300.34458      569.9943       54165.608     -20798.02       3359.9489     -17438.071      1.0532044    
     62000   300.50114     -441.25452      54333.054     -20797.66       3361.7002     -17435.959      1.0499586    
     62500   304.37614     -427.64893      54238.857     -20793.846      3405.0499     -17388.796      1.0517821    
     63000   297.94052      354.38019      54264.991     -20717.286      3333.0546     -17384.231      1.0512755    
     63500   292.31176      178.79716      54804.74      -20680.972      3270.0859     -17410.886      1.040922     
     64000   298.25072      135.49701      54918.211     -20716.403      3336.5249     -17379.878      1.0387712    
     64500   299.49421      43.500405      54894.184     -20756.947      3350.4358     -17406.512      1.0392259    
     65000   299.09171      704.36399      54270.851     -20732.997      3345.933      -17387.064      1.051162     
     65500   295.87182     -501.8373       54443.473     -20688.523      3309.9122     -17378.61       1.0478291    
     66000   299.257        505.81087      54459.919     -20784.687      3347.7822     -17436.905      1.0475127    
     66500   298.52248      244.25661      54503.806     -20727.189      3339.5651     -17387.624      1.0466693    
     67000   299.74797      464.3112       54450.313     -20751.267      3353.2746     -17397.992      1.0476975    
     67500   294.08357      236.54916      54406.352     -20713.936      3289.9071     -17424.029      1.0485441    
     68000   299.66875     -174.68558      54133.507     -20707.417      3352.3883     -17355.029      1.053829     
     68500   299.79412      310.77834      54513.107     -20762.651      3353.7908     -17408.86       1.0464907    
     69000   299.17288     -77.836993      54729.97      -20746.622      3346.8411     -17399.781      1.042344     
     69500   305.35918      669.10143      54490.853     -20815.535      3416.0471     -17399.488      1.0469181    
     70000   297.53504      63.023141      54797.054     -20766.267      3328.5186     -17437.748      1.041068     
     70500   303.3084      -206.71347      54290.84      -20832.046      3393.105      -17438.941      1.050775     
     71000   293.40211      563.05168      54341.14      -20711.895      3282.2836     -17429.611      1.0498024    
     71500   305.61326     -434.602        54371.692     -20836.652      3418.8894     -17417.762      1.0492125    
     72000   298.51179     -765.02229      54375.659     -20715.963      3339.4454     -17376.517      1.0491359    
     72500   298.05554      142.79669      54724.106     -20708.938      3334.3414     -17374.597      1.0424557    
     73000   296.74633      724.5992       54644.97      -20721.783      3319.6953     -17402.088      1.0439654    
     73500   296.00231      316.44838      54648.539     -20678.876      3311.3719     -17367.504      1.0438972    
     74000   296.27705      336.80703      54808.335     -20740.885      3314.4455     -17426.44       1.0408537    
     74500   297.21515     -567.94073      54561.087     -20774.76       3324.9399     -17449.821      1.0455704    
     75000   302.4942       260.38538      54321.208     -20831.689      3383.9966     -17447.693      1.0501876    
     75500   298.76772     -1040.6588      54283.672     -20761.121      3342.3085     -17418.812      1.0509138    
     76000   300.01165      138.15179      54043.25      -20755.287      3356.2244     -17399.062      1.0555889    
     76500   296.73124     -288.40294      54360.751     -20741.879      3319.5265     -17422.353      1.0494237    
     77000   298.65099     -234.78925      54476.947     -20737.859      3341.0027     -17396.856      1.0471853    
     77500   299.79472     -131.99544      53997.294     -20730.526      3353.7976     -17376.728      1.0564873    
     78000   296.62766     -598.21112      54254.067     -20709.022      3318.3678     -17390.654      1.0514872    
     78500   298.13272     -227.38647      54196.917     -20732.991      3335.2048     -17397.787      1.052596     
     79000   302.1383      -331.74123      54578.033     -20838.334      3380.0152     -17458.319      1.0452458    
     79500   295.62944      28.23668       54525.243     -20729.517      3307.2007     -17422.317      1.0462577    
     80000   305.07761      141.44803      54839.991     -20877.573      3412.8971     -17464.676      1.0402529    
     80500   303.10537     -0.091676997    54499.975     -20811.405      3390.8337     -17420.572      1.0467428    
     81000   300.91264     -234.36369      54778.336     -20844.71       3366.3037     -17478.407      1.0414237    
     81500   303.62501     -7.399299       54826.58      -20842.108      3396.6469     -17445.461      1.0405073    
     82000   300.90489      307.83695      54996.736     -20807.879      3366.217      -17441.662      1.0372881    
     82500   293.04724      327.29943      55125.6       -20702.733      3278.3137     -17424.42       1.0348632    
     83000   299.15869     -176.68419      54848.275     -20786.793      3346.6824     -17440.111      1.0400957    
     83500   298.50724     -548.51269      54581.172     -20736.407      3339.3946     -17397.012      1.0451856    
     84000   298.0551      -240.88732      54718.987     -20700.594      3334.3365     -17366.258      1.0425533    
     84500   300.34046      310.06137      54861.631     -20780.312      3359.9028     -17420.41       1.0398425    
     85000   301.31927      60.125314      54984.432     -20748.822      3370.8527     -17377.969      1.0375202    
     85500   300.9782      -145.7085       55056.041     -20741.691      3367.0371     -17374.654      1.0361707    
     86000   296.7046       157.47512      54587.382     -20647.146      3319.2284     -17327.918      1.0450668    
     86500   304.23164      123.32818      54741.847     -20777.156      3403.4333     -17373.723      1.0421179    
     87000   304.79401      86.600972      54653.829     -20834.876      3409.7246     -17425.151      1.0437962    
     87500   300.5593      -94.35395       54912.427     -20816.3        3362.3509     -17453.949      1.0388807    
     88000   300.29317      593.47845      54949.322     -20794.144      3359.3737     -17434.77       1.0381831    
     88500   299.70766      878.02647      54724.279     -20774.485      3352.8236     -17421.662      1.0424524    
     89000   294.75016      882.79742      54791.142     -20676.979      3297.3641     -17379.614      1.0411803    
     89500   298.17616      523.83812      55035.786     -20786.28       3335.6908     -17450.59       1.0365521    
     90000   297.4437      -174.96822      55166.634     -20763.553      3327.4968     -17436.056      1.0340935    
     90500   301.92831     -167.42403      54892.08      -20803.359      3377.666      -17425.693      1.0392657    
     91000   300.6116       145.16856      54561.752     -20768.296      3362.9359     -17405.36       1.0455577    
     91500   298.24377     -483.14245      54732.225     -20763.485      3336.4472     -17427.038      1.0423011    
     92000   297.82429      249.06625      54780.563     -20748.671      3331.7544     -17416.917      1.0413814    
     92500   298.99559     -244.78623      55021.99      -20809.181      3344.8578     -17464.323      1.036812     
     93000   304.90004      452.25744      54707.55      -20823.716      3410.9107     -17412.805      1.0427712    
     93500   298.73814      182.53004      54935.021     -20752.888      3341.9776     -17410.91       1.0384534    
     94000   296.47856      393.76214      54636.397     -20733.096      3316.6998     -17416.397      1.0441292    
     94500   296.13923     -379.41913      54686.25      -20750.737      3312.9037     -17437.834      1.0431773    
     95000   298.51884      217.14685      54471.369     -20792.571      3339.5243     -17453.047      1.0472925    
     95500   298.99762     -591.51151      55011.872     -20774.751      3344.8804     -17429.871      1.0370027    
     96000   298.70427     -374.41103      54953.276     -20737.071      3341.5988     -17395.472      1.0381084    
     96500   294.99977      670.25417      54830.337     -20695.253      3300.1565     -17395.097      1.040436     
     97000   301.28181      283.72847      54662.33      -20808.11       3370.4336     -17437.676      1.0436338    
     97500   299.84511      60.140795      54616.292     -20734.165      3354.3613     -17379.804      1.0445136    
     98000   300.36463     -787.05841      54665.502     -20780.489      3360.1732     -17420.316      1.0435733    
     98500   302.95594     -68.938269      54431.512     -20848.093      3389.1621     -17458.93       1.0480594    
     99000   299.48059     -363.17559      54705.607     -20781.623      3350.2834     -17431.34       1.0428082    
     99500   303.92752     -9.1111883      54308.142     -20798.764      3400.0311     -17398.733      1.0504402    
    100000   299.82885     -438.69956      54331.614     -20702.705      3354.1794     -17348.525      1.0499864    
    100010   298.36691     -439.77866      54332.795     -20683.91       3337.8247     -17346.086      1.0499636    
Loop time of 1961.85 on 10 procs for 50000 steps with 5541 atoms

Performance: 4.404 ns/day, 5.450 hours/ns, 25.486 timesteps/s, 141.219 katom-step/s
670.0% CPU use with 1 MPI tasks x 10 OpenMP threads

MPI task timing breakdown:
Section |  min time  |  avg time  |  max time  |%varavg| %total
---------------------------------------------------------------
Pair    | 48.262     | 48.262     | 48.262     |   0.0 |  2.46
Bond    | 0.68168    | 0.68168    | 0.68168    |   0.0 |  0.03
Kspace  | 1017.8     | 1017.8     | 1017.8     |   0.0 | 51.88
Neigh   | 0.095367   | 0.095367   | 0.095367   |   0.0 |  0.00
Comm    | 19.14      | 19.14      | 19.14      |   0.0 |  0.98
Output  | 0.05821    | 0.05821    | 0.05821    |   0.0 |  0.00
Modify  | 867.12     | 867.12     | 867.12     |   0.0 | 44.20
Other   |            | 8.693      |            |       |  0.44

Nlocal:           5541 ave        5541 max        5541 min
Histogram: 1 0 0 0 0 0 0 0 0 0
Nghost:          35373 ave       35373 max       35373 min
Histogram: 1 0 0 0 0 0 0 0 0 0
Neighs:              0 ave           0 max           0 min
Histogram: 1 0 0 0 0 0 0 0 0 0

Total # of neighbors = 0
Ave neighs/atom = 0
Ave special neighs/atom = 2.4872767
Neighbor list builds = 4651
Dangerous builds = 0

thermo 1000  # Return to normal frequency

unfix mynpt_ramp
undump ramp_dcd

write_restart pressure_ramp_complete.restart
System init for write_restart ...
PPPM initialization ...
  extracting TIP4P info from pair style
  using 12-bit tables for long-range coulomb
  G vector (1/distance) = 0.28830532
  grid = 50 50 50
  stencil order = 5
  estimated absolute RMS force accuracy = 0.00033010869
  estimated relative force accuracy = 9.9411252e-07
  using double precision FFTW3
  3d grid and FFT values/proc = 205379 125000
Generated 0 of 3 mixed pair_coeff terms from geometric mixing rule
write_data pressure_ramp_complete.data
System init for write_data ...
PPPM initialization ...
  extracting TIP4P info from pair style
  using 12-bit tables for long-range coulomb
  G vector (1/distance) = 0.28830532
  grid = 50 50 50
  stencil order = 5
  estimated absolute RMS force accuracy = 0.00033010869
  estimated relative force accuracy = 9.9411252e-07
  using double precision FFTW3
  3d grid and FFT values/proc = 205379 125000
Generated 0 of 3 mixed pair_coeff terms from geometric mixing rule
WARNING: Not all mixed pair coeffs generated from mixing. Use write_data with 'pair ij' option to store all pair coeffs. (src/write_data.cpp:364)

# ğŸ”§ CHECKPOINT #3: Critical check after ramp (most likely failure point)
variable current_dens equal density
variable current_press equal press
variable current_vol equal vol
variable current_boxsize equal vol^(1.0/3.0)

print ""

print "Pressure ramp complete:"
Pressure ramp complete:
print "  Density:  ${current_dens} g/cmÂ³"
  Density:  1.04996360781751 g/cm³
print "  Pressure: ${current_press} atm"
  Pressure: -439.778664007583 atm
print "  Volume:   ${current_vol} Ã…Â³"
  Volume:   54332.7951478035 …³
print "  Box size: ${current_boxsize} Ã…"
  Box size: 37.8751198660805 …

if "${current_dens} < 0.75" then     "print ''"     "print 'ğŸ”´ CRITICAL ERROR: Density collapsed to ${current_dens} g/cmÂ³!'"     "print ''"     "print 'This means the PPPM artifact occurred despite fixes.'"     "print 'Check equilibration.log for pressure spike around step 75,000-85,000'"     "print ''"     "print 'If pressure exceeded 10,000 atm during ramp:'"     "print '  â†’ PPPM grid still recalculating (increase mesh size)'"     "print '  â†’ Try mesh 50 50 50 or mesh 60 60 60'"     "print ''"     "print 'If pressure stayed < 1,000 atm but density still dropped:'"     "print '  â†’ Initial configuration may be problematic'"     "print '  â†’ Check initial_system.data for pre-existing issues'"     "print ''"     "quit 1"

print "âœ“ Checkpoint 3 PASSED: Pressure ramp successful, liquid phase maintained"
œ“ Checkpoint 3 PASSED: Pressure ramp successful, liquid phase maintained

#==============================================================================
# STAGE 3: NPT Equilibration (Complete 1000 ps with 2-phase strategy)
#==============================================================================
print ""

print "===== STAGE 3: NPT Equilibration (1000 ps, GPU) ====="
===== STAGE 3: NPT Equilibration (1000 ps, GPU) =====
print "Equilibrating at 300K, 1 atm with improved pressure control"
Equilibrating at 300K, 1 atm with improved pressure control
print ""

print "Strategy:"
Strategy:
print "  Phase 1 (400 ps): Higher damping for gentle pressure equilibration"
  Phase 1 (400 ps): Higher damping for gentle pressure equilibration
print "  Phase 2 (600 ps): Standard damping for final equilibration"
  Phase 2 (600 ps): Standard damping for final equilibration
print ""


# Phase 1: Gentle NPT with stronger pressure damping (400 ps)
print "Phase 1: Gentle pressure equilibration (400 ps, pdamp=5000)..."
Phase 1: Gentle pressure equilibration (400 ps, pdamp=5000)...
# ğŸ”§ CRITICAL: Using npt/gpu instead of npt for FULL GPU acceleration
fix mynpt_gentle all npt/gpu temp 300.0 300.0 100.0 iso 1.0 1.0 5000.0

dump npt_traj all custom 2000 npt_equilibration.lammpstrj id type xu yu zu
dump_modify npt_traj sort id

dump npt_dcd all dcd 2000 npt_equilibration.dcd
dump_modify npt_dcd unwrap yes

# Thermodynamic averaging during NPT
fix thermo_avg_npt all ave/time 100 10 1000 v_epsilon_co v_temp v_press v_pe v_ke v_etotal v_vol v_dens     file npt_equilibration_thermo.dat

run 200000  # 400 ps at 2 fs timestep
PPPM initialization ...
  extracting TIP4P info from pair style
  using 12-bit tables for long-range coulomb
  G vector (1/distance) = 0.28830532
  grid = 50 50 50
  stencil order = 5
  estimated absolute RMS force accuracy = 0.00033010869
  estimated relative force accuracy = 9.9411252e-07
  using double precision FFTW3
  3d grid and FFT values/proc = 205379 125000
Generated 0 of 3 mixed pair_coeff terms from geometric mixing rule
Per MPI rank memory allocation (min/avg/max) = 59.64 | 59.64 | 59.64 Mbytes
   Step          Temp          Press          Volume         PotEng         KinEng         TotEng        Density    
    100010   298.36691     -438.46311      54332.795     -20683.894      3337.8247     -17346.07       1.0499636    
    101000   303.73465      35.660388      54743.06      -20717.326      3397.8735     -17319.452      1.0420948    
    102000   303.09906      323.84713      54702.696     -20720.268      3390.7632     -17329.505      1.0428637    
    103000   302.53671     -229.09247      54656.811     -20765.762      3384.4721     -17381.29       1.0437392    
    104000   302.83955      513.52273      54283.432     -20802.292      3387.86       -17414.432      1.0509184    
    105000   298.15783     -176.20721      55143.239     -20687.596      3335.4857     -17352.111      1.0345322    
    106000   307.59273     -355.56268      55486.68      -20649.871      3441.0337     -17208.837      1.0281289    
    107000   294.6386      -101.34696      54153.282     -20769.941      3296.1162     -17473.825      1.0534441    
    108000   304.49247      73.440677      54573.496     -20826.423      3406.3513     -17420.071      1.0453327    
    109000   309.64389     -961.02856      54677.19      -20852.348      3463.98       -17388.368      1.0433502    
    110000   301.52529      149.91995      54341.896     -20748.48       3373.1574     -17375.322      1.0497878    
    111000   298.67416     -616.305        54773.984     -20905.083      3341.2618     -17563.821      1.0415064    
    112000   300.42364     -469.31959      55074.029     -20751.578      3360.8333     -17390.744      1.0358323    
    113000   303.38032      232.42609      54908.524     -20802.585      3393.9096     -17408.675      1.0389545    
    114000   303.96615      547.23064      54453.076     -20832.023      3400.4633     -17431.56       1.0476444    
    115000   308.33741     -265.27225      54868.538     -20729.095      3449.3645     -17279.731      1.0397116    
    116000   299.49411     -238.2356       54292.705     -20727.867      3350.4346     -17377.433      1.0507389    
    117000   302.39065      9.3507427      54182.11      -20729.058      3382.8382     -17346.22       1.0528836    
    118000   298.94189     -606.81369      54816.128     -20766.023      3344.257      -17421.766      1.0407057    
    119000   294.84837      559.38493      54469.992     -20766.794      3298.4629     -17468.331      1.047319     
    120000   303.05025     -467.63061      55007.837     -20781.658      3390.2171     -17391.44       1.0370787    
    121000   292.20334      462.81796      54678.3       -20785.569      3268.8729     -17516.697      1.043329     
    122000   301.97448      609.50544      54183.155     -20893.412      3378.1825     -17515.23       1.0528633    
    123000   299.96235      171.44224      55160.471     -20746.902      3355.6728     -17391.229      1.034209     
    124000   298.06877     -294.63631      55044.606     -20710.739      3334.4894     -17376.25       1.036386     
    125000   299.75686     -617.39887      54831.092     -20746.553      3353.3741     -17393.179      1.0404217    
    126000   297.13569      94.165719      54453.682     -20610.849      3324.0511     -17286.798      1.0476327    
    127000   297.61204      964.84832      54591.009     -20742.671      3329.3799     -17413.291      1.0449973    
    128000   296.77065     -892.47534      54970.274     -20710.325      3319.9674     -17390.357      1.0377874    
    129000   293.65964      706.81563      54197.407     -20787.504      3285.1646     -17502.34       1.0525865    
    130000   297.50384     -246.28862      54520.826     -20605.746      3328.1696     -17277.576      1.0463425    
    131000   293.63997      313.94035      54563.874     -20776.292      3284.9446     -17491.347      1.045517     
    132000   299.82878     -2.7704547      54732.338     -20842.58       3354.1786     -17488.401      1.0422989    
    133000   301.93728     -279.01891      55090.43      -20891.21       3377.7664     -17513.443      1.0355239    
    134000   301.88613      322.22745      55185.08      -20726.586      3377.1942     -17349.392      1.0337478    
    135000   298.79128      272.08434      55054.635     -20719.684      3342.5721     -17377.112      1.0361972    
    136000   293.8037      -824.10172      54562.871     -20755.057      3286.7762     -17468.281      1.0455362    
    137000   301.31474     -716.75666      54298.726     -20848.525      3370.802      -17477.723      1.0506224    
    138000   298.47857      514.60997      54766.691     -20774.823      3339.0739     -17435.75       1.0416451    
    139000   300.59854     -145.13305      55314.342     -20677.203      3362.7899     -17314.413      1.0313321    
    140000   294.18848      377.96387      55049.414     -20837.07       3291.0807     -17545.989      1.0362955    
    141000   299.6604      -260.60284      54911.618     -20850.015      3352.2949     -17497.721      1.0388959    
    142000   302.71464      104.98074      54544.48      -20811.863      3386.4626     -17425.4        1.0458887    
    143000   300.94737     -84.268492      54715.42      -20849.546      3366.6922     -17482.854      1.0426212    
    144000   299.67165      60.455722      54666.918     -20747.636      3352.4208     -17395.216      1.0435463    
    145000   294.8517      -610.16351      54266.886     -20724.43       3298.5001     -17425.93       1.0512388    
    146000   306.07639      156.59293      54739.149     -20681.888      3424.0704     -17257.818      1.0421693    
    147000   303.10386     -121.49063      54496.749     -20873.45       3390.8169     -17482.633      1.0468048    
    148000   302.51817     -317.81772      55163.697     -20685.19       3384.2647     -17300.925      1.0341486    
    149000   297.67845     -51.281062      55212.514     -20888.724      3330.123      -17558.601      1.0332342    
    150000   297.4124       536.72555      54291.614     -20810.58       3327.1466     -17483.434      1.05076      
    151000   302.98225      62.463024      54721.491     -20746.168      3389.4564     -17356.712      1.0425055    
    152000   298.41198     -195.45404      55218.71      -20836.307      3338.3289     -17497.978      1.0331183    
    153000   300.2464      -208.77157      54944.319     -20741.995      3358.8505     -17383.144      1.0382776    
    154000   296.8225      -160.09173      54811.827     -20676.987      3320.5474     -17356.44       1.0407874    
    155000   300.38277     -523.05982      54673.626     -20837.578      3360.3761     -17477.202      1.0434182    
    156000   294.6268       136.42431      54565.511     -20847.529      3295.9841     -17551.544      1.0454856    
    157000   304.46044      116.93566      55071.268     -20789.704      3405.9929     -17383.712      1.0358842    
    158000   302.37948      318.6937       55007.895     -20781.353      3382.7132     -17398.639      1.0370776    
    159000   303.99954      796.57633      54448.589     -20839.328      3400.8369     -17438.491      1.0477307    
    160000   301.0163       785.01806      54385.849     -20833.832      3367.4634     -17466.369      1.0489394    
    161000   296.72742      175.09123      55092.977     -20784.837      3319.4838     -17465.353      1.035476     
    162000   301.16039     -36.131876      54596.304     -20852.415      3369.0753     -17483.34       1.044896     
    163000   294.11566      92.670679      54599.076     -20765.932      3290.2661     -17475.666      1.0448429    
    164000   297.23243     -457.9515       55246.687     -20679.585      3325.1333     -17354.452      1.0325951    
    165000   305.11791     -156.59594      54614.212     -20842.79       3413.348      -17429.442      1.0445533    
    166000   295.96319     -355.61992      54601.603     -20801.144      3310.9343     -17490.21       1.0447946    
    167000   304.54848     -402.16133      55161.391     -20752.967      3406.9778     -17345.989      1.0341918    
    168000   297.38265      83.965946      55353.123     -20719.45       3326.8138     -17392.637      1.0306096    
    169000   296.49909      206.72756      54865.703     -20750.975      3316.9295     -17434.046      1.0397654    
    170000   299.18323      22.274692      54443.43      -20797.794      3346.9568     -17450.837      1.04783      
    171000   298.14861      188.19624      54638.239     -20741.143      3335.3826     -17405.76       1.044094     
    172000   297.25454     -189.23927      54710.977     -20781.255      3325.3806     -17455.874      1.0427059    
    173000   295.50817      102.21021      54959.307     -20753.554      3305.844      -17447.71       1.0379945    
    174000   298.08635     -917.33529      54946.105     -20820.262      3334.686      -17485.576      1.0382439    
    175000   296.70381      169.40023      54562.022     -20673.947      3319.2196     -17354.728      1.0455525    
    176000   302.90659      204.42207      54948.899     -20738.964      3388.61       -17350.354      1.0381911    
    177000   302.62405      827.78994      54960.335     -20763.504      3385.4492     -17378.055      1.0379751    
    178000   298.69521     -71.739917      54544.493     -20810.167      3341.4974     -17468.669      1.0458885    
    179000   301.05445      178.4649       54911.086     -20881.272      3367.8902     -17513.382      1.038906     
    180000   298.45961      115.31162      55373.77      -20817.195      3338.8617     -17478.334      1.0302253    
    181000   299.09697     -364.33449      54797.908     -20748.988      3345.9919     -17402.996      1.0410517    
    182000   301.22212     -391.68669      54603.842     -20740.133      3369.7658     -17370.367      1.0447517    
    183000   304.65419      222.56103      54981.453     -20737.732      3408.1604     -17329.572      1.0375764    
    184000   302.01007      596.25486      54956.737     -20831.004      3378.5807     -17452.424      1.038043     
    185000   301.95241     -73.427418      54491.724     -20713.175      3377.9356     -17335.239      1.0469013    
    186000   298.84629      465.34437      54989.199     -20696.406      3343.1875     -17353.219      1.0374302    
    187000   300.50556     -259.28156      55546.825     -20797.306      3361.7498     -17435.557      1.0270156    
    188000   307.27955      719.66729      54610.063     -20837.602      3437.5302     -17400.071      1.0446327    
    189000   295.42979     -253.41412      54460.791     -20781.314      3304.9672     -17476.347      1.0474959    
    190000   300.31708      90.031014      54507.783     -20595.849      3359.6412     -17236.208      1.0465929    
    191000   297.19545      273.83113      54415.459     -20809.181      3324.7196     -17484.461      1.0483686    
    192000   307.15861      170.69851      54890.83      -20566.294      3436.1772     -17130.117      1.0392894    
    193000   304.22639     -247.91346      55079.566     -20837.016      3403.3746     -17433.642      1.0357282    
    194000   305.17789      395.51178      54730.528     -20627.295      3414.019      -17213.276      1.0423334    
    195000   297.22433      150.86225      54149.29      -20762.533      3325.0427     -17437.491      1.0535218    
    196000   298.25478     -122.65532      53843.33      -20740.541      3336.5703     -17403.971      1.0595083    
    197000   298.55021     -39.62397       54540.59      -20951.46       3339.8752     -17611.585      1.0459633    
    198000   301.66969      137.97767      54645.883     -20733.276      3374.7728     -17358.503      1.043948     
    199000   302.11196     -227.21122      54397.404     -20727.804      3379.7205     -17348.084      1.0487165    
    200000   301.52107     -165.60275      54536.83      -20666.099      3373.1102     -17292.989      1.0460355    
    201000   297.98442      204.93314      54504.924     -20718.694      3333.5458     -17385.148      1.0466478    
    202000   299.746        852.72192      54222.92      -20787.535      3353.2526     -17434.282      1.0520912    
    203000   298.6283       215.25145      54363.58      -20788.1        3340.7488     -17447.351      1.049369     
    204000   299.50227     -222.76219      54552.534     -20647.19       3350.526      -17296.664      1.0457343    
    205000   292.73928      194.7805       54357.991     -20745.809      3274.8685     -17470.941      1.0494769    
    206000   301.31872     -596.56803      54731.742     -20736.077      3370.8466     -17365.23       1.0423103    
    207000   303.38632      764.4209       54568.322     -20771.653      3393.9767     -17377.676      1.0454318    
    208000   294.53952      434.19264      54316.019     -20730.987      3295.0078     -17435.98       1.0502879    
    209000   293.82948     -611.80952      54801.133     -20789.099      3287.0645     -17502.034      1.0409905    
    210000   300.72574     -849.72303      55476.525     -20819.651      3364.2129     -17455.438      1.0283171    
    211000   302.92879      416.70342      54774.167     -20717.687      3388.8583     -17328.828      1.041503     
    212000   305.41442     -165.79818      54392.969     -20779.648      3416.665      -17362.983      1.0488021    
    213000   296.77535      111.52612      54489.889     -20734.18       3320.0199     -17414.16       1.0469366    
    214000   297.95153      288.00755      54812.116     -20802.613      3333.1778     -17469.435      1.0407819    
    215000   296.25739      140.69449      55119.542     -20774.616      3314.2255     -17460.39       1.034977     
    216000   302.60765      573.36914      54977.72      -20704.797      3385.2657     -17319.532      1.0376468    
    217000   301.14475     -183.10652      54476.548     -20797.392      3368.9003     -17428.492      1.047193     
    218000   300.79049     -289.3222       54972.253     -20827.61       3364.9373     -17462.672      1.03775      
    219000   294.49378     -273.93157      55076.621     -20801.078      3294.4961     -17506.582      1.0357835    
    220000   301.46711     -468.10265      54729.869     -20752.155      3372.5066     -17379.648      1.0423459    
    221000   296.78286      132.00338      54892.23      -20762.233      3320.1039     -17442.129      1.0392629    
    222000   299.39509      510.00249      54757.401     -20683.214      3349.3269     -17333.887      1.0418219    
    223000   295.07557     -248.02711      54754.485     -20750.914      3301.0045     -17449.91       1.0418773    
    224000   301.50276      198.31546      55069.357     -20709.173      3372.9053     -17336.267      1.0359202    
    225000   298.51107     -204.89985      55250.224     -20786.936      3339.4374     -17447.499      1.032529     
    226000   301.65097      105.38134      55073.429     -20769.007      3374.5634     -17394.443      1.0358436    
    227000   299.39051      193.86249      54600.133     -20809.956      3349.2757     -17460.68       1.0448227    
    228000   300.56247      206.383        54278.495     -20657.128      3362.3864     -17294.742      1.051014     
    229000   309.52853     -133.10699      54480.617     -20894.866      3462.6895     -17432.176      1.0471147    
    230000   294.93211     -516.5837       55293.218     -20734.752      3299.3996     -17435.353      1.0317261    
    231000   302.11857      324.20907      55221.182     -20703.219      3379.7945     -17323.424      1.033072     
    232000   298.97203      340.62054      54337.547     -20702.963      3344.5942     -17358.368      1.0498718    
    233000   297.7804      -30.872184      54473.012     -20751.745      3331.2634     -17420.481      1.0472609    
    234000   295.85018     -417.50676      54758.608     -20586.047      3309.67       -17276.377      1.0417989    
    235000   300.59501     -54.089929      54927.979     -20747.457      3362.7504     -17384.707      1.0385865    
    236000   292.76005      743.91386      53994.156     -20914.501      3275.1009     -17639.4        1.0565487    
    237000   299.45494      365.91362      54125.379     -20854.33       3349.9964     -17504.333      1.0539872    
    238000   306.75243     -150.70612      55098.167     -20724.645      3431.6334     -17293.012      1.0353785    
    239000   298.61191      307.48474      54667.621     -20794.011      3340.5655     -17453.446      1.0435328    
    240000   296.63935      746.57963      54356.567     -20651.448      3318.4985     -17332.95       1.0495044    
    241000   300.91343      287.30222      55218.161     -20809.158      3366.3126     -17442.846      1.0331285    
    242000   293.19765     -99.541644      55194.378     -20733.111      3279.9962     -17453.115      1.0335737    
    243000   294.72018      314.59938      54785.44      -20705.084      3297.0288     -17408.055      1.0412887    
    244000   302.14506      236.1069       54709.14      -20924.808      3380.0908     -17544.718      1.0427409    
    245000   306.39169     -230.01261      55174.873     -20842.067      3427.5977     -17414.469      1.0339391    
    246000   302.08461     -95.265042      55121.74      -20669.232      3379.4145     -17289.817      1.0349357    
    247000   302.17196     -858.63619      54925.816     -20662.329      3380.3917     -17281.937      1.0386274    
    248000   299.16064     -335.09891      54665.467     -20702.007      3346.7042     -17355.303      1.0435739    
    249000   298.42716      77.282033      54154.186     -20670.179      3338.4988     -17331.68       1.0534266    
    250000   302.67817      572.21892      54657.061     -20746.771      3386.0547     -17360.716      1.0437344    
    251000   304.30123      526.14164      54892.375     -20728.903      3404.2118     -17324.691      1.0392601    
    252000   297.37306      91.14893       54858.169     -20711.606      3326.7065     -17384.9        1.0399082    
    253000   313.25837     -373.30938      54715.454     -20793.138      3504.4152     -17288.723      1.0426206    
    254000   294.68326     -768.80139      54365.411     -20777.057      3296.6158     -17480.441      1.0493337    
    255000   297.04653     -1096.5426      54916.981     -20678.07       3323.0536     -17355.016      1.0387945    
    256000   301.10593      236.59206      54719.769     -20737.78       3368.4661     -17369.314      1.0425383    
    257000   300.47151      474.79119      53902.11      -20753.99       3361.3688     -17392.621      1.0583529    
    258000   303.69974     -296.31062      54314.495     -20790.663      3397.4829     -17393.18       1.0503174    
    259000   295.58724     -919.74881      54967.647     -20791.992      3306.7286     -17485.263      1.037837     
    260000   300.08387      515.63611      54682.017     -20682.404      3357.0323     -17325.371      1.0432581    
    261000   309.20774      112.72722      54770.863     -20664.69       3459.1008     -17205.589      1.0415658    
    262000   300.88543      230.23831      54741.059     -20863.235      3365.9993     -17497.236      1.0421329    
    263000   296.91141     -74.128835      54702.654     -20643.657      3321.5421     -17322.115      1.0428645    
    264000   299.01787     -308.64975      54755.254     -20833.698      3345.1069     -17488.591      1.0418627    
    265000   295.91511     -182.35359      55045.641     -20828.939      3310.3964     -17518.543      1.0363665    
    266000   303.813        163.772        55219.589     -20658.823      3398.75       -17260.073      1.0331018    
    267000   294.22451      973.13946      54625.006     -20742.292      3291.4838     -17450.808      1.0443469    
    268000   297.5244      -321.52383      54584.574     -20797.422      3328.3996     -17469.022      1.0451205    
    269000   298.39835     -801.82616      54968.479     -20705.131      3338.1764     -17366.955      1.0378213    
    270000   294.45286     -266.58797      54004.725     -20885.754      3294.0383     -17591.715      1.056342     
    271000   301.92198     -92.201011      54612.152     -20664.841      3377.5952     -17287.245      1.0445927    
    272000   300.1105       10.021165      54996.632     -20761.872      3357.3302     -17404.542      1.03729      
    273000   303.59613     -259.52272      55027.265     -20856.639      3396.3239     -17460.315      1.0367126    
    274000   303.66994      89.971658      54700.208     -20940.904      3397.1495     -17543.755      1.0429112    
    275000   298.30649     -324.91496      54990.911     -20791.725      3337.1488     -17454.576      1.0373979    
    276000   303.34593     -486.06544      55150.162     -20678.787      3393.5249     -17285.262      1.0344024    
    277000   305.90321      124.87936      54206.258     -20669.34       3422.1331     -17247.207      1.0524146    
    278000   302.97493      621.31189      54250.557     -20774.444      3389.3745     -17385.07       1.0515553    
    279000   298.27041     -229.24724      54949.099     -20693.92       3336.7452     -17357.174      1.0381873    
    280000   301.2917       348.52927      54494.223     -20933.132      3370.5442     -17562.587      1.0468533    
    281000   300.1012      -579.62129      54755.895     -20807.456      3357.2261     -17450.229      1.0418505    
    282000   298.96824      131.5389       54663.003     -20784.115      3344.5518     -17439.563      1.043621     
    283000   300.37422     -411.7796       55033.448     -20740.438      3360.2804     -17380.158      1.0365961    
    284000   297.38403     -336.08985      55252.962     -20841.457      3326.8293     -17514.628      1.0324778    
    285000   299.51361      76.846237      55205.021     -20787.82       3350.6528     -17437.168      1.0333744    
    286000   299.63027      189.41405      54844.684     -20667.243      3351.9579     -17315.285      1.0401638    
    287000   296.92896      320.46896      54443.384     -20778.962      3321.7384     -17457.224      1.0478308    
    288000   301.32889     -29.078937      55394.758     -20681.542      3370.9602     -17310.582      1.029835     
    289000   301.27393      662.70589      55055.73      -20800.647      3370.3455     -17430.302      1.0361766    
    290000   304.23187     -576.6492       54907.534     -20856.25       3403.4359     -17452.815      1.0389732    
    291000   299.20522      258.58747      54533.354     -20793.052      3347.2028     -17445.849      1.0461021    
    292000   307.78063      272.16769      54966.267     -20817.28       3443.1358     -17374.144      1.037863     
    293000   299.6768      -69.547714      55010.088     -20695.219      3352.4784     -17342.74       1.0370363    
    294000   295.98311     -118.68454      54513.346     -20710.883      3311.1571     -17399.726      1.0464861    
    295000   304.70027     -493.42652      54901.9       -20749.496      3408.6759     -17340.82       1.0390798    
    296000   296.00799      77.608021      55255.969     -20805.36       3311.4355     -17493.925      1.0324216    
    297000   295.31742     -20.208294      54836.96      -20911.028      3303.7101     -17607.318      1.0403104    
    298000   307.6555       179.99818      55233.791     -20763.801      3441.736      -17322.065      1.0328362    
    299000   299.89934     -73.153707      55272.472     -20743.121      3354.9679     -17388.153      1.0321134    
    300000   304.65384      677.30919      54420.332     -20828.598      3408.1565     -17420.442      1.0482747    
    300010   304.71916      453.59142      54416.748     -20813.583      3408.8871     -17404.695      1.0483437    
Loop time of 7825.61 on 10 procs for 200000 steps with 5541 atoms

Performance: 4.416 ns/day, 5.434 hours/ns, 25.557 timesteps/s, 141.612 katom-step/s
665.9% CPU use with 1 MPI tasks x 10 OpenMP threads

MPI task timing breakdown:
Section |  min time  |  avg time  |  max time  |%varavg| %total
---------------------------------------------------------------
Pair    | 177.67     | 177.67     | 177.67     |   0.0 |  2.27
Bond    | 2.3435     | 2.3435     | 2.3435     |   0.0 |  0.03
Kspace  | 4021.1     | 4021.1     | 4021.1     |   0.0 | 51.38
Neigh   | 0.37734    | 0.37734    | 0.37734    |   0.0 |  0.00
Comm    | 76.476     | 76.476     | 76.476     |   0.0 |  0.98
Output  | 0.87765    | 0.87765    | 0.87765    |   0.0 |  0.01
Modify  | 3512.4     | 3512.4     | 3512.4     |   0.0 | 44.88
Other   |            | 34.36      |            |       |  0.44

Nlocal:           5541 ave        5541 max        5541 min
Histogram: 1 0 0 0 0 0 0 0 0 0
Nghost:          35537 ave       35537 max       35537 min
Histogram: 1 0 0 0 0 0 0 0 0 0
Neighs:              0 ave           0 max           0 min
Histogram: 1 0 0 0 0 0 0 0 0 0

Total # of neighbors = 0
Ave neighs/atom = 0
Ave special neighs/atom = 2.4872767
Neighbor list builds = 18563
Dangerous builds = 0

unfix mynpt_gentle

variable phase1_dens equal density
variable phase1_press equal press
print ""

print "Phase 1 complete:"
Phase 1 complete:
print "  Density:  ${phase1_dens} g/cmÂ³"
  Density:  1.0483437453297 g/cm³
print "  Pressure: ${phase1_press} atm"
  Pressure: 453.591419675908 atm
print ""


# Phase 2: Standard NPT damping (600 ps)
print "Phase 2: Final equilibration (600 ps, pdamp=2000)..."
Phase 2: Final equilibration (600 ps, pdamp=2000)...
# ğŸ”§ CRITICAL: Using npt/gpu instead of npt for FULL GPU acceleration
fix mynpt_standard all npt/gpu temp 300.0 300.0 100.0 iso 1.0 1.0 2000.0

run 300000  # 600 ps at 2 fs timestep
PPPM initialization ...
  extracting TIP4P info from pair style
  using 12-bit tables for long-range coulomb
  G vector (1/distance) = 0.2882781
  grid = 50 50 50
  stencil order = 5
  estimated absolute RMS force accuracy = 0.00033059413
  estimated relative force accuracy = 9.9557439e-07
  using double precision FFTW3
  3d grid and FFT values/proc = 205379 125000
Generated 0 of 3 mixed pair_coeff terms from geometric mixing rule
Per MPI rank memory allocation (min/avg/max) = 62.19 | 62.19 | 62.19 Mbytes
   Step          Temp          Press          Volume         PotEng         KinEng         TotEng        Density    
    300010   304.71916      450.81731      54416.748     -20813.577      3408.8871     -17404.69       1.0483437    
    301000   297.36818      738.48828      54370.195     -20789.526      3326.6519     -17462.875      1.0492414    
    302000   296.79008      354.05293      54596.309     -20809.742      3320.1847     -17489.557      1.0448959    
    303000   310.40521      162.99293      54666.015     -20767.829      3472.497      -17295.332      1.0435635    
    304000   303.5927       39.563377      54418.259     -20740.808      3396.2855     -17344.522      1.0483146    
    305000   297.52641      189.33443      54694.294     -20760.225      3328.4221     -17431.802      1.0430239    
    306000   300.98616      636.91136      54511.56      -20683.092      3367.1261     -17315.966      1.0465204    
    307000   301.78468      278.25766      54703.933     -20828.456      3376.0593     -17452.397      1.0428402    
    308000   306.60641      232.60814      54670.478     -20812.044      3429.9998     -17382.045      1.0434783    
    309000   305.2167       260.51716      55287.677     -20736.281      3414.4531     -17321.828      1.0318295    
    310000   299.76229      298.18039      54904.915     -20670.883      3353.4347     -17317.448      1.0390228    
    311000   296.94483     -296.87074      54707.914     -20693.213      3321.9159     -17371.297      1.0427643    
    312000   299.35734     -312.90045      54744.301     -20768.395      3348.9046     -17419.49       1.0420712    
    313000   293.33534      446.796        54618.673     -20829.822      3281.5367     -17548.285      1.044468     
    314000   303.10838     -819.92351      54653.297     -20878.043      3390.8674     -17487.176      1.0438063    
    315000   297.53591     -24.087599      55271.253     -20854.254      3328.5283     -17525.726      1.0321361    
    316000   297.55373      250.91965      54875.762     -20798.312      3328.7277     -17469.584      1.0395748    
    317000   299.77035     -344.94005      54449.442     -20787.114      3353.5249     -17433.59       1.0477143    
    318000   303.73238      106.91689      54826.718     -20694.177      3397.8481     -17296.329      1.0405047    
    319000   301.9653      -181.68582      55303.838     -20890.69       3378.0798     -17512.61       1.031528     
    320000   303.84067      159.35892      54726.893     -20738.641      3399.0595     -17339.581      1.0424026    
    321000   296.87286      15.074138      54836.818     -20834.922      3321.1108     -17513.811      1.0403131    
    322000   298.2562      -318.83862      54872.309     -20696.299      3336.5861     -17359.713      1.0396402    
    323000   296.14906     -374.72156      55392.529     -20822.402      3313.0136     -17509.389      1.0298764    
    324000   302.74461     -234.88569      54828.42      -20779          3386.798      -17392.202      1.0404724    
    325000   307.2438       54.562082      54499.887     -20900.724      3437.1303     -17463.594      1.0467445    
    326000   297.49547     -944.59557      54522.992     -20933.683      3328.0759     -17605.607      1.0463009    
    327000   304.58545     -578.58956      54965.244     -20801.787      3407.3914     -17394.395      1.0378824    
    328000   306.08318      188.3983       54345.859     -20778.064      3424.1465     -17353.918      1.0497112    
    329000   304.1959      -332.14715      55155.372     -20770.603      3403.0335     -17367.569      1.0343047    
    330000   303.43941     -707.31615      55067.649     -20718.963      3394.5706     -17324.392      1.0359523    
    331000   303.6396      -203.08999      54844.843     -20808.285      3396.8101     -17411.475      1.0401608    
    332000   300.69559     -390.04695      54749.152     -20771.674      3363.8756     -17407.798      1.0419788    
    333000   299.02823     -456.93356      54390.678     -20697.294      3345.2229     -17352.071      1.0488462    
    334000   301.42144      972.55283      54345.294     -20910.718      3371.9957     -17538.722      1.0497221    
    335000   309.13885     -586.59221      54825.864     -20823.843      3458.3302     -17365.513      1.0405209    
    336000   300.03647      3.6045925      54326.746     -20686.727      3356.502      -17330.225      1.0500805    
    337000   298.28335     -123.49754      54957.781     -20750.64       3336.8899     -17413.75       1.0380233    
    338000   298.48305     -317.57038      55114.387     -20825.797      3339.124      -17486.673      1.0350738    
    339000   303.23359     -312.37274      54658.238     -20846.702      3392.2681     -17454.434      1.043712     
    340000   306.06813     -490.50888      55175.616     -20827.243      3423.9781     -17403.265      1.0339252    
    341000   302.22156     -65.122528      54686.364     -20970.331      3380.9466     -17589.384      1.0431752    
    342000   300.79368      783.78027      54810.603     -20793.81       3364.9729     -17428.837      1.0408106    
    343000   303.96695     -16.531914      54948.88      -20647.599      3400.4722     -17247.127      1.0381915    
    344000   299.40028      182.68706      54539.653     -20746.231      3349.385      -17396.845      1.0459813    
    345000   295.28802      57.057491      54636.915     -20889.264      3303.3812     -17585.883      1.0441193    
    346000   303.78237     -80.634054      54487.976     -20889.374      3398.4073     -17490.967      1.0469733    
    347000   299.52183     -736.52555      55146.673     -20860.816      3350.7448     -17510.071      1.0344678    
    348000   301.54187      616.32663      54426.07      -20833.285      3373.343      -17459.942      1.0481642    
    349000   298.99797      889.31291      54429.476     -20768.186      3344.8843     -17423.302      1.0480986    
    350000   301.77039     -44.900176      54793.499     -20884.846      3375.8993     -17508.946      1.0411355    
    351000   306.50614     -71.850467      55349.476     -20741.879      3428.8781     -17313.001      1.0306775    
    352000   308.39725      251.85376      54677.277     -20728.581      3450.0339     -17278.547      1.0433486    
    353000   294.28059     -317.22059      54873.761     -20759.878      3292.1111     -17467.767      1.0396127    
    354000   301.66819     -623.04116      54875.68      -20865.574      3374.756      -17490.818      1.0395763    
    355000   298.44633      413.23347      54571.405     -20729.436      3338.7132     -17390.723      1.0453727    
    356000   301.81554     -179.93622      54577.276     -20790.503      3376.4044     -17414.098      1.0452603    
    357000   300.23241     -40.926383      54978.985     -20768.272      3358.6939     -17409.578      1.037623     
    358000   307.5195       155.49614      55237.041     -20796.79       3440.2145     -17356.576      1.0327754    
    359000   304.66062      133.57727      54949.394     -20861.883      3408.2323     -17453.65       1.0381817    
    360000   302.67369     -362.94811      55264.315     -20805.247      3386.0046     -17419.242      1.0322657    
    361000   303.42354      999.69234      54314.035     -20718.11       3394.3931     -17323.717      1.0503263    
    362000   295.67107     -365.39231      54660.695     -20712.009      3307.6664     -17404.343      1.0436651    
    363000   295.0635       61.346484      55271.701     -20673.687      3300.8695     -17372.818      1.0321278    
    364000   298.19063     -698.10321      54979.973     -20704.938      3335.8527     -17369.085      1.0376043    
    365000   302.32772     -41.774029      54621.868     -20873.848      3382.1342     -17491.714      1.0444069    
    366000   299.79266     -722.02989      54796.281     -20730.383      3353.7745     -17376.609      1.0410827    
    367000   295.86882     -592.00836      54282.926     -20616.165      3309.8786     -17306.286      1.0509282    
    368000   302.10876      402.66092      54556.138     -20851.55       3379.6846     -17471.866      1.0456653    
    369000   302.81538      1045.3941      54010.786     -20743.796      3387.5896     -17356.206      1.0562234    
    370000   303.56908     -588.68874      54507.782     -20756.847      3396.0213     -17360.825      1.0465929    
    371000   296.9346       48.458867      54724.733     -20679.025      3321.8015     -17357.223      1.0424438    
    372000   292.27632     -425.34574      54598.72      -20778.659      3269.6893     -17508.97       1.0448497    
    373000   304.55462      1015.5472      54548.709     -20844.264      3407.0465     -17437.218      1.0458077    
    374000   297.69298     -75.136841      54919.374     -20681.594      3330.2855     -17351.308      1.0387492    
    375000   308.35008     -425.19372      54296.175     -20828.512      3449.5062     -17379.006      1.0506718    
    376000   304.28048      28.714049      55038.781     -20727.225      3403.9796     -17323.245      1.0364957    
    377000   295.31305      436.96571      54293.903     -20730.33       3303.6612     -17426.668      1.0507157    
    378000   301.50146     -367.55569      55058.272     -20761.65       3372.8908     -17388.759      1.0361287    
    379000   295.91215     -349.05022      54936.654     -20656.3        3310.3633     -17345.936      1.0384225    
    380000   293.69082     -435.33074      54539.977     -20862.695      3285.5134     -17577.182      1.0459751    
    381000   294.2713       432.68921      54527.386     -20768.498      3292.0072     -17476.49       1.0462166    
    382000   298.34028     -421.52394      54843.203     -20797.909      3337.5268     -17460.382      1.0401919    
    383000   300.36287      366.22133      54992.295     -20847.513      3360.1534     -17487.359      1.0373718    
    384000   306.22026     -29.807635      54800.481     -20857.761      3425.6799     -17432.081      1.0410029    
    385000   299.41679     -55.4739        54758.872     -20685.264      3349.5697     -17335.695      1.0417939    
    386000   296.78607      70.671034      54025.341     -20762.116      3320.1398     -17441.976      1.0559389    
    387000   297.22284     -346.67436      54502.478     -20722.577      3325.026      -17397.551      1.0466947    
    388000   293.59162     -153.83019      54057.729     -20920.784      3284.4036     -17636.381      1.0553062    
    389000   293.62568      449.82668      54875.587     -20856.224      3284.7846     -17571.44       1.0395781    
    390000   300.99775     -88.737842      54603.214     -20779.137      3367.2558     -17411.881      1.0447637    
    391000   300.14648      340.04131      54787.37      -20790.855      3357.7327     -17433.122      1.041252     
    392000   295.33085      245.34949      55155.76      -20667.955      3303.8604     -17364.094      1.0342974    
    393000   302.88699     -866.74516      54577.086     -20734.899      3388.3907     -17346.508      1.0452639    
    394000   298.74047     -1041.5556      54557.038     -20713.849      3342.0037     -17371.845      1.045648     
    395000   297.12949      130.7709       54260.166     -20779.185      3323.9817     -17455.203      1.051369     
    396000   297.73168     -127.30591      54417.088     -20719.461      3330.7184     -17388.742      1.0483372    
    397000   299.02985      73.257623      54392.395     -20816.753      3345.241      -17471.512      1.0488131    
    398000   296.03048      46.452996      54556.379     -20787.824      3311.6871     -17476.136      1.0456606    
    399000   305.91956     -158.79259      54561.242     -20889.244      3422.316      -17466.928      1.0455674    
    400000   298.99017      61.324498      55012.003     -20823.584      3344.797      -17478.787      1.0370002    
    401000   303.42522      927.89346      53932.655     -20775.58       3394.4119     -17381.169      1.0577536    
    402000   299.9652      -253.03476      53933.769     -20755.06       3355.7048     -17399.355      1.0577317    
    403000   292.19126     -407.11492      55329.061     -20698.81       3268.7378     -17430.072      1.0310578    
    404000   296.13766      248.34353      54181.666     -20690.666      3312.8861     -17377.78       1.0528923    
    405000   304.04645     -237.32019      54283.186     -20725.596      3401.3616     -17324.235      1.0509232    
    406000   298.74537      879.06832      54432.87      -20696.105      3342.0585     -17354.047      1.0480333    
    407000   298.16372     -131.38879      54328.592     -20865.039      3335.5516     -17529.487      1.0500448    
    408000   301.13707      741.66718      54713.203     -20728.055      3368.8144     -17359.241      1.0426635    
    409000   300.22435      398.68135      54305.087     -20812.656      3358.6038     -17454.052      1.0504993    
    410000   289.86224     -361.5406       54932.871     -20804.971      3242.6831     -17562.288      1.038494     
    411000   302.28069     -749.99659      54855.631     -20852.737      3381.6081     -17471.129      1.0399563    
    412000   301.74574      0.8273141      55025.288     -20663.678      3375.6236     -17288.054      1.0367498    
    413000   297.45432     -672.61252      54349.74      -20727.901      3327.6156     -17400.286      1.0496363    
    414000   293.37864      188.93922      54667.639     -20737.277      3282.021      -17455.256      1.0435325    
    415000   297.56772      35.865481      54703.795     -20662.506      3328.8842     -17333.622      1.0428428    
    416000   302.90405      407.55974      55426.712     -20713.065      3388.5816     -17324.483      1.0292412    
    417000   297.37467      955.78091      54258.791     -20887.328      3326.7245     -17560.604      1.0513957    
    418000   298.78455     -112.99099      54637.801     -20895.987      3342.4968     -17553.49       1.0441024    
    419000   294.42663     -785.1235       54410.177     -20810.429      3293.7449     -17516.684      1.0484704    
    420000   300.86444      524.31737      55526.348     -20727.1        3365.7645     -17361.335      1.0273944    
    421000   303.36448      697.34275      54960.042     -20774.677      3393.7324     -17380.944      1.0379806    
    422000   307.43907     -15.323691      54494.277     -20774.133      3439.3148     -17334.818      1.0468523    
    423000   296.72528     -361.71666      54918.061     -20750.306      3319.4598     -17430.846      1.0387741    
    424000   298.6902      -435.71478      54672.537     -20827.767      3341.4414     -17486.326      1.043439     
    425000   295.76043      234.44529      54926.401     -20781.834      3308.666      -17473.168      1.0386163    
    426000   299.69468      670.95267      54602.666     -20887.754      3352.6784     -17535.075      1.0447742    
    427000   302.37695     -93.118358      54841.307     -20847.7        3382.6849     -17465.016      1.0402279    
    428000   306.27441      42.103355      54810.53      -20932.479      3426.2857     -17506.194      1.040812     
    429000   310.1727       740.80324      54377.986     -20766.271      3469.8958     -17296.375      1.049091     
    430000   298.35696      401.99927      54714.898     -20686.216      3337.7133     -17348.503      1.0426312    
    431000   297.35056     -31.541804      54874.051     -20807.754      3326.4548     -17481.299      1.0396072    
    432000   306.57032     -124.24965      54577.721     -20729.122      3429.596      -17299.526      1.0452517    
    433000   299.24055      34.933423      54074.631     -20767.646      3347.598      -17420.048      1.0549764    
    434000   299.61024     -983.08311      55243.85      -20734.396      3351.7338     -17382.662      1.0326481    
    435000   293.94836      90.46198       54845.153     -20738.576      3288.3945     -17450.182      1.040155     
    436000   293.18665     -990.09872      54907.343     -20708.35       3279.8732     -17428.477      1.0389768    
    437000   298.30025     -303.09666      54285.074     -20690.686      3337.079      -17353.607      1.0508866    
    438000   298.88176     -50.586385      54548.155     -20800.591      3343.5843     -17457.007      1.0458183    
    439000   303.74117     -93.244627      54521.921     -20878.301      3397.9464     -17480.355      1.0463215    
    440000   297.66549      387.62697      54348.392     -20669.769      3329.978      -17339.791      1.0496623    
    441000   300.74787     -279.9483       54042.732     -20831.912      3364.4604     -17467.451      1.0555991    
    442000   304.00897      586.22169      54725.613     -20825.936      3400.9423     -17424.994      1.042427     
    443000   299.19308     -193.54739      54929.783     -20765.355      3347.0671     -17418.287      1.0385524    
    444000   301.09485     -369.78165      54413.743     -20766.505      3368.3421     -17398.163      1.0484016    
    445000   305.4395       439.29603      54842.139     -20912.738      3416.9457     -17495.792      1.0402121    
    446000   297.00131     -522.57145      54856.208     -20818.857      3322.5478     -17496.309      1.0399453    
    447000   299.41961     -159.18759      55314.981     -20793.131      3349.6012     -17443.53       1.0313202    
    448000   297.45169     -32.931595      54733.958     -20816.06       3327.5861     -17488.474      1.0422681    
    449000   301.56397     -36.700985      54792.403     -20717.736      3373.5901     -17344.146      1.0411563    
    450000   298.77804     -350.54307      54925.047     -20716.481      3342.424      -17374.057      1.0386419    
    451000   297.75043     -92.512901      55153.372     -20821.966      3330.9282     -17491.038      1.0343422    
    452000   299.46382      62.452321      55365.774     -20768.731      3350.0958     -17418.635      1.0303741    
    453000   301.79298     -993.58658      54701.169     -20809.623      3376.1521     -17433.47       1.0428928    
    454000   298.05784     -397.97895      54197.85      -20796.657      3334.3671     -17462.29       1.0525779    
    455000   295.38084     -814.75988      54896.674     -20690.048      3304.4196     -17385.629      1.0391788    
    456000   296.63949      460.6096       54811.246     -20569.739      3318.5001     -17251.239      1.0407984    
    457000   302.84155     -295.46734      55147.512     -20824.441      3387.8824     -17436.559      1.0344521    
    458000   304.72465      666.74894      54525.026     -20776.425      3408.9486     -17367.476      1.0462619    
    459000   303.7365      -304.33435      54918.12      -20767.123      3397.8941     -17369.229      1.038773     
    460000   288.07523     -465.68637      54789.085     -20736.474      3222.6919     -17513.782      1.0412194    
    461000   300.66654     -227.18404      54951.762     -20630.298      3363.5506     -17266.748      1.038137     
    462000   287.6741      -740.89261      54878.364     -20799.874      3218.2044     -17581.67       1.0395255    
    463000   291.39673      23.959384      55043.996     -20817.72       3259.8494     -17557.871      1.0363975    
    464000   307.95086     -531.15412      55311.479     -20790.54       3445.0402     -17345.5        1.0313855    
    465000   301.21363     -843.00236      55459.527     -20791.167      3369.6709     -17421.496      1.0286322    
    466000   303.06887     -89.855001      54616.685     -20850.787      3390.4255     -17460.362      1.0445061    
    467000   296.50105      186.09017      54900.597     -20879.707      3316.9513     -17562.755      1.0391045    
    468000   304.40205      805.71424      54503.172     -20814.621      3405.3397     -17409.281      1.0466814    
    469000   307.46507      408.40912      54311.579     -20778.474      3439.6057     -17338.868      1.0503738    
    470000   300.36501     -250.33517      53736.948     -20781.804      3360.1774     -17421.626      1.0616058    
    471000   301.27334      816.90375      54375.297     -20848.519      3370.3388     -17478.18       1.0491429    
    472000   296.00761      681.98626      54566.571     -20791.404      3311.4312     -17479.973      1.0454653    
    473000   302.9891       417.33696      54883.528     -20746.871      3389.533      -17357.338      1.0394277    
    474000   300.35952     -367.48237      54581.641     -20788.109      3360.116      -17427.993      1.0451767    
    475000   301.97013      18.332568      55142.214     -20748.307      3378.1338     -17370.174      1.0345514    
    476000   301.66417     -76.054027      55379.839     -20810.73       3374.7111     -17436.019      1.0301124    
    477000   296.65228     -43.702839      55029.731     -20727.828      3318.6431     -17409.185      1.0366661    
    478000   299.4744      -100.92935      54846.344     -20811.702      3350.2142     -17461.488      1.0401324    
    479000   305.77699      332.68784      55057.865     -20745.137      3420.7211     -17324.416      1.0361364    
    480000   298.65955     -120.16716      54986.982     -20852.532      3341.0985     -17511.433      1.0374721    
    481000   304.28606      147.78565      54881.41      -20819.518      3404.0422     -17415.476      1.0394678    
    482000   300.50561      364.394        54680.224     -20783.655      3361.7503     -17421.905      1.0432923    
    483000   294.5783      -183.01454      54507.716     -20802.969      3295.4416     -17507.527      1.0465942    
    484000   296.26103      7.3095885      54447.111     -20741.471      3314.2663     -17427.205      1.0477591    
    485000   290.43821      574.3862       54144.013     -20819.665      3249.1265     -17570.539      1.0536245    
    486000   301.68193     -1116.0242      54710.031     -20738.183      3374.9098     -17363.274      1.0427239    
    487000   298.13035     -1166.502       54717.086     -20701.446      3335.1783     -17366.268      1.0425895    
    488000   303.30866     -307.0479       54532.837     -20633.955      3393.108      -17240.847      1.046112     
    489000   297.98708      286.94063      54706.269     -20844.105      3333.5755     -17510.53       1.0427956    
    490000   303.00775      202.87027      54037.367     -20745.739      3389.7417     -17355.998      1.0557039    
    491000   299.01285     -326.68478      54787.892     -20838.527      3345.0508     -17493.476      1.0412421    
    492000   295.81021     -510.37351      55151.954     -20657.245      3309.223      -17348.022      1.0343687    
    493000   295.81722     -414.35158      54674.141     -20753.818      3309.3014     -17444.516      1.0434084    
    494000   299.07698      95.937525      54794.889     -20718.848      3345.7682     -17373.08       1.0411091    
    495000   299.04364      126.84396      54212.82      -20837.709      3345.3952     -17492.313      1.0522872    
    496000   298.48474      66.835076      54875.894     -20844.966      3339.1428     -17505.824      1.0395723    
    497000   303.16429      416.4709       54606.223     -20690.299      3391.4928     -17298.806      1.0447062    
    498000   299.03058      131.75015      54396.361     -20804.941      3345.2492     -17459.692      1.0487367    
    499000   300.09935      455.90863      53873.467     -20972.588      3357.2055     -17615.383      1.0589157    
    500000   297.19985     -95.236203      54536.972     -20802.627      3324.7688     -17477.858      1.0460327    
    501000   296.38624     -89.591203      54947.341     -20691.659      3315.667      -17375.992      1.0382205    
    502000   299.86405      502.48973      54429.778     -20761.692      3354.5732     -17407.119      1.0480928    
    503000   299.75761      444.70876      54852.586     -20727.748      3353.3824     -17374.365      1.040014     
    504000   301.79623      275.9034       54506.538     -20816.912      3376.1884     -17440.724      1.0466168    
    505000   294.32658     -238.62889      55057.521     -20718.993      3292.6256     -17426.367      1.0361429    
    506000   307.11584     -523.84877      54600.054     -20639.935      3435.6988     -17204.236      1.0448242    
    507000   300.56724     -468.43496      54914.995     -20814.963      3362.4398     -17452.523      1.0388321    
    508000   297.27905      241.68956      54864.045     -20726.485      3325.6548     -17400.83       1.0397968    
    509000   307.95311     -129.96311      55088.05      -20717.412      3445.0653     -17272.347      1.0355686    
    510000   303.08104      93.753797      55345.013     -20867.485      3390.5615     -17476.923      1.0307606    
    511000   296.96982     -378.28376      54821.465     -20686.545      3322.1954     -17364.35       1.0406044    
    512000   310.34467     -183.85171      54852.306     -20780.589      3471.8196     -17308.77       1.0400193    
    513000   299.83838      153.62866      55325.98      -20787.228      3354.286      -17432.942      1.0311152    
    514000   293.73192     -6.1899648      54418.597     -20800.35       3285.9731     -17514.377      1.0483081    
    515000   301.59309     -237.45988      54727.495     -20965.477      3373.916      -17591.561      1.0423912    
    516000   302.15317      512.20606      54526.859     -20793.583      3380.1816     -17413.402      1.0462267    
    517000   297.14391      330.69726      54466.036     -20864.079      3324.143      -17539.936      1.0473951    
    518000   300.45476     -545.60034      54876.887     -20751.274      3361.1814     -17390.092      1.0395535    
    519000   299.89831     -383.12857      54885.149     -20776.783      3354.9564     -17421.826      1.039397     
    520000   301.68122      218.68822      54182.77      -20871.39       3374.9018     -17496.488      1.0528708    
    521000   297.9934       199.76337      54693.513     -20777.67       3333.6462     -17444.023      1.0430388    
    522000   303.52976      163.25921      54825.749     -20738.803      3395.5813     -17343.221      1.0405231    
    523000   293.8587       472.51621      54835.205     -20747.886      3287.3915     -17460.494      1.0403437    
    524000   298.52556     -118.11664      55042.504     -20809.277      3339.5995     -17469.677      1.0364256    
    525000   292.87478     -186.05168      54727.257     -20803.576      3276.3844     -17527.192      1.0423957    
    526000   302.67641     -492.03147      54868.874     -20756.013      3386.035      -17369.978      1.0397053    
    527000   296.96045     -728.93965      54895.326     -20711.487      3322.0906     -17389.396      1.0392043    
    528000   294.65363     -121.54921      54869.694     -20871.095      3296.2843     -17574.811      1.0396897    
    529000   299.40825     -13.820291      55157.749     -20768.399      3349.4741     -17418.925      1.0342601    
    530000   298.37686     -244.82996      54578.371     -20813.774      3337.936      -17475.838      1.0452393    
    531000   305.84482      314.99686      54822.735     -20769.176      3421.48       -17347.696      1.0405803    
    532000   296.3325      -246.47153      54435.661     -20844.249      3315.0657     -17529.183      1.0479795    
    533000   301.50712      112.27328      54972.319     -20653.935      3372.9542     -17280.98       1.0377488    
    534000   309.64012     -463.2138       54735.575     -20803.262      3463.9379     -17339.324      1.0422373    
    535000   302.55486      460.44364      54548.775     -20644.748      3384.6752     -17260.073      1.0458064    
    536000   295.3028       96.438706      54292.902     -20782.623      3303.5466     -17479.076      1.0507351    
    537000   301.18225     -248.97534      54849.268     -20802.257      3369.3198     -17432.937      1.0400769    
    538000   300.79576     -48.703083      54366.942     -20776.139      3364.9961     -17411.143      1.0493041    
    539000   301.37988      420.64074      54036.416     -20728.58       3371.5307     -17357.049      1.0557224    
    540000   294.83323     -14.177806      54502.053     -20800.842      3298.2935     -17502.548      1.0467029    
    541000   301.11482      138.41098      55054.565     -20783.35       3368.5655     -17414.785      1.0361985    
    542000   297.38395     -540.84619      54920.324     -20790.212      3326.8283     -17463.384      1.0387313    
    543000   299.99143      374.26963      54858.466     -20694.869      3355.9981     -17338.871      1.0399025    
    544000   302.30182      49.060549      54545.677     -20835.196      3381.8444     -17453.352      1.0458658    
    545000   305.06826     -60.311192      55214.714     -20656.249      3412.7926     -17243.457      1.033193     
    546000   295.07587      38.902495      55411.013     -20806.06       3301.0079     -17505.052      1.0295328    
    547000   295.54617     -345.33378      54841.915     -20763.301      3306.2691     -17457.032      1.0402164    
    548000   299.7608      -466.20506      54601.198     -20753.932      3353.4181     -17400.514      1.0448023    
    549000   299.97268     -1147.7328      55050.15      -20765.873      3355.7884     -17410.084      1.0362816    
    550000   299.1337       140.08861      55227.273     -20759.451      3346.4028     -17413.048      1.0329581    
    551000   298.18424     -304.059        55053.145     -20744.988      3335.7812     -17409.207      1.0362252    
    552000   299.18761      845.74592      54454.755     -20782.089      3347.0058     -17435.083      1.0476121    
    553000   292.57145      16.030108      54153.365     -20840.779      3272.9909     -17567.788      1.0534425    
    554000   305.65324      155.01795      54171.61      -20814.73       3419.3367     -17395.393      1.0530877    
    555000   299.19777     -107.84739      54739.019     -20766.956      3347.1195     -17419.837      1.0421717    
    556000   296.699       -31.094117      55277.578     -20760.91       3319.1658     -17441.744      1.032018     
    557000   302.10793     -586.88893      54546.382     -20836.085      3379.6754     -17456.41       1.0458523    
    558000   301.52359     -239.60999      54907.18      -20728.369      3373.1384     -17355.231      1.0389799    
    559000   304.42884      373.14106      54533.18      -20790.919      3405.6393     -17385.279      1.0461055    
    560000   293.42109      169.91737      55207.103     -20829.923      3282.4959     -17547.427      1.0333355    
    561000   304.21974      414.31792      54686.337     -20742.819      3403.3002     -17339.519      1.0431757    
    562000   299.45613      477.55669      54851.853     -20822.661      3350.0098     -17472.651      1.0400279    
    563000   293.21653      45.57159       55232.731     -20916.673      3280.2075     -17636.465      1.032856     
    564000   296.28138      320.43794      55065.968     -20896.031      3314.4939     -17581.537      1.0359839    
    565000   295.94103      311.26086      54485.9       -20833.477      3310.6865     -17522.791      1.0470132    
    566000   295.76281     -407.33275      54788.571     -20755.476      3308.6927     -17446.784      1.0412292    
    567000   300.49957      159.38413      54902.197     -20717.328      3361.6827     -17355.645      1.0390742    
    568000   300.65883     -150.51921      54476.403     -20737.015      3363.4643     -17373.55       1.0471958    
    569000   294.46439     -853.44274      54708.485     -20783.134      3294.1672     -17488.966      1.0427534    
    570000   294.18882      294.4873       54801.667     -20777.902      3291.0845     -17486.818      1.0409803    
    571000   293.06631     -540.25818      55092.978     -20737.035      3278.527      -17458.507      1.035476     
    572000   301.79617      118.88109      54944.933     -20726.062      3376.1878     -17349.874      1.038266     
    573000   295.02316     -242.84784      54892.476     -20876.531      3300.4182     -17576.113      1.0392582    
    574000   302.23989     -179.50398      54710.805     -20763.62       3381.1517     -17382.468      1.0427092    
    575000   291.42885      536.46856      54351.996     -20915.648      3260.2088     -17655.44       1.0495927    
    576000   292.37797      210.38037      54807.802     -20848.451      3270.8266     -17577.625      1.0408638    
    577000   296.72408     -616.89295      54858.435     -20848.168      3319.4464     -17528.722      1.0399031    
    578000   304.52559      453.8062       54987.922     -20773.033      3406.7217     -17366.311      1.0374543    
    579000   302.22741      692.22431      54411.413     -20859.494      3381.012      -17478.482      1.0484465    
    580000   302.78709      603.42691      54480.785     -20791.249      3387.2732     -17403.975      1.0471115    
    581000   300.57921     -154.49128      54826.891     -20769.142      3362.5736     -17406.568      1.0405014    
    582000   302.78061      206.25238      54008.289     -20890.825      3387.2007     -17503.625      1.0562723    
    583000   296.44291      314.44801      54217.162     -20761.194      3316.301      -17444.893      1.0522029    
    584000   300.51662     -253.87617      55083.565     -20807.133      3361.8734     -17445.26       1.035653     
    585000   306.12254     -144.80048      54713.564     -20826.96       3424.5868     -17402.373      1.0426566    
    586000   303.92232      213.28305      54565.973     -20696.599      3399.9729     -17296.626      1.0454768    
    587000   297.69644      169.43916      54775.271     -20787.935      3330.3242     -17457.611      1.041482     
    588000   309.1215       274.95888      54839.534     -20777.353      3458.1361     -17319.217      1.0402615    
    589000   299.6938      -453.61078      55196.803     -20704.63       3352.6686     -17351.961      1.0335283    
    590000   299.17659      682.40556      54687.961     -20750.628      3346.8826     -17403.745      1.0431447    
    591000   299.27919      302.94637      55270.652     -20717.781      3348.0303     -17369.751      1.0321474    
    592000   303.97239      2.3055342      54625.338     -20774.694      3400.533      -17374.161      1.0443406    
    593000   299.55278      99.980382      54151.372     -20765.015      3351.091      -17413.924      1.0534813    
    594000   301.87719     -71.341291      54977.535     -20843.864      3377.0941     -17466.77       1.0376503    
    595000   297.52382      485.41073      54628.496     -20869.816      3328.393      -17541.423      1.0442802    
    596000   298.29086     -504.12446      54857.559     -20726.747      3336.974      -17389.774      1.0399197    
    597000   301.32899     -676.49347      55205.662     -20707.798      3370.9614     -17336.837      1.0333624    
    598000   303.3069      -301.63294      54880.871     -20810.323      3393.0882     -17417.235      1.039478     
    599000   301.45117     -458.20629      54802.555     -20761.284      3372.3282     -17388.956      1.0409635    
    600000   298.70578      188.30369      54579.777     -20768.002      3341.6157     -17426.386      1.0452124    
    600010   298.5937       420.96795      54579.255     -20771.044      3340.3618     -17430.682      1.0452224    
Loop time of 11726 on 10 procs for 300000 steps with 5541 atoms

Performance: 4.421 ns/day, 5.429 hours/ns, 25.584 timesteps/s, 141.761 katom-step/s
663.1% CPU use with 1 MPI tasks x 10 OpenMP threads

MPI task timing breakdown:
Section |  min time  |  avg time  |  max time  |%varavg| %total
---------------------------------------------------------------
Pair    | 260.11     | 260.11     | 260.11     |   0.0 |  2.22
Bond    | 3.4388     | 3.4388     | 3.4388     |   0.0 |  0.03
Kspace  | 5968.2     | 5968.2     | 5968.2     |   0.0 | 50.90
Neigh   | 0.56843    | 0.56843    | 0.56843    |   0.0 |  0.00
Comm    | 115.12     | 115.12     | 115.12     |   0.0 |  0.98
Output  | 1.3747     | 1.3747     | 1.3747     |   0.0 |  0.01
Modify  | 5325.5     | 5325.5     | 5325.5     |   0.0 | 45.42
Other   |            | 51.73      |            |       |  0.44

Nlocal:           5541 ave        5541 max        5541 min
Histogram: 1 0 0 0 0 0 0 0 0 0
Nghost:          35459 ave       35459 max       35459 min
Histogram: 1 0 0 0 0 0 0 0 0 0
Neighs:              0 ave           0 max           0 min
Histogram: 1 0 0 0 0 0 0 0 0 0

Total # of neighbors = 0
Ave neighs/atom = 0
Ave special neighs/atom = 2.4872767
Neighbor list builds = 27890
Dangerous builds = 0

undump npt_traj
undump npt_dcd
unfix mynpt_standard
unfix thermo_avg_npt

write_restart npt_complete.restart
System init for write_restart ...
PPPM initialization ...
  extracting TIP4P info from pair style
  using 12-bit tables for long-range coulomb
  G vector (1/distance) = 0.28822552
  grid = 50 50 50
  stencil order = 5
  estimated absolute RMS force accuracy = 0.00033153381
  estimated relative force accuracy = 9.9840421e-07
  using double precision FFTW3
  3d grid and FFT values/proc = 205379 125000
Generated 0 of 3 mixed pair_coeff terms from geometric mixing rule
write_data npt_complete.data
System init for write_data ...
PPPM initialization ...
  extracting TIP4P info from pair style
  using 12-bit tables for long-range coulomb
  G vector (1/distance) = 0.28822552
  grid = 50 50 50
  stencil order = 5
  estimated absolute RMS force accuracy = 0.00033153381
  estimated relative force accuracy = 9.9840421e-07
  using double precision FFTW3
  3d grid and FFT values/proc = 205379 125000
Generated 0 of 3 mixed pair_coeff terms from geometric mixing rule
WARNING: Not all mixed pair coeffs generated from mixing. Use write_data with 'pair ij' option to store all pair coeffs. (src/write_data.cpp:364)

# CRITICAL: Save NPT checkpoint for production restart capability
write_restart npt_equilibration_complete.restart
System init for write_restart ...
PPPM initialization ...
  extracting TIP4P info from pair style
  using 12-bit tables for long-range coulomb
  G vector (1/distance) = 0.28822552
  grid = 50 50 50
  stencil order = 5
  estimated absolute RMS force accuracy = 0.00033153381
  estimated relative force accuracy = 9.9840421e-07
  using double precision FFTW3
  3d grid and FFT values/proc = 205379 125000
Generated 0 of 3 mixed pair_coeff terms from geometric mixing rule
write_data npt_equilibration_complete.data
System init for write_data ...
PPPM initialization ...
  extracting TIP4P info from pair style
  using 12-bit tables for long-range coulomb
  G vector (1/distance) = 0.28822552
  grid = 50 50 50
  stencil order = 5
  estimated absolute RMS force accuracy = 0.00033153381
  estimated relative force accuracy = 9.9840421e-07
  using double precision FFTW3
  3d grid and FFT values/proc = 205379 125000
Generated 0 of 3 mixed pair_coeff terms from geometric mixing rule
WARNING: Not all mixed pair coeffs generated from mixing. Use write_data with 'pair ij' option to store all pair coeffs. (src/write_data.cpp:364)

variable current_dens equal density
variable current_vol equal vol
variable current_press equal press
variable current_temp equal temp
print ""

print "NPT equilibration complete (1000 ps total):"
NPT equilibration complete (1000 ps total):
print "  Temperature: ${current_temp} K"
  Temperature: 298.593700778093 K
print "  Density:     ${current_dens} g/cmÂ³"
  Density:     1.04522235774403 g/cm³
print "  Pressure:    ${current_press} atm"
  Pressure:    420.967947574306 atm
print "  Volume:      ${current_vol} Ã…Â³"
  Volume:      54579.2550202679 …³
print ""

print "âœ… CHECKPOINT: NPT equilibration complete"
œ… CHECKPOINT: NPT equilibration complete
print "   Files saved:"
   Files saved:
print "     - npt_complete.restart (legacy name)"
     - npt_complete.restart (legacy name)
print "     - npt_equilibration_complete.restart (for production restart)"
     - npt_equilibration_complete.restart (for production restart)
print "     - npt_equilibration_complete.data (structure file)"
     - npt_equilibration_complete.data (structure file)
print "     - npt_equilibration_thermo.dat (thermodynamics)"
     - npt_equilibration_thermo.dat (thermodynamics)
print ""


# Checkpoint: Verify density
if "${current_dens} < 0.85 || ${current_dens} > 1.15" then     "print 'ERROR: Density outside expected range (0.85-1.15 g/cmÂ³)'"     "print 'Current density: ${current_dens} g/cmÂ³'"     "quit 1"

print "âœ“ Density validation PASSED: ${current_dens} g/cmÂ³"
œ“ Density validation PASSED: 1.04522235774403 g/cm³

print ""


# ğŸ”§ CHECKPOINT #4: Final validation before production
variable current_dens equal density
variable current_press equal press
variable current_vol equal vol
variable current_boxsize equal vol^(1.0/3.0)

print ""

print "NPT equilibration complete. FINAL VALIDATION:"
NPT equilibration complete. FINAL VALIDATION:
print "  Density:  ${current_dens} g/cmÂ³"
  Density:  1.04522235774403 g/cm³
print "  Pressure: ${current_press} atm"
  Pressure: 420.967947574306 atm
print "  Volume:   ${current_vol} Ã…Â³"
  Volume:   54579.2550202679 …³
print "  Box size: ${current_boxsize} Ã…"
  Box size: 37.932302139541 …
print ""

print "âœ… CHECKPOINT: NPT equilibration complete (1000 ps)"
œ… CHECKPOINT: NPT equilibration complete (1000 ps)
print "   Creating restart file: npt_equilibration_complete.restart"
   Creating restart file: npt_equilibration_complete.restart
print "   This checkpoint allows restarting from production stage if needed"
   This checkpoint allows restarting from production stage if needed
print ""


# Save NPT checkpoint for production restart capability
write_restart npt_equilibration_complete.restart
System init for write_restart ...
PPPM initialization ...
  extracting TIP4P info from pair style
  using 12-bit tables for long-range coulomb
  G vector (1/distance) = 0.28822552
  grid = 50 50 50
  stencil order = 5
  estimated absolute RMS force accuracy = 0.00033153381
  estimated relative force accuracy = 9.9840421e-07
  using double precision FFTW3
  3d grid and FFT values/proc = 205379 125000
Generated 0 of 3 mixed pair_coeff terms from geometric mixing rule
write_data npt_equilibration_complete.data
System init for write_data ...
PPPM initialization ...
  extracting TIP4P info from pair style
  using 12-bit tables for long-range coulomb
  G vector (1/distance) = 0.28822552
  grid = 50 50 50
  stencil order = 5
  estimated absolute RMS force accuracy = 0.00033153381
  estimated relative force accuracy = 9.9840421e-07
  using double precision FFTW3
  3d grid and FFT values/proc = 205379 125000
Generated 0 of 3 mixed pair_coeff terms from geometric mixing rule
WARNING: Not all mixed pair coeffs generated from mixing. Use write_data with 'pair ij' option to store all pair coeffs. (src/write_data.cpp:364)

print "âœ… NPT checkpoint saved successfully"
œ… NPT checkpoint saved successfully
print "   Files created:"
   Files created:
print "     - npt_equilibration_complete.restart (for continuation)"
     - npt_equilibration_complete.restart (for continuation)
print "     - npt_equilibration_complete.data (structure file)"
     - npt_equilibration_complete.data (structure file)
print ""


if "${current_dens} < 0.80" then     "print 'ğŸ”´ ERROR: Density ${current_dens} g/cmÂ³ is TOO LOW (gas phase)!'"     "print 'Expected: 0.95-1.05 g/cmÂ³ for liquid water'"     "print ''"     "print 'Possible causes:'"     "print '  1. System escaped to gas phase during equilibration'"     "print '  2. PPPM grid artifacts occurred later in simulation'"     "print '  3. Initial system was not properly solvated'"     "quit 1"

if "${current_dens} > 1.20" then     "print 'ğŸ”´ ERROR: Density ${current_dens} g/cmÂ³ is TOO HIGH (over-compressed)!'"     "print 'Expected: 0.95-1.05 g/cmÂ³ for liquid water'"     "print ''"     "print 'Possible causes:'"     "print '  1. Barostat not converging properly'"     "print '  2. System trapped in metastable compressed state'"     "quit 1"

print "âœ… Density validation PASSED: ${current_dens} g/cmÂ³"
œ… Density validation PASSED: 1.04522235774403 g/cm³
print "Current density: ${current_dens} g/cmÂ³"
Current density: 1.04522235774403 g/cm³

#==============================================================================
# STAGE 4: Production MD (4000 ps = 4 ns)
#==============================================================================
print ""

print "===== STAGE 4: Production MD (4000 ps = 4 ns, GPU) ====="
===== STAGE 4: Production MD (4000 ps = 4 ns, GPU) =====
print "Main data collection phase - RDF, MSD, trajectories"
Main data collection phase - RDF, MSD, trajectories
print ""

print "Pressure control strategy:"
Pressure control strategy:
print "  â€¢ Using MTK barostat for better ensemble accuracy"
  €¢ Using MTK barostat for better ensemble accuracy
print "  â€¢ Tdamp = 100 fs (standard for NosÃ©-Hoover)"
  €¢ Tdamp = 100 fs (standard for Nos©-Hoover)
print "  â€¢ Pdamp = 1000 fs (tighter control for stable production)"
  €¢ Pdamp = 1000 fs (tighter control for stable production)
print ""


# Production NPT with MTK barostat and tighter pressure control
# Using smaller pdamp (1000 fs vs 2000 fs) for more stable pressure
# ğŸ”§ CRITICAL: Using npt/gpu instead of npt for FULL GPU acceleration
fix mynpt all npt/gpu temp 300.0 300.0 100.0 iso 1.0 1.0 1000.0 mtk yes

# Main trajectory dump (every 1 ps for analysis)
# Trajectory output (every 1 ps) - using wrapped coordinates for proper visualization
dump prod_traj all custom 1000 production.lammpstrj id type xu yu zu
dump_modify prod_traj sort id

# DCD dump (every 0.5 ps for smooth visualization)
dump prod_dcd all dcd 500 production.dcd
dump_modify prod_dcd unwrap yes

# Detailed thermodynamics (every 1 ps)
fix thermo_avg all ave/time 100 10 1000 v_epsilon_co v_temp v_press v_pe v_ke v_etotal v_vol v_dens     file production_thermo.dat

# Very detailed thermodynamics (every 0.1 ps for fluctuation analysis)
fix thermo_detailed all ave/time 10 10 100 v_temp v_press v_pe v_ke v_vol v_dens     file production_detailed_thermo.dat

# Compute RDFs on-the-fly (C60-water, C60-C60, water-water)
# Syntax: compute ID group-ID rdf Nbin type1 type2 [cutoff]
# Type 1=C, Type 2=O, Type 3=H
compute rdf_CO all rdf 150 1 2  # C-O pairs (C60-water)
compute rdf_CC all rdf 150 1 1  # C-C pairs (C60-C60)
compute rdf_OO all rdf 150 2 2  # O-O pairs (water-water)

# Average RDFs over production run (every 10 ps)
# FIXED: Explicit column indexing (RDF outputs [1]=r, [2]=g(r), [3]=coordination)
fix rdf_CO_avg all ave/time 1000 10 10000 c_rdf_CO[1] c_rdf_CO[2] c_rdf_CO[3] file rdf_CO.dat mode vector
fix rdf_CC_avg all ave/time 1000 10 10000 c_rdf_CC[1] c_rdf_CC[2] c_rdf_CC[3] file rdf_CC.dat mode vector
fix rdf_OO_avg all ave/time 1000 10 10000 c_rdf_OO[1] c_rdf_OO[2] c_rdf_OO[3] file rdf_OO.dat mode vector

# Compute MSD for water oxygen (diffusion analysis)
# Need to use the oxygen group defined earlier
compute msd_water oxygen msd
# MSD compute outputs: [1]=dxÂ², [2]=dyÂ², [3]=dzÂ², [4]=total rÂ²
fix msd_avg all ave/time 100 10 1000 c_msd_water[1] c_msd_water[2] c_msd_water[3] c_msd_water[4] file msd_water.dat

# Dump images every 20 ps for visualization
dump prod_img all image 10000 production_*.ppm type type     axes yes 0.8 0.02 view 60 30 zoom 1.5     box no 0.01 shiny 0.5
dump_modify prod_img pad 6 backcolor white

run 2000000  # 4000 ps = 4 ns at 2 fs timestep
PPPM initialization ...
  extracting TIP4P info from pair style
  using 12-bit tables for long-range coulomb
  G vector (1/distance) = 0.28822552
  grid = 50 50 50
  stencil order = 5
  estimated absolute RMS force accuracy = 0.00033153381
  estimated relative force accuracy = 9.9840421e-07
  using double precision FFTW3
  3d grid and FFT values/proc = 205379 125000
Generated 0 of 3 mixed pair_coeff terms from geometric mixing rule
Neighbor list info ...
  update: every = 1 steps, delay = 5 steps, check = yes
  max neighbors/atom: 2000, page size: 100000
  master list distance cutoff = 14.3092
  ghost atom cutoff = 18
  binsize = 7.1546, bins = 6 6 6
  3 neighbor lists, perpetual/occasional/extra = 0 3 0
  (1) compute rdf, occasional
      attributes: half, newton off
      pair build: half/bin/newtoff
      stencil: full/bin/3d
      bin: standard
  (2) compute rdf, occasional
      attributes: half, newton off
      pair build: half/bin/newtoff
      stencil: full/bin/3d
      bin: standard
  (3) compute rdf, occasional
      attributes: half, newton off
      pair build: half/bin/newtoff
      stencil: full/bin/3d
      bin: standard
Per MPI rank memory allocation (min/avg/max) = 74.78 | 74.78 | 74.78 Mbytes
   Step          Temp          Press          Volume         PotEng         KinEng         TotEng        Density    
    600010   298.5937       420.59013      54579.255     -20771.009      3340.3618     -17430.647      1.0452224    
    601000   302.0906      -193.91327      54959.668     -20755.826      3379.4816     -17376.344      1.0379877    
    602000   295.31375      191.1545       54419.543     -20800.603      3303.6691     -17496.933      1.0482899    
    603000   305.15709     -335.55531      54343.117     -20749.519      3413.7863     -17335.733      1.0497642    
    604000   304.22105     -805.00653      54803.434     -20764.544      3403.3149     -17361.229      1.0409468    
    605000   302.75424      978.58951      54316.177     -20864.308      3386.9057     -17477.403      1.0502848    
    606000   302.9766       97.885035      54906.343     -20675.257      3389.3932     -17285.864      1.0389958    
    607000   292.53943     -149.42652      54866.164     -20719.054      3272.6328     -17446.421      1.0397566    
    608000   294.41686     -581.993        54663.923     -20847.078      3293.6356     -17553.442      1.0436034    
    609000   303.83277     -400.71944      54952.199     -20754.06       3398.9711     -17355.089      1.0381288    
    610000   292.31815     -50.200335      54352.735     -20747.926      3270.1573     -17477.769      1.0495784    
    611000   300.16892     -130.77887      55057.633     -20813.859      3357.9838     -17455.875      1.0361408    
    612000   297.64041      550.47483      54696.173     -20821.01       3329.6974     -17491.312      1.0429881    
    613000   295.81864      208.35959      55051.629     -20684.472      3309.3173     -17375.155      1.0362538    
    614000   306.43446      889.09927      54594.96      -20833.877      3428.0762     -17405.801      1.0449217    
    615000   300.79685     -307.62531      54745.55      -20818.312      3365.0084     -17453.304      1.0420474    
    616000   299.0049      -116.23384      54600.745     -20862.876      3344.9619     -17517.914      1.044811     
    617000   294.28426     -187.24077      55064.369     -20750.661      3292.1521     -17458.509      1.036014     
    618000   303.35723     -375.79706      54646.569     -20811.611      3393.6513     -17417.96       1.0439348    
    619000   301.60353      399.45389      54872.242     -20865.959      3374.0327     -17491.927      1.0396415    
    620000   295.58863     -597.06508      54831.16      -20810.33       3306.7441     -17503.586      1.0404204    
    621000   299.13507      160.77032      54664.429     -20779.6        3346.4181     -17433.182      1.0435938    
    622000   300.2382       68.572654      54791.061     -20874.869      3358.7587     -17516.11       1.0411818    
    623000   299.24477     -153.16396      54942.207     -20702.698      3347.6453     -17355.052      1.0383175    
    624000   302.38444      389.59447      54984.203     -20760.868      3382.7687     -17378.099      1.0375245    
    625000   294.40346     -432.47998      55211.609     -20767.658      3293.4856     -17474.173      1.0332511    
    626000   302.37633      704.29599      54901.336     -20697.881      3382.678      -17315.203      1.0390905    
    627000   298.4227       20.731144      54678.259     -20733.009      3338.4488     -17394.561      1.0433298    
    628000   293.41148      85.238841      54708.768     -20823.13       3282.3884     -17540.741      1.042748     
    629000   292.31955      267.37162      54086.863     -20760.118      3270.173      -17489.945      1.0547378    
    630000   301.47693      785.82969      54063.618     -20864.123      3372.6164     -17491.507      1.0551913    
    631000   296.37027     -351.92187      54546.093     -20835.997      3315.4884     -17520.509      1.0458578    
    632000   300.07934      567.56211      54954.548     -20793.933      3356.9816     -17436.951      1.0380844    
    633000   303.06931      578.45999      54500.43      -20804.509      3390.4303     -17414.078      1.0467341    
    634000   295.75775     -377.85557      55068.981     -20838.804      3308.6361     -17530.168      1.0359272    
    635000   301.57103     -680.96252      55339.312     -20818.34       3373.6692     -17444.671      1.0308668    
    636000   301.18873      294.41778      54835.626     -20766.365      3369.3924     -17396.972      1.0403357    
    637000   303.94306     -137.24502      54976.651     -20794.479      3400.2049     -17394.274      1.037667     
    638000   296.90842     -202.08619      54855.212     -20676.801      3321.5086     -17355.293      1.0399642    
    639000   291.67805     -286.60006      54958.086     -20810.135      3262.9965     -17547.138      1.0380175    
    640000   297.38599      218.35556      54833.229     -20782.273      3326.8512     -17455.422      1.0403812    
    641000   304.65757     -57.27553       55076.096     -20798.416      3408.1982     -17390.218      1.0357934    
    642000   295.65387     -462.714        54629.628     -20768.034      3307.4739     -17460.56       1.0442586    
    643000   291.97986      620.58286      54267.263     -20727.121      3266.3729     -17460.748      1.0512315    
    644000   299.65139      275.03999      54857.627     -20859.95       3352.1941     -17507.756      1.0399184    
    645000   298.15998     -1055.1851      55129.389     -20774.26       3335.5097     -17438.75       1.0347921    
    646000   301.66639      569.07381      54996.922     -20770.731      3374.7359     -17395.995      1.0372846    
    647000   307.94424      303.55639      54860.656     -20841.667      3444.9661     -17396.701      1.039861     
    648000   298.22601     -251.11845      54997.873     -20676.334      3336.2485     -17340.086      1.0372666    
    649000   305.94847     -278.05536      55327.002     -20790.52       3422.6395     -17367.88       1.0310961    
    650000   300.96871      125.40283      54734.458     -20811.202      3366.931      -17444.271      1.0422586    
    651000   302.25361     -501.55909      54817.902     -20753.981      3381.3051     -17372.676      1.040672     
    652000   300.56778      281.82169      54813.446     -20799.379      3362.4457     -17436.933      1.0407566    
    653000   296.19969      140.757        55008.069     -20740.373      3313.5801     -17426.793      1.0370744    
    654000   297.30423     -979.19469      55316.226     -20740.282      3325.9365     -17414.345      1.031297     
    655000   302.62829      37.031098      54837.504     -20817.162      3385.4967     -17431.665      1.0403       
    656000   300.71619     -247.81465      54707.527     -20784.266      3364.106      -17420.16       1.0427716    
    657000   296.09993      229.23509      55450.811     -20720.871      3312.464      -17408.407      1.0287939    
    658000   302.9093       958.47338      54165.908     -20822.937      3388.6403     -17434.297      1.0531986    
    659000   301.38983      207.52055      55102.446     -20682.146      3371.642      -17310.504      1.0352981    
    660000   300.0803       26.111584      54825.428     -20775.248      3356.9924     -17418.256      1.0405292    
    661000   300.45839     -786.77731      54886.613     -20837.924      3361.222      -17476.702      1.0393693    
    662000   297.68519      296.23137      54480.902     -20771.694      3330.1983     -17441.496      1.0471093    
    663000   298.42978     -175.54012      54725.352     -20721.314      3338.528      -17382.786      1.042432     
    664000   306.03382     -17.381589      55256.389     -20782.588      3423.5942     -17358.993      1.0324138    
    665000   297.88647      30.042378      55376.399     -20766.053      3332.4501     -17433.603      1.0301764    
    666000   296.59247     -227.96998      55237.724     -20691.411      3317.974      -17373.437      1.0327626    
    667000   297.68624      212.24403      55204.389     -20790.036      3330.21       -17459.826      1.0333863    
    668000   302.1261       208.20776      54617.881     -20762.369      3379.8787     -17382.49       1.0444832    
    669000   295.22469     -116.33531      54701.642     -20780.578      3302.6727     -17477.905      1.0428838    
    670000   297.60622      284.12594      54589.212     -20588.423      3329.3149     -17259.108      1.0450317    
    671000   299.63512     -281.75015      54798.129     -20861.645      3352.0122     -17509.633      1.0410476    
    672000   292.98398     -343.64565      54597.231     -20728.747      3277.6059     -17451.141      1.0448782    
    673000   293.81758     -1339.5452      54930.16      -20679.271      3286.9314     -17392.339      1.0385453    
    674000   301.39306      336.57162      54708.949     -20638.544      3371.6781     -17266.866      1.0427445    
    675000   290.05321      507.26194      54959.718     -20720.975      3244.8195     -17476.156      1.0379867    
    676000   300.54035      300.19255      54500.443     -20768.25       3362.1389     -17406.111      1.0467338    
    677000   300.0216      -231.5019       54901.959     -20776.223      3356.3356     -17419.887      1.0390787    
    678000   298.54894      606.45114      54500.831     -20691.383      3339.861      -17351.522      1.0467264    
    679000   303.42287     -73.146042      54949.394     -20697.57       3394.3856     -17303.184      1.0381817    
    680000   302.94749      767.35815      54894.899     -20724.996      3389.0675     -17335.929      1.0392124    
    681000   303.81169     -427.81224      54694.972     -20799.726      3398.7354     -17400.99       1.043011     
    682000   299.22868     -377.78672      54712.92      -20700.364      3347.4653     -17352.899      1.0426689    
    683000   296.67337      240.61515      54794.215     -20562.527      3318.8791     -17243.648      1.0411219    
    684000   295.45853     -279.98138      54357.987     -20808.342      3305.2887     -17503.054      1.049477     
    685000   302.56707     -943.95039      54820.109     -20828.697      3384.8118     -17443.885      1.0406301    
    686000   299.90477     -284.4425       54464.613     -20826.7        3355.0287     -17471.671      1.0474224    
    687000   296.883        832.54019      55117.133     -20647.744      3321.2242     -17326.519      1.0350222    
    688000   294.14535     -357.90013      54802.867     -20911.595      3290.5982     -17620.997      1.0409575    
    689000   302.28875     -106.16193      54932.396     -20775.483      3381.6983     -17393.785      1.038503     
    690000   296.52542     -22.309344      54940.586     -20692.183      3317.224      -17374.959      1.0383482    
    691000   301.32334     -143.21445      55146.373     -20835.65       3370.8983     -17464.751      1.0344734    
    692000   308.10463     -407.14234      54449.264     -20741.593      3446.7604     -17294.832      1.0477177    
    693000   293.65057      371.82692      54515.84      -20789.501      3285.0631     -17504.438      1.0464382    
    694000   296.97618      751.66327      54744.147     -20838.946      3322.2666     -17516.679      1.0420741    
    695000   300.42612     -482.35608      55487.216     -20765.125      3360.861      -17404.264      1.0281189    
    696000   302.98951      370.24386      54834.817     -20755.625      3389.5377     -17366.088      1.040351     
    697000   299.62111      92.649829      54786.596     -20829.125      3351.8554     -17477.269      1.0412667    
    698000   303.79745     -648.27224      54351.17      -20737.529      3398.576      -17338.953      1.0496086    
    699000   297.78447      103.92212      54309.411     -20848.02       3331.3089     -17516.711      1.0504157    
    700000   296.30346     -116.0689       55330.893     -20782.261      3314.7409     -17467.52       1.0310236    
    701000   301.76318     -186.35193      55537.275     -20722.096      3375.8187     -17346.277      1.0271922    
    702000   305.88743     -540.52462      54770.903     -20786.972      3421.9566     -17365.015      1.041565     
    703000   298.13122     -620.94613      55012.712     -20835.464      3335.1881     -17500.276      1.0369868    
    704000   307.97336     -97.949829      55061.375     -20713.119      3445.2919     -17267.827      1.0360703    
    705000   296.38023     -136.33209      54565.223     -20713.663      3315.5997     -17398.063      1.0454911    
    706000   294.84646      965.2092       54239.456     -20747.769      3298.4415     -17449.327      1.0517705    
    707000   303.52127      72.271042      55078.919     -20706.989      3395.4864     -17311.503      1.0357403    
    708000   292.85744     -122.46106      55181.887     -20770.051      3276.1904     -17493.861      1.0338077    
    709000   299.28562      496.96605      55171.959     -20718.87       3348.1023     -17370.767      1.0339937    
    710000   293.66803     -31.990459      54490.696     -20762.979      3285.2584     -17477.721      1.0469211    
    711000   300.85112      220.49556      54208.365     -20884.995      3365.6155     -17519.38       1.0523737    
    712000   300.66069      168.10657      54837.089     -20830.135      3363.4852     -17466.65       1.0403079    
    713000   298.03745      576.12933      54494.238     -20767.473      3334.139      -17433.334      1.046853     
    714000   299.78294     -282.54098      54869.241     -20861.521      3353.6658     -17507.855      1.0396983    
    715000   302.58993      244.58938      54308.539     -20820.456      3385.0675     -17435.389      1.0504326    
    716000   301.39501      337.04226      54787.455     -20803          3371.7        -17431.3        1.0412504    
    717000   286.46019      803.2524       54005.784     -20735.55       3204.6245     -17530.925      1.0563212    
    718000   291.55935      36.50926       54692.34      -20719.028      3261.6687     -17457.359      1.0430612    
    719000   289.96568     -201.81712      54660.069     -20679.697      3243.8402     -17435.857      1.043677     
    720000   295.369       -294.50062      54976.107     -20682.525      3304.2872     -17378.238      1.0376773    
    721000   296.39429     -156.08999      54847.066     -20728.955      3315.757      -17413.198      1.0401187    
    722000   296.78083      372.20973      55214.449     -20740.293      3320.0812     -17420.211      1.033198     
    723000   303.50181     -164.12228      54727.162     -20677.689      3395.2687     -17282.421      1.0423975    
    724000   297.78432     -381.99945      54645.343     -20719.037      3331.3073     -17387.729      1.0439583    
    725000   306.12275      188.31263      55244.958     -20724.323      3424.5891     -17299.733      1.0326274    
    726000   304.22494      137.10094      54805.564     -20679.995      3403.3584     -17276.637      1.0409063    
    727000   300.37748     -598.13459      55015.761     -20814.568      3360.3169     -17454.251      1.0369294    
    728000   305.61524      156.47377      55164.446     -20774.481      3418.9116     -17355.569      1.0341345    
    729000   298.67995      315.58014      54650.557     -20751.521      3341.3267     -17410.194      1.0438587    
    730000   304.04232     -41.840417      54852.887     -20843.882      3401.3154     -17442.567      1.0400083    
    731000   297.03756      413.91125      54347.586     -20738.867      3322.9533     -17415.913      1.0496779    
    732000   299.39748      447.62607      54915.095     -20780.387      3349.3536     -17431.034      1.0388302    
    733000   299.2321      -67.835799      55056.839     -20767.818      3347.5036     -17420.314      1.0361557    
    734000   300.3658       153.39164      55040.332     -20864.209      3360.1862     -17504.023      1.0364665    
    735000   302.17178      163.71535      55032.942     -20871.393      3380.3897     -17491.003      1.0366056    
    736000   295.34417     -99.758004      54689.148     -20812.556      3304.0094     -17508.546      1.0431221    
    737000   302.3421      -323.8182       54973.007     -20795.902      3382.2951     -17413.607      1.0377358    
    738000   298.77432      567.56695      54466.644     -20704.334      3342.3824     -17361.952      1.0473834    
    739000   294.35338      68.519333      54377.607     -20819.553      3292.9254     -17526.628      1.0490983    
    740000   300.74876     -79.174249      54915.157     -20801.356      3364.4704     -17436.886      1.038829     
    741000   299.99008      271.1004       54945.91      -20715.408      3355.9831     -17359.425      1.0382476    
    742000   297.3425       205.07487      55253.659     -20775.555      3326.3646     -17449.19       1.0324648    
    743000   293.1851      -435.87181      54803.162     -20717.753      3279.8559     -17437.897      1.0409519    
    744000   297.17454      378.82035      55193.902     -20747.046      3324.4857     -17422.56       1.0335826    
    745000   301.87167     -144.54005      54977.699     -20803.532      3377.0324     -17426.499      1.0376472    
    746000   301.79689     -325.7062       54786.924     -20806.228      3376.1958     -17430.033      1.0412605    
    747000   303.46348      752.88886      54763.169     -20777.551      3394.84       -17382.711      1.0417121    
    748000   298.91521     -170.56114      54806.185     -20829.003      3343.9585     -17485.045      1.0408945    
    749000   302.49567     -218.33653      54184.132     -20754.686      3384.0131     -17370.673      1.0528444    
    750000   304.18346     -18.017477      54485.053     -20662.523      3402.8944     -17259.629      1.0470295    
    751000   306.16598      1265.9612      54411.386     -20796.894      3425.0727     -17371.821      1.0484471    
    752000   303.78932     -640.70158      54586.514     -20580.397      3398.485      -17181.912      1.0450834    
    753000   299.51825      281.2112       54172.463     -20640.648      3350.7047     -17289.943      1.0530711    
    754000   302.07099     -455.70925      54834.299     -20875.785      3379.2622     -17496.523      1.0403608    
    755000   302.52747     -355.90805      54154.555     -20738.284      3384.3688     -17353.916      1.0534194    
    756000   295.70947     -120.19274      54787.487     -20714.73       3308.096      -17406.634      1.0412498    
    757000   299.15032     -692.82349      55315.5       -20793.595      3346.5887     -17447.006      1.0313105    
    758000   297.14029     -262.00135      55357.621     -20762.234      3324.1026     -17438.132      1.0305258    
    759000   302.84277     -145.67821      54658.355     -20728.813      3387.896      -17340.917      1.0437098    
    760000   302.51504      411.09934      54828.219     -20771.633      3384.2298     -17387.403      1.0404762    
    761000   303.48923     -177.99432      54389.81      -20775.376      3395.128      -17380.248      1.048863     
    762000   300.44298     -655.17181      54447.353     -20676.608      3361.0496     -17315.559      1.0477545    
    763000   297.83411     -1096.8733      54852.988     -20623.588      3331.8643     -17291.723      1.0400064    
    764000   306.32799     -457.30584      54502.422     -20699.098      3426.8852     -17272.213      1.0466958    
    765000   300.3404      -99.450397      54676.132     -20849.675      3359.9021     -17489.773      1.0433704    
    766000   295.56789     -258.79933      54948.837     -20789.549      3306.5121     -17483.037      1.0381923    
    767000   300.15416      189.96515      54570.305     -20680.403      3357.8187     -17322.584      1.0453938    
    768000   304.31048     -327.50002      55112.116     -20752.277      3404.3153     -17347.961      1.0351164    
    769000   304.49842     -19.996299      54244.637     -20810.538      3406.4177     -17404.12       1.05167      
    770000   301.6877       41.955296      54762.13      -20827.669      3374.9743     -17452.695      1.0417319    
    771000   301.94167      699.7245       55546.562     -20783.342      3377.8155     -17405.526      1.0270205    
    772000   299.62119      194.30247      55210.804     -20707.638      3351.8563     -17355.781      1.0332662    
    773000   292.09265     -340.70792      55094.2       -20680.119      3267.6346     -17412.485      1.035453     
    774000   298.4096       287.28331      54525.733     -20741.163      3338.3022     -17402.861      1.0462483    
    775000   302.04528     -169.72742      54772.29      -20737.863      3378.9746     -17358.888      1.0415387    
    776000   303.35889      175.16992      54311.668     -20755.313      3393.6698     -17361.643      1.0503721    
    777000   296.18887     -497.65374      55378.572     -20749.576      3313.459      -17436.117      1.0301359    
    778000   299.58591     -17.919868      55451.781     -20694.806      3351.4616     -17343.344      1.0287759    
    779000   295.82763     -94.594967      55376.106     -20752.372      3309.4179     -17442.954      1.0301818    
    780000   307.8626       123.38911      55011.96      -20771.095      3444.0528     -17327.042      1.037001     
    781000   302.12201      527.89626      54672.066     -20784.381      3379.833      -17404.548      1.043448     
    782000   302.56482      14.876674      54405.077     -20856.454      3384.7866     -17471.667      1.0485686    
    783000   293.72159     -591.54927      54421.101     -20866.919      3285.8576     -17581.061      1.0482599    
    784000   300.99759      448.66599      54767.576     -20844.76       3367.254      -17477.506      1.0416283    
    785000   294.70522      679.42678      54549.879     -20852.686      3296.8614     -17555.824      1.0457852    
    786000   301.84871      335.69466      54880.507     -20809.113      3376.7755     -17432.337      1.0394849    
    787000   305.97395      162.69129      54381.255     -20786.854      3422.9245     -17363.93       1.049028     
    788000   299.72818      129.17724      54655.293     -20738.803      3353.0531     -17385.75       1.0437682    
    789000   302.02141      104.64241      54686.337     -20740.389      3378.7075     -17361.681      1.0431757    
    790000   301.35593     -525.4813       54587.606     -20790.976      3371.2627     -17419.713      1.0450625    
    791000   296.72865     -327.69593      54744.581     -20776.364      3319.4975     -17456.866      1.0420658    
    792000   298.44328      257.38075      54140.463     -20820.058      3338.679      -17481.38       1.0536936    
    793000   304.87764     -371.05352      54613.12      -20813.621      3410.6601     -17402.961      1.0445742    
    794000   303.68028      70.404731      54517.23      -20674.964      3397.2653     -17277.699      1.0464115    
    795000   301.4241      -442.52877      54600.668     -20796.574      3372.0254     -17424.549      1.0448124    
    796000   300.15593      792.15461      54646.176     -20689.819      3357.8384     -17331.981      1.0439423    
    797000   294.70988     -172.07089      54925.025     -20861.084      3296.9135     -17564.171      1.0386424    
    798000   295.48031      267.04139      54904.254     -20756.796      3305.5323     -17451.264      1.0390353    
    799000   290.55593      72.986366      54876.168     -20860.232      3250.4434     -17609.789      1.0395671    
    800000   302.77039      1036.9992      54660.56      -20792.722      3387.0864     -17405.636      1.0436676    
    801000   304.92562      12.497153      55282.07      -20747.096      3411.1968     -17335.899      1.0319342    
    802000   297.50674     -123.8822       54846.709     -20729.591      3328.202      -17401.389      1.0401254    
    803000   301.844       -418.63019      54786.615     -20741.786      3376.7228     -17365.063      1.0412663    
    804000   302.10472      53.243065      54760.63      -20848.255      3379.6395     -17468.616      1.0417604    
    805000   301.26985      355.3174       54767.857     -20684.746      3370.2998     -17314.446      1.041623     
    806000   299.86459     -39.746797      54917.464     -20698.559      3354.5792     -17343.98       1.0387854    
    807000   301.82522     -460.21548      54685.42      -20787.996      3376.5127     -17411.483      1.0431932    
    808000   291.83175     -112.5036       55238.663     -20725.615      3264.716      -17460.899      1.0327451    
    809000   295.77768      154.51435      54508.122     -20684.335      3308.8591     -17375.476      1.0465864    
    810000   299.23144      91.572484      54675.307     -20867.679      3347.4962     -17520.183      1.0433861    
    811000   299.62006     -705.32472      55162.036     -20793.031      3351.8436     -17441.187      1.0341797    
    812000   304.68926      183.83989      54759.026     -20882.045      3408.5527     -17473.492      1.0417909    
    813000   304.27244     -4.5363823      54939.093     -20776.719      3403.8897     -17372.829      1.0383764    
    814000   297.93376      194.14695      55195.109     -20784.375      3332.979      -17451.396      1.03356      
    815000   298.05395      90.937274      55045.221     -20812.961      3334.3237     -17478.637      1.0363744    
    816000   296.48034     -318.83594      55139.272     -20726.267      3316.7197     -17409.548      1.0346066    
    817000   296.5588       59.652835      55339.82      -20621.695      3317.5973     -17304.098      1.0308573    
    818000   295.39267      134.03151      55425.335     -20697.71       3304.5519     -17393.158      1.0292668    
    819000   300.03965      114.64972      54758.868     -20672.173      3356.5376     -17315.636      1.0417939    
    820000   306.78614     -356.22618      55606.101     -20732.568      3432.0104     -17300.558      1.0259208    
    821000   298.21083      17.516329      54737.372     -20764.021      3336.0786     -17427.942      1.0422031    
    822000   302.65304      337.18028      54471.09      -20709.146      3385.7736     -17323.373      1.0472979    
    823000   302.45798     -186.07177      54618.774     -20726.808      3383.5914     -17343.216      1.0444661    
    824000   303.91496     -376.01484      54616.062     -20734.821      3399.8906     -17334.93       1.044518     
    825000   300.01486      245.3236       54787.369     -20702.047      3356.2603     -17345.787      1.041252     
    826000   299.23167     -346.17297      55077.654     -20725.389      3347.4987     -17377.89       1.0357641    
    827000   296.532       -16.614595      55296.357     -20774.128      3317.2976     -17456.83       1.0316676    
    828000   294.52124      84.85112       54837.088     -20762.666      3294.8032     -17467.863      1.0403079    
    829000   299.35604     -413.24522      55252.712     -20739.392      3348.8901     -17390.501      1.0324825    
    830000   298.75688      744.19171      55125.671     -20715.934      3342.1873     -17373.747      1.0348619    
    831000   292.21665     -261.9815       55168.692     -20645.349      3269.0219     -17376.327      1.0340549    
    832000   296.78251     -175.52003      55431.258     -20730.966      3320.1        -17410.866      1.0291568    
    833000   301.64005      370.05581      54742.094     -20770.98       3374.4412     -17396.539      1.0421132    
    834000   298.39271      317.18439      54293.186     -20810.892      3338.1133     -17472.778      1.0507296    
    835000   299.47605     -502.37592      54811.49      -20740.761      3350.2326     -17390.529      1.0407938    
    836000   300.49376      404.98235      54312.766     -20715.534      3361.6177     -17353.917      1.0503508    
    837000   300.34521     -170.53967      54781.57      -20747.508      3359.9559     -17387.552      1.0413622    
    838000   298.84575     -199.34206      55125.173     -20747.073      3343.1815     -17403.891      1.0348713    
    839000   298.93406      80.484588      54608.331     -20799.967      3344.1694     -17455.798      1.0446658    
    840000   300.31812      274.07391      54570.641     -20869.548      3359.6528     -17509.895      1.0453873    
    841000   302.87845      405.63124      54893.286     -20635.577      3388.2952     -17247.281      1.0392429    
    842000   296.04257      564.79029      54556.002     -20705.859      3311.8224     -17394.036      1.0456679    
    843000   296.60868      561.01109      54686.101     -20786.694      3318.1554     -17468.538      1.0431802    
    844000   300.49683     -232.32861      54857.595     -20759.935      3361.6521     -17398.283      1.039919     
    845000   299.36069      148.30251      55121.614     -20706.66       3348.9421     -17357.718      1.0349381    
    846000   294.90145     -519.29219      55054.827     -20745.662      3299.0566     -17446.605      1.0361936    
    847000   306.10112     -430.2771       54817.437     -20841.055      3424.3472     -17416.707      1.0406809    
    848000   305.05242      186.73224      54679.986     -20845.623      3412.6153     -17433.007      1.0432969    
    849000   291.42389      442.97276      54736.152     -20682.887      3260.1532     -17422.734      1.0422263    
    850000   301.89441     -79.060671      54690.695     -20899.841      3377.2868     -17522.554      1.0430926    
    851000   299.10461     -177.37151      55061.701     -20737.8        3346.0774     -17391.723      1.0360642    
    852000   291.19235      409.75124      55029.274     -20696.595      3257.563      -17439.032      1.0366747    
    853000   295.67104     -532.52449      54822.582     -20872.289      3307.6661     -17564.623      1.0405832    
    854000   293.56862     -816.45207      55221.352     -20698.227      3284.1464     -17414.08       1.0330688    
    855000   299.35396      545.94688      55139.251     -20663.316      3348.8668     -17314.449      1.034607     
    856000   303.8399       455.62062      54863.258     -20591.355      3399.0509     -17192.304      1.0398117    
    857000   297.49065     -41.98311       54769.593     -20757.46       3328.022      -17429.438      1.04159      
    858000   296.59263      84.324162      54884.329     -20613.081      3317.9758     -17295.105      1.0394125    
    859000   297.03407     -74.807999      54285.147     -20795.512      3322.9143     -17472.598      1.0508852    
    860000   295.48795      458.50263      54242.73      -20824.359      3305.6178     -17518.741      1.051707     
    861000   301.46131     -32.91656       54905.418     -20760.136      3372.4417     -17387.694      1.0390133    
    862000   289.61386      412.33085      54306.688     -20830.453      3239.9044     -17590.549      1.0504684    
    863000   293.38589      285.25874      54489.454     -20657.703      3282.1021     -17375.601      1.0469449    
    864000   303.93187     -72.128818      54216.56      -20720.655      3400.0798     -17320.576      1.0522146    
    865000   297.85797     -725.02716      54797.006     -20697.773      3332.1312     -17365.642      1.0410689    
    866000   299.36319      126.4561       54989.978     -20621.806      3348.97       -17272.836      1.0374155    
    867000   302.34254     -467.81711      55427.24      -20721.28       3382.3        -17338.98       1.0292314    
    868000   294.08884     -76.943519      54754.105     -20729.801      3289.966      -17439.836      1.0418846    
    869000   296.4984       340.341        54764.632     -20709.992      3316.9217     -17393.07       1.0416843    
    870000   295.23482     -385.98764      54881.855     -20769.285      3302.7861     -17466.499      1.0394593    
    871000   299.19146      371.48194      55038.501     -20704.381      3347.0489     -17357.332      1.0365009    
    872000   302.07504     -419.38254      54673.081     -20772.989      3379.3075     -17393.682      1.0434286    
    873000   297.93267     -595.56093      55018.122     -20775.95       3332.9669     -17442.983      1.0368849    
    874000   301.64171     -431.84472      54868.021     -20848.15       3374.4598     -17473.691      1.0397214    
    875000   298.35336      20.320686      54547.146     -20781.275      3337.6731     -17443.602      1.0458376    
    876000   302.59726     -154.00675      54755.22      -20744.696      3385.1495     -17359.546      1.0418634    
    877000   304.57294      52.663909      54382.354     -20784.945      3407.2514     -17377.694      1.0490068    
    878000   308.12733      245.38885      54769.466     -20591.071      3447.0143     -17144.057      1.0415924    
    879000   301.25145     -894.73766      54731.946     -20886.741      3370.094      -17516.647      1.0423064    
    880000   300.34529     -174.58448      54130.198     -20923.651      3359.9568     -17563.695      1.0538934    
    881000   301.64141     -313.52703      54615.979     -20794.395      3374.4565     -17419.939      1.0445196    
    882000   297.86063      18.687312      54635.691     -20709.677      3332.161      -17377.516      1.0441427    
    883000   297.46511      457.45718      54946.812     -20691.975      3327.7362     -17364.238      1.0382305    
    884000   311.65905     -481.34383      55208.556     -20815.849      3486.5236     -17329.325      1.0333083    
    885000   299.92583      373.62489      54815.302     -20797.188      3355.2643     -17441.924      1.0407214    
    886000   300.40746      319.73615      54655.377     -20840.88       3360.6523     -17480.228      1.0437666    
    887000   306.49144     -511.47138      54858.183     -20818.426      3428.7136     -17389.712      1.0399079    
    888000   301.06885     -364.20456      54985.428     -20763.61       3368.0512     -17395.558      1.0375014    
    889000   295.71848      102.00688      54651.157     -20784.74       3308.1968     -17476.543      1.0438472    
    890000   296.1549      -483.8389       55218.952     -20788.121      3313.079      -17475.042      1.0331137    
    891000   296.35432     -58.846922      55223.168     -20663.336      3315.3099     -17348.027      1.0330349    
    892000   303.66883     -635.92849      54589.693     -20711.201      3397.1372     -17314.064      1.0450225    
    893000   298.73822     -599.60601      55010.978     -20726.876      3341.9785     -17384.897      1.0370195    
    894000   304.71669      3.661916       54187.441     -20806.413      3408.8595     -17397.553      1.0527801    
    895000   297.31         490.8807       54797.804     -20881.88       3326.001      -17555.879      1.0410537    
    896000   296.53074      591.90103      55277.292     -20782.017      3317.2835     -17464.734      1.0320234    
    897000   304.26081     -800.97396      55094.291     -20740.491      3403.7597     -17336.732      1.0354513    
    898000   297.73597     -421.15398      54604.022     -20816.267      3330.7664     -17485.5        1.0447483    
    899000   298.33912      427.34283      54539.324     -20827.42       3337.5138     -17489.907      1.0459876    
    900000   296.69628      160.11063      54406.347     -20800.47       3319.1354     -17481.334      1.0485442    
    901000   308.74503     -26.420749      54708.219     -20779.367      3453.9245     -17325.442      1.0427585    
    902000   295.96577     -260.31579      55055.468     -20714.218      3310.9632     -17403.254      1.0361815    
    903000   307.05792     -129.54174      55137.671     -20718.017      3435.0508     -17282.966      1.0346367    
    904000   307.21752      214.15705      54246.407     -20814.62       3436.8363     -17377.784      1.0516357    
    905000   298.15034     -122.62816      54910.144     -20667.875      3335.4019     -17332.473      1.0389238    
    906000   299.95047     -172.6499       54952.487     -20726.795      3355.5399     -17371.255      1.0381233    
    907000   300.6045      -34.111852      54451.863     -20861.955      3362.8566     -17499.098      1.0476677    
    908000   304.27132      116.06236      54502.989     -20846.973      3403.8772     -17443.096      1.0466849    
    909000   310.3316       489.42063      54395.931     -20696.718      3471.6734     -17225.045      1.0487449    
    910000   300.0823      -295.10034      54746.535     -20817.202      3357.0147     -17460.187      1.0420286    
    911000   298.2619       205.65459      54800.4       -20730.001      3336.6499     -17393.351      1.0410044    
    912000   297.27707     -780.06463      54751.798     -20697.396      3325.6326     -17371.763      1.0419285    
    913000   295.62946     -626.53626      54730.029     -20696.14       3307.2008     -17388.94       1.0423429    
    914000   296.39414      449.0926       54911.803     -20752.818      3315.7553     -17437.062      1.0388925    
    915000   301.45527      70.696727      54563.083     -20879.359      3372.3741     -17506.985      1.0455322    
    916000   306.78905     -309.56054      54888.795     -20818.337      3432.043      -17386.294      1.0393279    
    917000   297.19436      56.631346      54909.018     -20701.484      3324.7074     -17376.777      1.0389451    
    918000   299.80966      321.11925      54643.939     -20822.03       3353.9647     -17468.066      1.0439851    
    919000   298.50084     -715.76624      54914.113     -20947.489      3339.3229     -17608.166      1.0388487    
    920000   308.45407      1214.4919      54375.954     -20881.679      3450.6696     -17431.01       1.0491302    
    921000   304.71107     -456.47169      54846.294     -20911.515      3408.7967     -17502.718      1.0401333    
    922000   295.8911      -821.81614      54813.255     -20860.924      3310.1279     -17550.796      1.0407603    
    923000   304.59734     -203.47256      55276.904     -20662.785      3407.5244     -17255.26       1.0320306    
    924000   300.32012     -354.67528      54602.487     -20766.733      3359.6752     -17407.058      1.0447776    
    925000   301.94598     -703.61918      54932.071     -20703.972      3377.8636     -17326.108      1.0385091    
    926000   296.27426     -552.75149      54901.404     -20744.533      3314.4143     -17430.118      1.0390892    
    927000   300.50798     -585.90413      54550.082     -20948.154      3361.7768     -17586.377      1.0457813    
    928000   297.00559     -434.03572      54604.36      -20838.482      3322.5956     -17515.887      1.0447418    
    929000   297.66731     -359.995        55161.221     -20738.017      3329.9983     -17408.019      1.034195     
    930000   301.50464     -58.511635      54556.755     -20729.241      3372.9264     -17356.314      1.0456534    
    931000   298.51941     -717.88674      54601.493     -20836.933      3339.5307     -17497.402      1.0447967    
    932000   298.26985     -62.13805       54688.915     -20708.131      3336.7389     -17371.392      1.0431265    
    933000   294.21238      311.86041      54446.575     -20959.8        3291.3481     -17668.451      1.0477694    
    934000   300.95561      512.37684      54451.039     -20888.112      3366.7845     -17521.328      1.0476835    
    935000   301.66971      59.02431       55126.165     -20752.629      3374.7731     -17377.856      1.0348526    
    936000   301.50753      623.30907      55216.494     -20672.882      3372.9587     -17299.924      1.0331597    
    937000   298.48822      287.98737      54432.876     -20814.895      3339.1817     -17475.713      1.0480331    
    938000   287.32308      510.60262      54519.024     -20706.885      3214.2776     -17492.608      1.0463771    
    939000   309.59561     -369.83818      54899.548     -20843.526      3463.4399     -17380.086      1.0391244    
    940000   297.0859       75.581553      54813.419     -20607.045      3323.494      -17283.551      1.0407571    
    941000   298.24034      225.87471      54819.722     -20626.859      3336.4088     -17290.45       1.0406375    
    942000   298.21333      283.17851      54559.568     -20774.405      3336.1066     -17438.298      1.0455995    
    943000   301.75213     -178.90052      55229.717     -20732.236      3375.6951     -17356.541      1.0329124    
    944000   299.15818     -39.337078      54581.522     -20760.671      3346.6766     -17413.994      1.045179     
    945000   300.67024      468.59119      54460.129     -20733.474      3363.592      -17369.882      1.0475087    
    946000   310.13309      349.06615      54513.307     -20619.758      3469.4527     -17150.305      1.0464868    
    947000   292.46162      76.782078      55327.748     -20736.178      3271.7624     -17464.416      1.0310822    
    948000   304.64065      47.152659      54777.452     -20814.938      3408.0089     -17406.929      1.0414405    
    949000   303.19518     -534.11819      54737.756     -20825.197      3391.8384     -17433.359      1.0421958    
    950000   297.69378     -388.10186      54944.572     -20766.53       3330.2944     -17436.235      1.0382729    
    951000   301.69749      97.10077       54704.995     -20744.01       3375.0839     -17368.926      1.0428199    
    952000   305.70466     -95.258418      55567.256     -20755.194      3419.9119     -17335.282      1.026638     
    953000   299.13448      831.4922       54876.527     -20641.735      3346.4115     -17295.323      1.0395603    
    954000   293.29873     -129.51631      54387.02      -20886.835      3281.1271     -17605.708      1.0489168    
    955000   294.3192      -507.41637      54959.094     -20867.41       3292.5431     -17574.867      1.0379985    
    956000   307.18813     -132.90858      54900.991     -20814.986      3436.5075     -17378.479      1.0390971    
    957000   299.31969     -35.399804      54647.337     -20898.335      3348.4834     -17549.852      1.0439202    
    958000   301.33652      418.28311      54844.88      -20765.185      3371.0456     -17394.14       1.0401601    
    959000   295.0215       146.58577      54843.423     -20725.956      3300.3997     -17425.556      1.0401878    
    960000   302.04585     -252.71419      54693.13      -20784.49       3378.9809     -17405.509      1.0430461    
    961000   302.86328     -15.20963       54872.55      -20772.535      3388.1255     -17384.409      1.0396356    
    962000   290.83239     -313.07686      55108.137     -20719.4        3253.5362     -17465.863      1.0351912    
    963000   292.28459     -29.962283      54227.55      -20832.946      3269.7819     -17563.164      1.0520014    
    964000   298.85229     -916.91436      54559.501     -20750.467      3343.2547     -17407.212      1.0456008    
    965000   291.00838     -48.776823      54873.711     -20789.566      3255.5049     -17534.061      1.0396136    
    966000   303.20372      320.12709      54528.111     -20787.401      3391.934      -17395.467      1.0462027    
    967000   299.67766     -210.47022      55012.663     -20834.372      3352.488      -17481.884      1.0369878    
    968000   299.77443     -104.7599       54778.768     -20847.59       3353.5706     -17494.02       1.0414155    
    969000   301.46299      645.60502      54562.41      -20734.785      3372.4605     -17362.324      1.045545     
    970000   296.52079      352.80019      54862.777     -20720.437      3317.1722     -17403.265      1.0398208    
    971000   299.89754     -194.37536      54866.034     -20826.666      3354.9478     -17471.718      1.0397591    
    972000   299.18527     -33.733035      54741.035     -20854.263      3346.9796     -17507.284      1.0421333    
    973000   302.85721     -160.36723      54744.647     -20702.383      3388.0576     -17314.325      1.0420646    
    974000   299.19509      612.5524       54638.875     -20655.848      3347.0896     -17308.759      1.0440819    
    975000   304.09748      100.96127      54298.113     -20840.91       3401.9325     -17438.978      1.0506342    
    976000   289.64378     -399.52715      54219.478     -20781.237      3240.2392     -17540.998      1.052158     
    977000   301.41809      420.93431      54647.543     -20759.117      3371.9582     -17387.159      1.0439162    
    978000   300.20028     -955.11703      54718.282     -20681.988      3358.3346     -17323.653      1.0425667    
    979000   298.12163     -49.502584      55090.215     -20724.265      3335.0807     -17389.185      1.035528     
    980000   297.03653      801.77116      54432.548     -20776.471      3322.9418     -17453.53       1.0480395    
    981000   302.5939       759.86575      54810.447     -20771.506      3385.1119     -17386.394      1.0408136    
    982000   309.72307      87.907598      54632.273     -20808.856      3464.8658     -17343.991      1.044208     
    983000   293.84609     -897.07023      55549.202     -20748.398      3287.2504     -17461.147      1.0269717    
    984000   302.53142     -503.02231      54843.167     -20856.872      3384.413      -17472.459      1.0401926    
    985000   307.72563     -450.31113      54856.609     -20849.828      3442.5205     -17407.307      1.0399377    
    986000   300.32907     -521.54205      54847.314     -20856.58       3359.7753     -17496.805      1.040114     
    987000   296.50573     -114.19109      55102.503     -20806.315      3317.0037     -17489.311      1.035297     
    988000   290.75651      457.86893      53925.967     -20689.656      3252.6873     -17436.969      1.0578847    
    989000   300.53424      546.97196      54466.99      -20761.68       3362.0705     -17399.61       1.0473767    
    990000   303.3547      -29.179422      54993.709     -20800.145      3393.623      -17406.522      1.0373452    
    991000   301.92385     -136.46637      54738.622     -20641.301      3377.6161     -17263.685      1.0421793    
    992000   306.6463       358.03421      54827.797     -20864.335      3430.4461     -17433.889      1.0404842    
    993000   308.30115      632.9258       54500.099     -20683.819      3448.9589     -17234.86       1.0467404    
    994000   290.05581     -340.86643      55100.621     -20760.262      3244.8486     -17515.413      1.0353324    
    995000   295.94079      6.1649152      55153.354     -20784.49       3310.6837     -17473.806      1.0343425    
    996000   301.89206     -228.84265      54596.628     -20820.585      3377.2605     -17443.324      1.0448898    
    997000   306.87174     -58.668405      55549.353     -20587.456      3432.9681     -17154.488      1.0269689    
    998000   298.76858      322.68921      54388.198     -20916.68       3342.3181     -17574.362      1.0488941    
    999000   294.6794       286.08849      54702.438     -20796.532      3296.5726     -17499.959      1.0428686    
   1000000   298.50187      488.35207      54602.491     -20695.548      3339.3344     -17356.213      1.0447776    
   1001000   301.06308      255.62988      54870.92      -20705.132      3367.9867     -17337.145      1.0396665    
   1002000   291.24108     -227.94064      55132.609     -20643.191      3258.1082     -17385.083      1.0347317    
   1003000   297.44195      52.403524      55106.642     -20811.607      3327.4771     -17484.13       1.0352193    
   1004000   302.45324      743.19653      54428.048     -20754.81       3383.5383     -17371.272      1.0481261    
   1005000   298.47091     -385.37353      54580.748     -20800.556      3338.9882     -17461.568      1.0451938    
   1006000   308.78994      207.19009      54351.818     -20665.474      3454.4269     -17211.047      1.0495961    
   1007000   303.60991     -351.74795      54405.578     -20761.452      3396.4781     -17364.974      1.048559     
   1008000   303.86977     -207.43951      54099.755     -20716.621      3399.3851     -17317.236      1.0544864    
   1009000   301.26004     -706.52299      54206.559     -20694.59       3370.19       -17324.4        1.0524088    
   1010000   299.0111       222.1842       54525.435     -20767.815      3345.0312     -17422.784      1.0462541    
   1011000   302.23092      747.64986      54515.006     -20928.696      3381.0513     -17547.645      1.0464542    
   1012000   298.33043      388.40836      54505.653     -20733.762      3337.4165     -17396.345      1.0466338    
   1013000   299.52371     -257.9972       55094.402     -20772.025      3350.7658     -17421.259      1.0354492    
   1014000   298.42902     -776.4592       55699.295     -20828.424      3338.5195     -17489.904      1.0242043    
   1015000   292.82927     -102.36833      54785.523     -20820.579      3275.8752     -17544.704      1.0412871    
   1016000   300.72536     -106.90317      54703.46      -20740.374      3364.2086     -17376.166      1.0428492    
   1017000   309.49869     -681.03925      54682.417     -20820.729      3462.3557     -17358.374      1.0432505    
   1018000   299.85826      232.7364       55012.388     -20764.736      3354.5083     -17410.228      1.0369929    
   1019000   301.22474     -523.54232      54706.245     -20815.927      3369.7952     -17446.132      1.0427961    
   1020000   301.57103     -697.51148      54662.586     -20776.751      3373.6691     -17403.082      1.043629     
   1021000   302.07672     -196.16094      54281.64      -20771.566      3379.3263     -17392.24       1.0509531    
   1022000   300.77957      1022.0479      54746.661     -20723.642      3364.8151     -17358.827      1.0420263    
   1023000   308.11526      120.95881      54774.428     -20688.332      3446.8793     -17241.452      1.041498     
   1024000   295.71006      786.46451      54873.306     -20749.177      3308.1025     -17441.074      1.0396213    
   1025000   303.49258      695.54431      54662.579     -20771.447      3395.1654     -17376.281      1.0436291    
   1026000   298.85288      512.64889      54831.01      -20666.791      3343.2612     -17323.53       1.0404232    
   1027000   298.90466     -91.6715        55132.546     -20718.746      3343.8405     -17374.905      1.0347329    
   1028000   298.29108     -234.50449      54288.625     -20880.163      3336.9764     -17543.187      1.0508179    
   1029000   304.16872      194.39068      54396.259     -20812.699      3402.7294     -17409.97       1.0487386    
   1030000   305.22362      362.73501      55065.153     -20805.713      3414.5305     -17391.183      1.0359993    
   1031000   308.34145      682.2041       54505.057     -20670.254      3449.4097     -17220.845      1.0466452    
   1032000   298.96616      139.62874      54983.548     -20784.299      3344.5285     -17439.77       1.0375368    
   1033000   304.92875     -116.23308      54778.031     -20787.735      3411.2319     -17376.504      1.0414295    
   1034000   307.35025      191.72908      55034.052     -20732.471      3438.3212     -17294.15       1.0365847    
   1035000   296.55907      804.33518      54619.868     -20676.55       3317.6004     -17358.949      1.0444452    
   1036000   297.48244     -61.854182      54734.633     -20806.443      3327.9301     -17478.513      1.0422552    
   1037000   298.0489      -807.77622      55219.121     -20763.203      3334.2672     -17428.936      1.0331106    
   1038000   300.76252      119.69286      54520.972     -20968.797      3364.6244     -17604.173      1.0463397    
   1039000   300.4878       738.28951      54183.225     -20924.731      3361.5511     -17563.18       1.052862     
   1040000   300.22611     -543.02541      54645.35      -20960.748      3358.6235     -17602.125      1.0439581    
   1041000   299.05531     -151.53403      54845.836     -20815.716      3345.5259     -17470.19       1.040142     
   1042000   304.99425     -33.148012      54500.409     -20738.707      3411.9647     -17326.742      1.0467345    
   1043000   307.34484     -1222.0815      55082.95      -20784.563      3438.2607     -17346.302      1.0356645    
   1044000   292.85009      379.5856       54616.859     -20856.78       3276.1082     -17580.672      1.0445027    
   1045000   301.02714     -142.75786      54847.769     -20844.961      3367.5846     -17477.376      1.0401054    
   1046000   301.2613       14.859088      54643.469     -20829.608      3370.2042     -17459.403      1.0439941    
   1047000   292.16846     -27.666384      54420.234     -20781.475      3268.4828     -17512.992      1.0482766    
   1048000   300.68917     -48.760818      54794.325     -20636.364      3363.8038     -17272.56       1.0411198    
   1049000   300.11111     -237.10462      55191.25      -20753.639      3357.337      -17396.302      1.0336323    
   1050000   301.18128     -58.374176      54723.793     -20827.885      3369.3089     -17458.576      1.0424617    
   1051000   291.84015     -853.74439      55359.009     -20756.504      3264.8099     -17491.694      1.0305       
   1052000   300.36435     -380.69383      54784.861     -20725.131      3360.17       -17364.961      1.0412997    
   1053000   300.06679      701.65184      54572.109     -20701.521      3356.8412     -17344.68       1.0453592    
   1054000   294.93007     -340.8087       54603.343     -20741.543      3299.3768     -17442.166      1.0447613    
   1055000   299.67355      117.20945      55234.732     -20706.537      3352.4421     -17354.095      1.0328186    
   1056000   295.63942     -14.372479      55025.102     -20740.308      3307.3124     -17432.995      1.0367533    
   1057000   302.95338      362.5277       54724.358     -20863.254      3389.1334     -17474.12       1.0424509    
   1058000   299.43812     -267.73926      54708.593     -20793.823      3349.8083     -17444.015      1.0427513    
   1059000   298.49759     -111.18179      54921.046     -20743.98       3339.2866     -17404.693      1.0387176    
   1060000   297.88545      414.21352      54409.359     -20721.06       3332.4386     -17388.622      1.0484861    
   1061000   304.43795     -731.56423      54243.579     -20788.398      3405.7413     -17382.657      1.0516905    
   1062000   301.04579      382.35288      54476.921     -20810.857      3367.7933     -17443.064      1.0471858    
   1063000   299.18555      171.68027      54793.455     -20843.724      3346.9828     -17496.742      1.0411364    
   1064000   300.64885     -621.36007      54851.109     -20787.697      3363.3527     -17424.344      1.040042     
   1065000   302.30149     -297.10889      54519.814     -20820.889      3381.8408     -17439.048      1.0463619    
   1066000   294.86984     -93.49607       55281.344     -20818.392      3298.703      -17519.689      1.0319477    
   1067000   300.72531      340.28381      54937.458     -20846.665      3364.208      -17482.457      1.0384073    
   1068000   302.82928     -30.011858      54663.282     -20639.356      3387.7452     -17251.61       1.0436157    
   1069000   295.40806      81.314718      55179.509     -20765.452      3304.7241     -17460.728      1.0338522    
   1070000   304.77259     -342.25919      55192.733     -20713.714      3409.4849     -17304.229      1.0336045    
   1071000   305.68663      917.40353      54554.161     -20833.041      3419.7103     -17413.331      1.0457031    
   1072000   302.85802     -131.91647      54466.995     -20895.864      3388.0666     -17507.798      1.0473766    
   1073000   305.04471     -288.92309      54655.529     -20751.967      3412.5291     -17339.438      1.0437637    
   1074000   294.68613     -231.67701      54652.589     -20886.562      3296.6478     -17589.914      1.0438198    
   1075000   308.28221      294.53483      54669.744     -20762.629      3448.7469     -17313.882      1.0434923    
   1076000   295.79589     -804.31449      54849.265     -20862.993      3309.0628     -17553.931      1.040077     
   1077000   299.82892      302.53042      55295.381     -20713.581      3354.1801     -17359.401      1.0316858    
   1078000   298.69418     -1336.0356      54678.092     -20860.169      3341.4859     -17518.683      1.043333     
   1079000   291.38617     -137.68313      55006.864     -20838.129      3259.7313     -17578.398      1.0370971    
   1080000   306.7465      -682.6595       54891.573     -20777.559      3431.567      -17345.992      1.0392753    
   1081000   299.63664     -115.29955      54355.9       -20921.462      3352.0292     -17569.433      1.0495173    
   1082000   300.13599      220.9799       54276.319     -20699.862      3357.6153     -17342.247      1.0510561    
   1083000   304.26758      430.37459      54768.031     -20601.989      3403.8354     -17198.154      1.0416197    
   1084000   297.22971      1.8241161      54974.623     -20605.04       3325.1028     -17279.937      1.0377053    
   1085000   301.20051      101.46264      54799.375     -20766.341      3369.5241     -17396.816      1.0410239    
   1086000   303.40673     -426.53825      55088.797     -20630.243      3394.205      -17236.038      1.0355546    
   1087000   297.85448      47.9631        54981.538     -20696.15       3332.0922     -17364.058      1.0375748    
   1088000   303.53248      371.83747      54831.769     -20697.085      3395.6118     -17301.473      1.0404088    
   1089000   307.15836      317.36591      54719.046     -20780.641      3436.1744     -17344.466      1.0425521    
   1090000   308.25681      719.99089      55119.103     -20745.227      3448.4628     -17296.764      1.0349852    
   1091000   295.1437       20.933681      54698.903     -20813.492      3301.7667     -17511.725      1.042936     
   1092000   301.57401      574.06342      54487.636     -20717.054      3373.7024     -17343.352      1.0469799    
   1093000   299.28532      64.065809      54626.414     -20823.716      3348.0989     -17475.617      1.04432      
   1094000   301.19686     -628.83975      54867.469     -20755.175      3369.4833     -17385.692      1.0397319    
   1095000   292.20541     -216.51824      54953.805     -20822.399      3268.8961     -17553.503      1.0380984    
   1096000   298.48172      233.51998      54896.205     -20787.954      3339.109      -17448.845      1.0391876    
   1097000   295.79838      431.67506      54644.389     -20834.46       3309.0906     -17525.369      1.0439765    
   1098000   307.67548      15.507374      54276.303     -20688.684      3441.9595     -17246.725      1.0510564    
   1099000   295.38642      218.18332      54355.907     -20819.485      3304.482      -17515.003      1.0495172    
   1100000   297.09703      8.892169       54346.142     -20684.224      3323.6186     -17360.605      1.0497057    
   1101000   304.081        67.012611      55006.299     -20712.128      3401.7481     -17310.38       1.0371077    
   1102000   303.78545      1041.2777      54863.045     -20836.56       3398.4418     -17438.119      1.0398157    
   1103000   308.06062      458.92294      54716.879     -20686.149      3446.268      -17239.881      1.0425934    
   1104000   299.96029      148.24492      54685.913     -20758.81       3355.6498     -17403.161      1.0431838    
   1105000   304.10252      907.49912      53825.811     -20746.821      3401.9889     -17344.832      1.0598532    
   1106000   300.2207      -211.69469      54324.414     -20700.889      3358.563      -17342.326      1.0501256    
   1107000   300.01796     -920.5545       54859.742     -20804.927      3356.295      -17448.632      1.0398783    
   1108000   304.38464      118.79964      54572.166     -20740.194      3405.1449     -17335.049      1.0453581    
   1109000   307.34735      700.43749      54149.104     -20724.142      3438.2887     -17285.854      1.0535254    
   1110000   299.77137      509.57601      54539.602     -20654.203      3353.5363     -17300.667      1.0459823    
   1111000   300.34036     -666.48751      55299.726     -20786.404      3359.9016     -17426.502      1.0316047    
   1112000   294.45989     -509.10121      54649.445     -20716.484      3294.1169     -17422.367      1.0438799    
   1113000   300.43429      957.72387      54547.373     -20736.473      3360.9524     -17375.521      1.0458333    
   1114000   303.53884      728.87117      54636.82      -20832.407      3395.683      -17436.724      1.0441211    
   1115000   300.10977     -456.75979      54600.819     -20923.809      3357.3221     -17566.487      1.0448096    
   1116000   296.89139      59.844459      54121.9       -20784.603      3321.3181     -17463.285      1.054055     
   1117000   297.27168      43.495284      54583.448     -20866.529      3325.5724     -17540.956      1.0451421    
   1118000   299.306       -328.18178      54592.725     -20792.432      3348.3303     -17444.101      1.0449645    
   1119000   301.0918       481.52477      54820.161     -20815.942      3368.308      -17447.634      1.0406291    
   1120000   301.08969     -34.488143      54757.25      -20746.957      3368.2844     -17378.673      1.0418247    
   1121000   303.67375      765.88661      54620.859     -20643.587      3397.1922     -17246.395      1.0444262    
   1122000   296.34843     -347.67956      54499.818     -20901.256      3315.244      -17586.012      1.0467458    
   1123000   296.08935     -66.097248      54731.601     -20704.846      3312.3457     -17392.501      1.042313     
   1124000   295.80913     -659.92484      55475.754     -20676.692      3309.2108     -17367.481      1.0283314    
   1125000   299.50095      463.63832      54805.277     -20847.557      3350.5111     -17497.046      1.0409118    
   1126000   300.16073     -4.8914004      54907.354     -20766.031      3357.8922     -17408.139      1.0389766    
   1127000   294.62391     -865.82497      54843.879     -20691.511      3295.9518     -17395.559      1.0401791    
   1128000   293.64111     -171.07262      54975.55      -20763.477      3284.9573     -17478.519      1.0376878    
   1129000   299.1473      -5.6414569      54498.079     -20842.789      3346.5549     -17496.234      1.0467792    
   1130000   302.28929     -300.74886      55095.544     -20722.44       3381.7043     -17340.735      1.0354278    
   1131000   297.50591     -8.6405991      54945.523     -20749.315      3328.1927     -17421.122      1.0382549    
   1132000   303.15374     -104.37877      55218.836     -20785.005      3391.3748     -17393.63       1.0331159    
   1133000   304.4921      -213.99316      54888.973     -20797.579      3406.3471     -17391.232      1.0393246    
   1134000   292.9808      -276.83476      55098.33      -20740.021      3277.5704     -17462.451      1.0353754    
   1135000   299.30345      53.931669      54667.176     -20738.41       3348.3018     -17390.108      1.0435413    
   1136000   304.2917       474.29024      54431.036     -20795.147      3404.1052     -17391.041      1.0480686    
   1137000   297.28925      334.58359      54918.493     -20845.716      3325.7689     -17519.947      1.0387659    
   1138000   296.75036     -79.202753      54794.434     -20807.56       3319.7404     -17487.82       1.0411178    
   1139000   304.20565      124.73181      54329.373     -20784.348      3403.1425     -17381.206      1.0500297    
   1140000   300.02975     -1243.9276      54464.066     -20707.088      3356.4268     -17350.661      1.047433     
   1141000   297.19052     -206.00515      54720.509     -20912.941      3324.6645     -17588.276      1.0425243    
   1142000   291.76699      52.150299      54419.451     -20857.269      3263.9915     -17593.278      1.0482917    
   1143000   296.92626     -724.15072      54469.895     -20783.051      3321.7082     -17461.343      1.0473209    
   1144000   295.62919      6.8676442      54838.8       -20799.077      3307.1979     -17491.879      1.0402755    
   1145000   306.36548     -268.83049      54121.346     -20737.63       3427.3046     -17310.325      1.0540658    
   1146000   305.5725      -232.89303      54558.575     -20715.318      3418.4335     -17296.884      1.0456185    
   1147000   303.9625      -92.147298      54623.149     -20824.772      3400.4224     -17424.35       1.0443824    
   1148000   296.57582      967.69268      54323.376     -20840.747      3317.7878     -17522.959      1.0501457    
   1149000   297.82321      740.72613      54544.565     -20826.844      3331.7424     -17495.101      1.0458871    
   1150000   297.10984      885.19848      54462.774     -20919.115      3323.7619     -17595.353      1.0474578    
   1151000   300.6158      -124.87686      54710.207     -20789.156      3362.983      -17426.173      1.0427206    
   1152000   307.09005     -55.205195      54385.355     -20835.389      3435.4103     -17399.979      1.0489489    
   1153000   300.50109     -142.4192       54925.605     -20800.307      3361.6997     -17438.607      1.0386314    
   1154000   295.87813     -260.30767      54670.471     -20792.534      3309.9828     -17482.551      1.0434784    
   1155000   298.75037     -116.7065       54825.581     -20775.848      3342.1144     -17433.734      1.0405263    
   1156000   297.69727     -196.68755      54944.167     -20722.852      3330.3335     -17392.519      1.0382805    
   1157000   297.10607     -53.163407      54935.33      -20848.915      3323.7197     -17525.196      1.0384475    
   1158000   293.41078     -171.32029      55374.081     -20808.727      3282.3805     -17526.347      1.0302195    
   1159000   296.01074      73.574373      54952.733     -20821.299      3311.4662     -17509.832      1.0381187    
   1160000   295.18607     -196.78967      54694.036     -20794.63       3302.2407     -17492.39       1.0430289    
   1161000   304.52453     -163.07331      54442.806     -20719.37       3406.7098     -17312.66       1.047842     
   1162000   297.99681     -608.04729      54846.423     -20707.797      3333.6843     -17374.112      1.0401309    
   1163000   299.83684     -582.88834      54643.345     -20712.33       3354.2687     -17358.061      1.0439964    
   1164000   305.71931      1098.6377      54532.238     -20728.38       3420.0758     -17308.304      1.0461235    
   1165000   304.29961      394.75536      55254.173     -20807.174      3404.1937     -17402.98       1.0324552    
   1166000   296.3687      -583.06722      55068.646     -20685.421      3315.4707     -17369.951      1.0359335    
   1167000   295.1412      -126.47795      54646.28      -20665.449      3301.7387     -17363.71       1.0439404    
   1168000   299.33587     -320.98403      54626.21      -20789.807      3348.6644     -17441.142      1.0443239    
   1169000   299.56973     -424.77886      55010.567     -20796.245      3351.2806     -17444.965      1.0370273    
   1170000   294.02782     -814.1679       54513.208     -20880.971      3289.2834     -17591.687      1.0464887    
   1171000   299.23031      67.360442      54312.269     -20810.467      3347.4836     -17462.984      1.0503604    
   1172000   289.44906     -73.995538      54078.257     -20916.87       3238.0609     -17678.809      1.0549056    
   1173000   296.76155     -234.07224      54383.132     -20817.645      3319.8655     -17497.78       1.0489918    
   1174000   302.69855     -162.53947      54650.752     -20866.263      3386.2826     -17479.98       1.0438549    
   1175000   297.58532      287.99027      55466.055     -20712.537      3329.081      -17383.456      1.0285112    
   1176000   298.47921     -181.03415      54545.832     -20836.063      3339.081      -17496.982      1.0458628    
   1177000   298.74378     -911.89664      54936.766     -20801.381      3342.0407     -17459.341      1.0384204    
   1178000   294.52226     -861.49649      54878.474     -20958.788      3294.8147     -17663.973      1.0395234    
   1179000   296.03305      1193.4227      55257.642     -20735.134      3311.7158     -17423.419      1.0323904    
   1180000   306.06024      246.05014      54425.266     -20724.361      3423.8899     -17300.471      1.0481797    
   1181000   298.42166      102.90182      54644.455     -20726.268      3338.4372     -17387.831      1.0439752    
   1182000   296.12113      79.077409      54467.013     -20742.319      3312.7012     -17429.618      1.0473763    
   1183000   299.6357      -151.09876      54925.458     -20669.17       3352.0187     -17317.152      1.0386342    
   1184000   303.5934      -339.24813      54250.532     -20852.469      3396.2933     -17456.176      1.0515557    
   1185000   292.07474     -588.34809      54532.387     -20981.811      3267.4343     -17714.377      1.0461207    
   1186000   302.10788      407.32391      54360.934     -20761.81       3379.6749     -17382.135      1.0494201    
   1187000   300.32914      614.56724      54891.663     -20739.309      3359.7761     -17379.533      1.0392736    
   1188000   302.92685     -679.70868      54960.269     -20665.703      3388.8367     -17276.866      1.0379763    
   1189000   297.89388      196.46327      54750.396     -20837.675      3332.5329     -17505.142      1.0419552    
   1190000   303.44982     -444.7119       54744.961     -20822.621      3394.6871     -17427.933      1.0420586    
   1191000   300.65693      37.134616      54947.885     -20900.418      3363.4431     -17536.975      1.0382103    
   1192000   299.5413      -508.72391      54965.37      -20766.037      3350.9626     -17415.074      1.03788      
   1193000   296.80773     -106.0274       54584.867     -20743.868      3320.3822     -17423.485      1.0451149    
   1194000   301.68195      235.64662      54260.143     -20793.402      3374.91       -17418.492      1.0513695    
   1195000   300.60584      874.66652      54395.432     -20700.464      3362.8716     -17337.593      1.0487546    
   1196000   296.53256     -829.79675      55437.811     -20794.349      3317.3039     -17477.045      1.0290352    
   1197000   306.32159      168.72593      54988.215     -20946.468      3426.8135     -17519.654      1.0374488    
   1198000   299.94903      762.882        55072.072     -20746.089      3355.5238     -17390.565      1.0358691    
   1199000   293.38713     -858.99701      54488.37      -20824.504      3282.116      -17542.388      1.0469658    
   1200000   297.94815      278.13414      55016.061     -20794.962      3333.14       -17461.822      1.0369237    
   1201000   296.77936     -475.13002      54541.94      -20859.393      3320.0649     -17539.328      1.0459374    
   1202000   300.04822     -185.32003      54954.712     -20779.084      3356.6335     -17422.451      1.0380813    
   1203000   297.51851     -64.10293       54527.51      -20776.26       3328.3336     -17447.927      1.0462142    
   1204000   300.73492     -976.36997      55045.243     -20693.992      3364.3155     -17329.676      1.036374     
   1205000   300.83652      134.08463      54918.519     -20734.705      3365.4522     -17369.253      1.0387654    
   1206000   296.61155     -659.4132       54938.254     -20795.152      3318.1875     -17476.965      1.0383923    
   1207000   293.69387      14.968419      54514.166     -20805.424      3285.5475     -17519.876      1.0464703    
   1208000   295.35408      308.53506      54606.659     -20768.289      3304.1202     -17464.169      1.0446978    
   1209000   302.51763      480.93666      54431.255     -20809.786      3384.2587     -17425.527      1.0480643    
   1210000   300.44504      729.45938      54457.279     -20724.695      3361.0727     -17363.622      1.0475635    
   1211000   304.80889      283.59101      54813.071     -20768.246      3409.891      -17358.355      1.0407638    
   1212000   300.64415     -28.782498      54931.429     -20825.628      3363.3001     -17462.328      1.0385213    
   1213000   295.98011     -1069.3232      55168.143     -20581.898      3311.1236     -17270.774      1.0340652    
   1214000   295.91429     -594.15482      54904.382     -20801.477      3310.3873     -17491.09       1.0390329    
   1215000   296.83039      251.76514      54715.966     -20880.087      3320.6357     -17559.452      1.0426108    
   1216000   301.06942      797.611        54429.783     -20826.832      3368.0577     -17458.775      1.0480927    
   1217000   297.19484      412.87367      54771.939     -20704.544      3324.7128     -17379.831      1.0415453    
   1218000   297.60985     -218.76338      54574.117     -20734.709      3329.3555     -17405.354      1.0453208    
   1219000   300.92328     -506.45496      54871.102     -20826.51       3366.4227     -17460.088      1.0396631    
   1220000   295.95364      186.65604      54360.086     -20724.597      3310.8275     -17413.77       1.0494365    
   1221000   296.71566     -163.19176      54824.854     -20800.611      3319.3521     -17481.259      1.0405401    
   1222000   297.5403      -639.89924      54994.689     -20828.871      3328.5774     -17500.294      1.0373267    
   1223000   302.44861      130.79663      54279.386     -20817.84       3383.4866     -17434.354      1.0509967    
   1224000   306.27863     -837.03463      54877.733     -20788.549      3426.333      -17362.216      1.0395374    
   1225000   306.09818     -561.41774      54814.582     -20828.685      3424.3142     -17404.371      1.0407351    
   1226000   298.30286     -199.43584      54635.621     -20770.369      3337.1082     -17433.261      1.044144     
   1227000   304.24112     -483.14699      54575.433     -20927.78       3403.5394     -17524.241      1.0452956    
   1228000   300.60138     -190.07718      54096.21      -20912.409      3362.8217     -17549.587      1.0545555    
   1229000   305.22442     -83.778204      55020.713     -20777.597      3414.5395     -17363.057      1.036836     
   1230000   302.46723     -172.41621      54497.079     -20842.761      3383.6949     -17459.066      1.0467984    
   1231000   299.30691     -115.63772      54929.81      -20802.703      3348.3405     -17454.362      1.0385519    
   1232000   294.00761      323.85066      54788.756     -20888.518      3289.0573     -17599.461      1.0412256    
   1233000   296.86484      384.76678      54434.716     -20800.327      3321.0211     -17479.306      1.0479977    
   1234000   293.1176       557.60448      54364.431     -20794.025      3279.1007     -17514.924      1.0493526    
   1235000   293.34302      385.02769      55000.421     -20802.206      3281.6226     -17520.584      1.0372186    
   1236000   301.93906     -326.69175      54960.646     -20677.989      3377.7862     -17300.203      1.0379692    
   1237000   299.43017      319.43577      54553.072     -20745.954      3349.7194     -17396.235      1.045724     
   1238000   303.47844     -775.45108      54815.045     -20776.945      3395.0072     -17381.938      1.0407263    
   1239000   295.03813     -55.765684      54541.95      -20705.417      3300.5857     -17404.832      1.0459373    
   1240000   304.69783      173.17691      54748.136     -20751.358      3408.6486     -17342.71       1.0419982    
   1241000   305.35262     -368.08052      54449.924     -20953.192      3415.9736     -17537.219      1.047705     
   1242000   301.76655     -326.1214       55041.878     -20697.066      3375.8564     -17321.209      1.0364373    
   1243000   302.45892      73.321145      54576.878     -20648.594      3383.602      -17264.992      1.0452679    
   1244000   303.52995     -489.0307       54280.37      -20781.742      3395.5835     -17386.159      1.0509777    
   1245000   299.41184      17.650014      54666.995     -20753.792      3349.5143     -17404.278      1.0435448    
   1246000   297.21335     -204.92638      54148.109     -20797.736      3324.9198     -17472.817      1.0535448    
   1247000   297.47909     -356.02881      54284.075     -20678.666      3327.8927     -17350.774      1.050906     
   1248000   307.16673     -61.808157      54539.55      -20832.094      3436.2681     -17395.826      1.0459833    
   1249000   297.88978     -325.92611      54319.301     -20808.03       3332.4871     -17475.543      1.0502244    
   1250000   295.96995     -459.72661      55081.313     -20702.613      3311.0099     -17391.603      1.0356953    
   1251000   303.90142     -379.0075       54902.69      -20662.302      3399.7392     -17262.563      1.0390649    
   1252000   304.63086      13.161658      53739.48      -20822.963      3407.8994     -17415.064      1.0615558    
   1253000   295.93016      313.38716      54735.518     -20853.756      3310.5649     -17543.191      1.0422384    
   1254000   298.09646      95.356872      54434.519     -20808.233      3334.7992     -17473.434      1.0480015    
   1255000   295.81344      282.57424      55149.853     -20750.832      3309.2591     -17441.573      1.0344082    
   1256000   302.02992     -255.91163      54878.359     -20732.125      3378.8027     -17353.323      1.0395256    
   1257000   299.78563     -48.537692      54237.228     -20816.311      3353.6959     -17462.615      1.0518137    
   1258000   301.2096       285.79492      54966.603     -20693.179      3369.6258     -17323.553      1.0378567    
   1259000   300.10384      789.02657      54677.011     -20699.988      3357.2557     -17342.732      1.0433536    
   1260000   295.33434      263.46111      54036.566     -20840.905      3303.8994     -17537.005      1.0557195    
   1261000   294.61345      224.9483       54018.347     -20754.467      3295.8348     -17458.633      1.0560756    
   1262000   295.64677     -14.830066      54780.813     -20708.271      3307.3945     -17400.876      1.0413766    
   1263000   304.08141     -599.98132      54645.913     -20698.782      3401.7527     -17297.029      1.0439474    
   1264000   300.94667     -31.530448      54452.767     -20856.023      3366.6844     -17489.338      1.0476503    
   1265000   306.89212      22.822485      54720.65      -20809.87       3433.196      -17376.674      1.0425216    
   1266000   296.41237     -97.580263      55465.585     -20798.056      3315.9593     -17482.097      1.0285199    
   1267000   293.77082      129.29987      54711.153     -20809.764      3286.4084     -17523.356      1.0427025    
   1268000   293.27284     -222.1375       54652.015     -20796.055      3280.8374     -17515.217      1.0438308    
   1269000   296.68834      747.18302      54779.184     -20736.51       3319.0465     -17417.463      1.0414076    
   1270000   286.63564     -290.53867      54878.981     -20732.416      3206.5872     -17525.829      1.0395138    
   1271000   298.542        166.19468      54209.702     -20830.409      3339.7834     -17490.626      1.0523477    
   1272000   307.48196     -210.89117      55323.791     -20731.44       3439.7946     -17291.646      1.031156     
   1273000   306.95061      565.43308      54210.324     -20790.584      3433.8504     -17356.734      1.0523357    
   1274000   298.8764       513.69512      53963.34      -20901.867      3343.5244     -17558.342      1.0571521    
   1275000   293.41335     -158.46462      55044.441     -20650.834      3282.4093     -17368.425      1.0363891    
   1276000   303.24251      386.72064      55327.995     -20752.372      3392.368      -17360.004      1.0310776    
   1277000   301.24915     -425.9126       55136.588     -20679.426      3370.0682     -17309.358      1.034657     
   1278000   298.0002      -57.035541      54558.279     -20725.38       3333.7223     -17391.657      1.0456242    
   1279000   299.52155     -142.19694      54135.474     -20814.539      3350.7417     -17463.797      1.0537907    
   1280000   301.57626     -137.49803      55186.007     -20967.724      3373.7276     -17593.997      1.0337305    
   1281000   304.4531      -204.88392      54997.199     -20855.786      3405.9108     -17449.875      1.0372793    
   1282000   300.34095     -664.85613      54975.52      -20882.612      3359.9083     -17522.704      1.0376884    
   1283000   307.80067     -92.268748      55098.934     -20755.142      3443.36       -17311.782      1.0353641    
   1284000   301.27931     -592.38833      54802.562     -20797.856      3370.4056     -17427.45       1.0409633    
   1285000   298.46469     -460.3852       54629.665     -20814.587      3338.9186     -17475.669      1.0442579    
   1286000   305.83723      296.39753      54867.122     -20837.598      3421.3951     -17416.203      1.0397385    
   1287000   300.64818      329.6865       54970.398     -20730.706      3363.3452     -17367.361      1.0377851    
   1288000   296.16532     -25.178651      54824.433     -20780.896      3313.1955     -17467.7        1.0405481    
   1289000   299.91346      4.1781472      54428.739     -20777.847      3355.126      -17422.721      1.0481128    
   1290000   297.31027      842.47411      53777.081     -20795.295      3326.004      -17469.291      1.0608136    
   1291000   298.88738     -425.95733      54790.476     -20866.785      3343.6472     -17523.138      1.041193     
   1292000   302.94428      292.46723      54510.277     -20785.94       3389.0316     -17396.908      1.046545     
   1293000   300.13339     -747.37625      54731.383     -20737.666      3357.5863     -17380.079      1.0423171    
   1294000   299.36578      488.15064      54451.997     -20738.319      3348.999      -17389.32       1.0476651    
   1295000   308.54575      219.51766      54818.987     -20812.344      3451.6952     -17360.648      1.0406514    
   1296000   300.19736      646.18328      54695.022     -20698.675      3358.3019     -17340.373      1.04301      
   1297000   300.0258      -626.87365      54487.643     -20895.203      3356.3827     -17538.82       1.0469797    
   1298000   302.8268      -141.15201      54938.057     -20638.613      3387.7174     -17250.896      1.038396     
   1299000   299.10556     -949.80326      54965.391     -20648.947      3346.0879     -17302.859      1.0378796    
   1300000   294.49362     -261.35911      55256.935     -20605.111      3294.4942     -17310.617      1.0324036    
   1301000   296.48274      261.69935      54488.55      -20701.583      3316.7465     -17384.836      1.0469623    
   1302000   303.22411     -37.738206      54734.877     -20669.607      3392.1621     -17277.445      1.0422506    
   1303000   299.14403     -543.87626      54647.158     -20738.538      3346.5184     -17392.02       1.0439236    
   1304000   300.31707      555.81718      55179.349     -20591.594      3359.641      -17231.953      1.0338552    
   1305000   301.08749     -64.072516      55308.581     -20704.428      3368.2598     -17336.168      1.0314395    
   1306000   298.86708      754.34099      54519.268     -20690.726      3343.42       -17347.306      1.0463724    
   1307000   307.64548      98.277332      54099.439     -20615.696      3441.6239     -17174.072      1.0544926    
   1308000   299.90588     -14.351405      54396.361     -20764.845      3355.0411     -17409.804      1.0487366    
   1309000   298.20837     -127.10302      55293.789     -20615.607      3336.0511     -17279.556      1.0317155    
   1310000   303.56302     -153.17786      54500.424     -20849.272      3395.9535     -17453.319      1.0467342    
   1311000   301.43294     -256.25473      55008.282     -20757.192      3372.1244     -17385.067      1.0370703    
   1312000   300.09787      204.6348       54398.531     -20814.318      3357.1889     -17457.129      1.0486948    
   1313000   299.34956     -77.344739      54214.136     -20750.662      3348.8176     -17401.845      1.0522617    
   1314000   297.13485     -827.69835      54446.252     -20910.706      3324.0417     -17586.664      1.0477757    
   1315000   295.92132     -290.65458      54686.005     -20750.364      3310.466      -17439.898      1.043182     
   1316000   302.81829     -321.83929      54395.399     -20820.949      3387.6222     -17433.326      1.0487552    
   1317000   302.57395     -85.680836      54175.864     -20844.067      3384.8887     -17459.178      1.053005     
   1318000   303.25456      766.55359      54448.158     -20819.073      3392.5028     -17426.57       1.047739     
   1319000   301.32785      340.14603      54487.779     -20677.368      3370.9487     -17306.419      1.0469771    
   1320000   292.35241     -321.02589      54344.753     -20603.897      3270.5405     -17333.356      1.0497326    
   1321000   302.81193      727.94236      54162.64      -20822.161      3387.551      -17434.61       1.0532621    
   1322000   299.32798      131.31714      55091.98      -20695.216      3348.5762     -17346.639      1.0354948    
   1323000   296.84515      570.65939      54773.089     -20877.441      3320.8008     -17556.64       1.0415235    
   1324000   303.78443      455.75742      54909.574     -20806.143      3398.4304     -17407.713      1.0389346    
   1325000   300.4986      -222.12553      55151.388     -20850.215      3361.6718     -17488.544      1.0343794    
   1326000   302.37831      344.43618      54785.345     -20762.92       3382.7002     -17380.219      1.0412905    
   1327000   293.444       -550.66175      55290.489     -20636.601      3282.7522     -17353.849      1.031777     
   1328000   306.19865      45.648293      54531.872     -20890.352      3425.4382     -17464.914      1.0461306    
   1329000   300.22525      537.92284      53694.339     -20789.46       3358.6139     -17430.846      1.0624483    
   1330000   300.13314      555.99826      54482.133     -20745.412      3357.5835     -17387.829      1.0470856    
   1331000   293.85484     -463.63578      54654.724     -20817.145      3287.3482     -17529.797      1.0437791    
   1332000   298.25026     -500.29569      54634.25      -20730.408      3336.5198     -17393.888      1.0441702    
   1333000   304.51104      269.51136      55349.905     -20618.172      3406.559      -17211.613      1.0306695    
   1334000   298.08541     -423.57104      54932.693     -20643.919      3334.6755     -17309.244      1.0384974    
   1335000   297.76619     -107.04513      55081.718     -20663.456      3331.1044     -17332.352      1.0356877    
   1336000   294.80457      523.97115      54193.589     -20852.62       3297.9729     -17554.647      1.0526606    
   1337000   308.83456      1104.2092      54461.998     -20838.014      3454.926      -17383.088      1.0474727    
   1338000   298.24563     -410.44841      54846.281     -20769.444      3336.468      -17432.976      1.0401336    
   1339000   293.33421     -821.02793      55036.112     -20843.028      3281.524      -17561.504      1.0365459    
   1340000   302.38851     -466.67353      54883.87      -20677.667      3382.8143     -17294.853      1.0394212    
   1341000   300.69714      33.201248      54905.128     -20734.561      3363.8929     -17370.668      1.0390187    
   1342000   297.61142     -297.36995      54558.04      -20762.868      3329.3731     -17433.495      1.0456288    
   1343000   300.64827     -304.35465      54560.045     -20837.17       3363.3462     -17473.823      1.0455904    
   1344000   304.97632     -460.5407       54781.682     -20837.225      3411.7641     -17425.461      1.0413601    
   1345000   300.87383      352.6912       54677.577     -20927.068      3365.8696     -17561.199      1.0433428    
   1346000   302.95684      337.5485       54743.723     -20823.692      3389.1722     -17434.519      1.0420822    
   1347000   302.96107      100.9748       54810.046     -20759.617      3389.2194     -17370.398      1.0408212    
   1348000   301.14194      197.42849      54564.848     -20658.084      3368.8689     -17289.215      1.0454983    
   1349000   300.1776       275.5356       54447.312     -20798.657      3358.0808     -17440.576      1.0477553    
   1350000   295.36747      195.08489      54502.504     -20820.588      3304.27       -17516.318      1.0466943    
   1351000   299.95618      606.41128      54659.834     -20792.494      3355.6038     -17436.89       1.0436815    
   1352000   295.1247       67.28739       54970.017     -20793.513      3301.5542     -17491.958      1.0377923    
   1353000   301.65697      200.75041      54344.665     -20770.501      3374.6306     -17395.871      1.0497343    
   1354000   304.26701      100.77135      54951.625     -20684.294      3403.8289     -17280.465      1.0381396    
   1355000   297.43662      428.60526      54563.988     -20764.939      3327.4176     -17437.521      1.0455148    
   1356000   304.49762     -207.94516      54754.732     -20738.065      3406.4088     -17331.657      1.0418727    
   1357000   297.33636      422.23014      54404         -20773.331      3326.2959     -17447.035      1.0485894    
   1358000   301.80384     -241.09986      54710.231     -20761.801      3376.2735     -17385.527      1.0427201    
   1359000   296.78757     -376.0905       54927.761     -20730.052      3320.1566     -17409.896      1.0385906    
   1360000   301.36858     -297.89873      54500.412     -20708.579      3371.4044     -17337.175      1.0467344    
   1361000   293.84563      960.53407      54525.701     -20868.441      3287.2452     -17581.196      1.046249     
   1362000   299.04275     -190.75197      54988.256     -20720.518      3345.3853     -17375.133      1.037448     
   1363000   300.24819     -286.88376      54573.756     -20794.983      3358.8705     -17436.113      1.0453277    
   1364000   300.57722      678.5954       54807.982     -20634.858      3362.5514     -17272.306      1.0408604    
   1365000   300.53722      12.736436      54252.576     -20746.558      3362.104      -17384.454      1.0515161    
   1366000   299.43437      350.80443      54866.794     -20748.629      3349.7663     -17398.863      1.0397447    
   1367000   295.83519      254.63792      54816.651     -20835.945      3309.5024     -17526.443      1.0406958    
   1368000   298.34626      171.0092       54630.213     -20851.486      3337.5936     -17513.892      1.0442474    
   1369000   297.55903     -756.4698       54835.899     -20766.755      3328.787      -17437.968      1.0403305    
   1370000   298.0273      -13.82542       54579.821     -20822.628      3334.0255     -17488.602      1.0452115    
   1371000   290.68474      759.9075       54750.515     -20777.999      3251.8844     -17526.115      1.0419529    
   1372000   305.64908     -459.29572      55069.466     -20783.152      3419.2902     -17363.862      1.0359181    
   1373000   298.50295     -397.0782       54619.461     -20885.216      3339.3465     -17545.869      1.044453     
   1374000   299.73257     -455.71748      54867.473     -20762.414      3353.1023     -17409.312      1.0397318    
   1375000   303.52636     -83.494791      54511.974     -20793.863      3395.5434     -17398.32       1.0465124    
   1376000   301.85078     -419.51079      54880.457     -20720.059      3376.7987     -17343.26       1.0394858    
   1377000   295.08975      786.60805      54860.478     -20879.335      3301.1631     -17578.172      1.0398644    
   1378000   296.65217     -591.13475      55016.272     -20682.496      3318.6419     -17363.854      1.0369197    
   1379000   306.91531     -524.38344      55243.526     -20803.497      3433.4555     -17370.041      1.0326542    
   1380000   298.78228      384.9396       54374.007     -20856.908      3342.4715     -17514.437      1.0491678    
   1381000   298.83186      63.64246       54517.979     -20828.658      3343.0261     -17485.632      1.0463971    
   1382000   303.03688     -242.54848      54676.925     -20797.593      3390.0675     -17407.526      1.0433553    
   1383000   299.92499      435.30919      54471.856     -20801.723      3355.2549     -17446.468      1.0472832    
   1384000   296.91942      34.148453      55064.185     -20734.639      3321.6317     -17413.007      1.0360175    
   1385000   305.61698     -420.17945      54816.431     -20647.038      3418.9311     -17228.107      1.0407       
   1386000   299.26059     -32.618105      55045.11      -20828.517      3347.8222     -17480.695      1.0363765    
   1387000   297.52415     -302.80172      54815.791     -20774.048      3328.3967     -17445.651      1.0407121    
   1388000   305.90218     -828.26349      54877.803     -20789.537      3422.1216     -17367.416      1.0395361    
   1389000   304.03302      456.95598      54945.165     -20681.528      3401.2113     -17280.316      1.0382617    
   1390000   296.30187     -28.115873      54905.074     -20786.333      3314.7231     -17471.61       1.0390198    
   1391000   307.5524      -193.21419      55308.932     -20733.045      3440.5826     -17292.462      1.031433     
   1392000   293.16517      910.31089      54382.341     -20876.814      3279.6329     -17597.181      1.049007     
   1393000   301.80057     -480.57285      54444.721     -20762.455      3376.237      -17386.218      1.0478051    
   1394000   301.20764     -608.67975      54497.892     -20787.35       3369.6039     -17417.746      1.0467828    
   1395000   298.68408      728.03719      54379.192     -20604.698      3341.3729     -17263.325      1.0490678    
   1396000   295.33203      145.54611      54248.248     -20853.31       3303.8735     -17549.437      1.0516       
   1397000   301.69799      109.20777      54256.48      -20812.848      3375.0894     -17437.759      1.0514405    
   1398000   296.76158      289.32044      54397.433     -20761.114      3319.8659     -17441.248      1.048716     
   1399000   303.30517      105.06972      54826.686     -20757.519      3393.0689     -17364.45       1.0405053    
   1400000   291.33645     -495.76907      54959.543     -20702.619      3259.1751     -17443.444      1.03799      
   1401000   302.92781     -1272.7921      55030.191     -20802.669      3388.8474     -17413.822      1.0366575    
   1402000   297.06783      480.13146      54662.348     -20783.116      3323.2919     -17459.824      1.0436335    
   1403000   305.41131      719.59156      54278.051     -20840.45       3416.6303     -17423.82       1.0510226    
   1404000   296.52589     -1199.0195      54320.309     -20765.845      3317.2293     -17448.616      1.050205     
   1405000   294.82251     -210.88962      54769.69      -20640.867      3298.1735     -17342.694      1.0415881    
   1406000   298.40908      632.19129      54451.936     -20831.052      3338.2965     -17492.756      1.0476663    
   1407000   302.76835      107.94725      54376.893     -20734.63       3387.0635     -17347.566      1.0491121    
   1408000   302.12474      296.2363       54454.838     -20759.588      3379.8634     -17379.724      1.0476105    
   1409000   296.31903     -624.86769      54853.733     -20835.283      3314.9151     -17520.368      1.0399923    
   1410000   296.86162     -351.5494       54381.305     -20728.005      3320.9851     -17407.02       1.049027     
   1411000   305.39223      90.184339      54579.282     -20810.075      3416.4169     -17393.658      1.0452218    
   1412000   305.75172      556.11991      54898.852     -20728.711      3420.4384     -17308.273      1.0391375    
   1413000   298.26744      840.31381      54358.08      -20709.516      3336.712      -17372.804      1.0494752    
   1414000   303.77637      17.52069       54238.23      -20904.364      3398.3402     -17506.024      1.0517942    
   1415000   305.27473      241.48629      54489.345     -20677.068      3415.1023     -17261.965      1.046947     
   1416000   305.83603     -443.48202      54957.428     -20759.192      3421.3816     -17337.81       1.03803      
   1417000   299.02715      472.02522      55058.42      -20814.596      3345.2108     -17469.385      1.0361259    
   1418000   299.46941      436.88499      54554.226     -20691.293      3350.1584     -17341.135      1.0457019    
   1419000   303.57303     -315.15255      55040.545     -20676.058      3396.0655     -17279.992      1.0364624    
   1420000   301.47315      88.003771      55121.078     -20808.039      3372.5741     -17435.464      1.0349482    
   1421000   297.2957       817.91916      54231.929     -20775.03       3325.8411     -17449.189      1.0519164    
   1422000   298.71521     -312.07382      54918.273     -20661.788      3341.7211     -17320.067      1.0387701    
   1423000   296.8895       610.51891      54446.073     -20747.863      3321.297      -17426.566      1.0477791    
   1424000   297.3463       693.19131      54169.13      -20809.657      3326.4072     -17483.25       1.0531359    
   1425000   299.61385     -412.21715      54699.146     -20826.118      3351.7741     -17474.344      1.0429314    
   1426000   301.74166      423.45038      55259.701     -20766.14       3375.578      -17390.562      1.0323519    
   1427000   300.9509      -340.3987       55086.868     -20756.479      3366.7317     -17389.747      1.0355909    
   1428000   302.83842     -216.35482      54326.964     -20743.05       3387.8474     -17355.203      1.0500763    
   1429000   299.16944      479.60882      54063.833     -20703.424      3346.8026     -17356.621      1.0551871    
   1430000   302.32986      186.7491       54726.246     -20697.307      3382.1581     -17315.149      1.042415     
   1431000   306.95944      746.22062      54236.788     -20601.533      3433.9491     -17167.583      1.0518222    
   1432000   298.78678      1107.8299      55100.272     -20859.316      3342.5218     -17516.794      1.0353389    
   1433000   304.14641     -540.2017       54791.51      -20770.236      3402.4798     -17367.756      1.0411733    
   1434000   295.41588      329.30092      54428.833     -20828.313      3304.8115     -17523.501      1.048111     
   1435000   298.73076     -240.88183      54340.294     -20814.012      3341.895      -17472.117      1.0498187    
   1436000   299.31069     -609.4575       55337.523     -20814.496      3348.3827     -17466.113      1.0309001    
   1437000   298.66192     -263.08808      54962.655     -20786.088      3341.1249     -17444.963      1.0379313    
   1438000   303.89587     -194.90065      55137.521     -20926.976      3399.6771     -17527.299      1.0346395    
   1439000   302.19086     -321.40145      54490.98      -20663.382      3380.6032     -17282.778      1.0469156    
   1440000   301.10146     -125.16626      54345.887     -20840.813      3368.4161     -17472.397      1.0497107    
   1441000   295.59154     -833.91298      54285.273     -20767.725      3306.7766     -17460.948      1.0508828    
   1442000   296.63893     -61.514725      54357.651     -20677.32       3318.4938     -17358.826      1.0494835    
   1443000   299.06879     -382.23635      54696.302     -20832.288      3345.6766     -17486.611      1.0429856    
   1444000   300.82889     -881.54564      54535.024     -20847.807      3365.3668     -17482.44       1.0460701    
   1445000   295.97783      1309.5695      54596.517     -20772.389      3311.0981     -17461.291      1.0448919    
   1446000   299.19538     -76.771757      54532.378     -20783.303      3347.0928     -17436.21       1.0461209    
   1447000   304.60686      793.89492      54503.088     -20737.4        3407.6309     -17329.769      1.046683     
   1448000   301.10531      177.84292      54725.583     -20710.553      3368.4591     -17342.094      1.0424276    
   1449000   306.43753      496.90463      54212.841     -20771.137      3428.1105     -17343.027      1.0522868    
   1450000   310.68489      113.69006      54397.379     -20660.922      3475.6257     -17185.296      1.048717     
   1451000   298.90576      228.23445      54551.269     -20873.526      3343.8528     -17529.673      1.0457586    
   1452000   301.68472      182.02428      54521.664     -20747.584      3374.941      -17372.643      1.0463264    
   1453000   304.60888     -199.48552      54467.797     -20913.608      3407.6534     -17505.955      1.0473612    
   1454000   303.74579     -305.28825      54622.532     -20670.049      3397.9981     -17272.051      1.0443942    
   1455000   296.32223      189.48788      54556.467     -20742.083      3314.9509     -17427.132      1.0456589    
   1456000   293.05542      143.64074      55018.743     -20766.881      3278.4052     -17488.476      1.0368731    
   1457000   293.58184      1092.5184      54443.542     -20759.243      3284.2942     -17474.949      1.0478278    
   1458000   303.63366      577.26003      54612.679     -20794.782      3396.7437     -17398.039      1.0445827    
   1459000   296.66156     -1149.442       54948.476     -20883.322      3318.7469     -17564.575      1.0381991    
   1460000   300.38151      32.021045      55068.656     -20769.906      3360.3619     -17409.544      1.0359334    
   1461000   303.16353      711.89348      54728.74      -20600.623      3391.4844     -17209.139      1.0423675    
   1462000   300.23682      369.62799      54562.477     -20700.705      3358.7433     -17341.961      1.0455438    
   1463000   307.38591     -173.90591      55001.198     -20776.652      3438.7201     -17337.932      1.0372039    
   1464000   291.99198     -551.98155      54831.354     -20820.976      3266.5085     -17554.467      1.0404167    
   1465000   296.38418      300.17432      54909.732     -20720.898      3315.6439     -17405.255      1.0389316    
   1466000   297.63245     -79.351467      54226.523     -20773.416      3329.6082     -17443.807      1.0520213    
   1467000   299.94812     -564.31784      55070.437     -20777.212      3355.5137     -17421.698      1.0358998    
   1468000   301.19158      173.3465       54840.958     -20717.779      3369.4242     -17348.355      1.0402345    
   1469000   309.00318      843.58615      54246.82      -20794.359      3456.8124     -17337.547      1.0516277    
   1470000   304.4543      -733.61292      54796.293     -20851.908      3405.9242     -17445.984      1.0410824    
   1471000   302.1363      -265.38318      54839.892     -20730.638      3379.9927     -17350.646      1.0402547    
   1472000   292.82779     -62.0061        54487.536     -20759.245      3275.8587     -17483.386      1.0469818    
   1473000   306.4232       784.80646      54398.987     -20844.346      3427.9502     -17416.396      1.048686     
   1474000   304.84149      102.68006      54827.466     -20701.644      3410.2557     -17291.388      1.0404905    
   1475000   304.10829     -356.79446      55431.899     -20774.06       3402.0534     -17372.007      1.0291449    
   1476000   300.58712      62.295386      54350.494     -20757.114      3362.6621     -17394.452      1.0496217    
   1477000   297.70757      471.82762      54810.887     -20831.515      3330.4487     -17501.067      1.0408052    
   1478000   301.41917     -307.80203      54983.741     -20731.94       3371.9702     -17359.97       1.0375332    
   1479000   298.68887     -551.57821      54759.867     -20901.17       3341.4265     -17559.743      1.0417749    
   1480000   302.07699     -430.5264       54685.396     -20772.194      3379.3293     -17392.865      1.0431936    
   1481000   295.58924      305.07868      54641.948     -20741.282      3306.7509     -17434.531      1.0440231    
   1482000   300.50375      579.14765      54896.545     -20846.22       3361.7295     -17484.491      1.0391812    
   1483000   295.81661     -386.75179      54987.73      -20785.405      3309.2945     -17476.11       1.037458     
   1484000   298.31654     -417.352        54888.184     -20719.675      3337.2612     -17382.413      1.0393395    
   1485000   300.28426      210.37889      54972.236     -20674.06       3359.274      -17314.786      1.0377504    
   1486000   293.37419      204.42352      54913.895     -20992.188      3281.9712     -17710.216      1.0388529    
   1487000   300.95794      141.16343      54414.299     -20767.584      3366.8105     -17400.774      1.0483909    
   1488000   302.67807      460.36008      54623.075     -20827.586      3386.0536     -17441.532      1.0443838    
   1489000   300.64808      150.33143      54864.981     -20763.141      3363.3441     -17399.797      1.0397791    
   1490000   299.70443      610.49437      54638.876     -20848.701      3352.7875     -17495.913      1.0440818    
   1491000   305.33275      746.17356      54559.097     -20750.422      3415.7515     -17334.67       1.0456085    
   1492000   306.22908      184.09662      54461.509     -20772.277      3425.7786     -17346.498      1.0474821    
   1493000   301.78306      673.68496      54793.539     -20813.782      3376.0411     -17437.741      1.0411347    
   1494000   300.89636     -391.83229      54817.963     -20810.518      3366.1216     -17444.396      1.0406709    
   1495000   297.69103      167.74731      54565.389     -20768.1        3330.2637     -17437.837      1.045488     
   1496000   296.22472      508.98414      54302.422     -20670.222      3313.86       -17356.362      1.0505509    
   1497000   306.92064     -184.48755      54343.49      -20819.067      3433.5151     -17385.552      1.049757     
   1498000   301.30071     -169.69038      55124.793     -20654.44       3370.6451     -17283.794      1.0348784    
   1499000   298.93901      174.84745      54618.876     -20831.437      3344.2248     -17487.212      1.0444642    
   1500000   296.28233     -106.15342      54593.247     -20680.85       3314.5046     -17366.345      1.0449545    
   1501000   305.62427      169.8336       54356.467     -20739.295      3419.0126     -17320.282      1.0495064    
   1502000   302.35064      806.16011      54588.183     -20753.212      3382.3905     -17370.821      1.0450514    
   1503000   303.16672      281.57319      54954.262     -20725.079      3391.5201     -17333.558      1.0380898    
   1504000   292.89109     -115.80323      54092.994     -20766.057      3276.5669     -17489.49       1.0546182    
   1505000   298.82872      530.84201      54764.935     -20706.079      3342.9909     -17363.088      1.0416785    
   1506000   300.08132      180.54651      54489.444     -20655.599      3357.0037     -17298.595      1.0469451    
   1507000   303.64011      92.067754      54603.657     -20691.488      3396.8159     -17294.672      1.0447553    
   1508000   301.66297     -131.59245      54695.889     -20731.525      3374.6976     -17356.827      1.0429935    
   1509000   304.50295     -720.79175      55160.365     -20791.809      3406.4685     -17385.341      1.034211     
   1510000   290.51353      163.53966      54372.026     -20724.309      3249.9691     -17474.34       1.049206     
   1511000   305.59447      27.791231      54751.818     -20650.64       3418.6793     -17231.961      1.0419281    
   1512000   292.32061     -319.49064      55143.519     -20740.23       3270.1848     -17470.045      1.034527     
   1513000   301.70895     -183.30496      54614.951     -20787.799      3375.212      -17412.587      1.0445392    
   1514000   296.85977     -284.74297      54614.042     -20909.927      3320.9643     -17588.963      1.0445566    
   1515000   298.02489     -11.871225      55066.488     -20694.911      3333.9986     -17360.912      1.0359741    
   1516000   297.91306      307.43208      54637.706     -20790.138      3332.7475     -17457.391      1.0441042    
   1517000   303.32277      1024.7507      54576.449     -20769.353      3393.2658     -17376.087      1.0452761    
   1518000   300.49611      44.369226      54672.364     -20796.67       3361.644      -17435.026      1.0434423    
   1519000   300.44312     -112.88345      54647.454     -20795.827      3361.0512     -17434.776      1.0439179    
   1520000   289.25916     -247.90127      54878.604     -20823.97       3235.9365     -17588.034      1.0395209    
   1521000   302.57499      324.76603      54012.764     -20844.335      3384.9004     -17459.434      1.0561848    
   1522000   299.40758      90.368394      54786.643     -20795.242      3349.4666     -17445.775      1.0412658    
   1523000   302.86598     -323.54292      54550.573     -20776.825      3388.1558     -17388.67       1.0457719    
   1524000   301.33502      0.38402023     54896.001     -20752.613      3371.0289     -17381.584      1.0391915    
   1525000   300.0254       433.30723      54919.595     -20796.46       3356.3782     -17440.082      1.038745     
   1526000   292.45506     -759.08662      55315.342     -20731.801      3271.6889     -17460.112      1.0313135    
   1527000   291.5344      -642.47779      54937.216     -20812.875      3261.3895     -17551.486      1.0384119    
   1528000   300.2389       26.460448      54279.102     -20733.989      3358.7666     -17375.223      1.0510022    
   1529000   300.05184     -510.47697      54756.828     -20741.22       3356.6739     -17384.546      1.0418328    
   1530000   297.72153      253.60416      54681.328     -20574.641      3330.6048     -17244.036      1.0432713    
   1531000   303.04216      25.039538      54938.894     -20786.946      3390.1266     -17396.819      1.0383802    
   1532000   293.82919     -325.1076       54925.673     -20804.124      3287.0613     -17517.063      1.0386301    
   1533000   302.89268      566.15447      54782.465     -20859.847      3388.4544     -17471.393      1.0413452    
   1534000   298.35828     -17.130069      54978.036     -20774.761      3337.7282     -17437.033      1.0376409    
   1535000   298.82867      1057.8116      54409.169     -20813.481      3342.9904     -17470.49       1.0484898    
   1536000   300.19919     -697.28534      54366.219     -20711.457      3358.3224     -17353.135      1.0493181    
   1537000   292.34954     -410.91056      54597.402     -20827.556      3270.5084     -17557.048      1.0448749    
   1538000   295.81311     -90.680015      54543.448     -20798.831      3309.2553     -17489.576      1.0459085    
   1539000   299.53378      191.2132       54885.418     -20745.061      3350.8784     -17394.183      1.0393919    
   1540000   297.73353      204.4371       54590.053     -20721.897      3330.7391     -17391.158      1.0450156    
   1541000   299.61569     -91.499367      54741.551     -20728.183      3351.7947     -17376.389      1.0421235    
   1542000   295.71261     -335.67829      55172.695     -20747.751      3308.1311     -17439.62       1.0339799    
   1543000   301.39179      550.97511      54850.83      -20739.358      3371.664      -17367.694      1.0400473    
   1544000   297.17785      172.29948      54690.185     -20729.538      3324.5227     -17405.016      1.0431023    
   1545000   299.0244      -433.81123      54799.236     -20656.171      3345.18       -17310.991      1.0410265    
   1546000   305.63155     -187.07471      54366.884     -20886.309      3419.094      -17467.215      1.0493053    
   1547000   301.26091     -624.14967      54461.786     -20791.424      3370.1998     -17421.224      1.0474768    
   1548000   298.83849      545.08176      54906.987     -20766.908      3343.1002     -17423.808      1.0389836    
   1549000   297.35904     -202.36331      54797.358     -20713.454      3326.5497     -17386.904      1.0410622    
   1550000   303.28521      206.20326      55202.907     -20671.33       3392.8456     -17278.484      1.033414     
   1551000   297.69066     -392.78202      54836.461     -20755.939      3330.2595     -17425.68       1.0403198    
   1552000   299.42897      337.64655      55140.32      -20819.36       3349.7059     -17469.654      1.034587     
   1553000   299.80583     -139.61703      54944.366     -20705.786      3353.9219     -17351.864      1.0382767    
   1554000   297.72931     -491.50317      54794.509     -20771.336      3330.6919     -17440.644      1.0411163    
   1555000   303.94266      266.46134      54262.339     -20865.916      3400.2005     -17465.716      1.0513269    
   1556000   296.22562      124.26307      54333.246     -20827.552      3313.8702     -17513.682      1.0499549    
   1557000   299.74327     -50.239548      55166.075     -20727.271      3353.222      -17374.049      1.034104     
   1558000   292.88934     -468.57734      54940.19      -20735.749      3276.5473     -17459.201      1.0383557    
   1559000   293.60673     -183.98123      54671.894     -20769.174      3284.5726     -17484.601      1.0434513    
   1560000   304.12578     -754.53272      55108.164     -20729.066      3402.2491     -17326.817      1.0351907    
   1561000   302.02442      74.594253      54300.115     -20664.548      3378.7412     -17285.807      1.0505955    
   1562000   297.74607     -298.77668      54220.244     -20715.99       3330.8793     -17385.111      1.0521431    
   1563000   297.92059      550.18378      54703.659     -20857.075      3332.8317     -17524.243      1.0428454    
   1564000   310.86879     -617.40484      54210.494     -20676.814      3477.683      -17199.131      1.0523324    
   1565000   299.92059     -185.78556      54355.635     -20788.545      3355.2057     -17433.34       1.0495224    
   1566000   306.59029     -273.78999      54933.717     -20687.005      3429.8195     -17257.185      1.038478     
   1567000   297.39696      532.5323       54505.587     -20830.664      3326.9739     -17503.69       1.0466351    
   1568000   303.63232     -557.71719      54975.786     -20766.11       3396.7287     -17369.381      1.0376833    
   1569000   294.42371      122.60666      54909.352     -20826.091      3293.7122     -17532.378      1.0389388    
   1570000   295.83997     -731.6819       54947.34      -20803.01       3309.5559     -17493.454      1.0382205    
   1571000   293.8208       36.230349      54526.656     -20822.431      3286.9674     -17535.463      1.0462306    
   1572000   307.6941      -436.13269      54955.792     -20777.477      3442.1678     -17335.309      1.0380609    
   1573000   295.01512     -262.55784      54703.696     -20726.441      3300.3283     -17426.113      1.0428447    
   1574000   298.01134      142.19503      54949.026     -20700.917      3333.8469     -17367.07       1.0381887    
   1575000   300.5266      -229.11563      55042.536     -20792.201      3361.9852     -17430.216      1.036425     
   1576000   297.89729     -662.76913      54968.671     -20718.191      3332.571      -17385.62       1.0378177    
   1577000   301.94969      839.50753      53993.801     -20763.807      3377.9052     -17385.902      1.0565557    
   1578000   305.87481      352.05831      54952.294     -20680.299      3421.8154     -17258.484      1.038127     
   1579000   299.95168     -308.42894      54379.16      -20838.546      3355.5535     -17482.993      1.0490684    
   1580000   297.71206      482.34413      54587.233     -20797.95       3330.4989     -17467.451      1.0450696    
   1581000   299.53919      72.04832       54409.229     -20780.877      3350.939      -17429.938      1.0484886    
   1582000   295.94518     -423.50425      54739.954     -20666.857      3310.7329     -17356.124      1.0421539    
   1583000   306.46046      596.4154       54483.242     -20782.529      3428.3671     -17354.162      1.0470643    
   1584000   306.75309     -138.94488      54630.493     -20717.097      3431.6407     -17285.457      1.044242     
   1585000   298.71541     -687.14023      55195.029     -20679.768      3341.7233     -17338.045      1.0335615    
   1586000   293.86082     -425.62283      55186.992     -20772.275      3287.4151     -17484.86       1.033712     
   1587000   301.35876      962.93823      54844.131     -20727.853      3371.2945     -17356.558      1.0401743    
   1588000   303.74726      785.50888      54927.263     -20744.247      3398.0146     -17346.232      1.0386       
   1589000   301.03133     -98.846863      54436.563     -20677.125      3367.6315     -17309.494      1.0479622    
   1590000   305.303        540.84562      54164.147     -20725.987      3415.4186     -17310.568      1.0532328    
   1591000   306.34005      60.286798      54531.978     -20808.864      3427.02       -17381.844      1.0461285    
   1592000   292.7469       39.102906      54152.439     -20756.497      3274.9537     -17481.543      1.0534605    
   1593000   298.11238      190.48633      54455.581     -20658.854      3334.9772     -17323.877      1.0475962    
   1594000   303.8267      -281.04604      54252.014     -20768.094      3398.9033     -17369.191      1.051527     
   1595000   293.40522      397.22346      54145.5       -20740.172      3282.3184     -17457.853      1.0535955    
   1596000   300.8662       307.56669      55196.956     -20834.051      3365.7842     -17468.267      1.0335254    
   1597000   298.35586     -311.93119      54437.278     -20761.06       3337.7011     -17423.359      1.0479484    
   1598000   302.61378     -854.53397      54628.145     -20791.35       3385.3343     -17406.016      1.0442869    
   1599000   299.91002      511.94221      55013.697     -20723.309      3355.0875     -17368.222      1.0369683    
   1600000   299.06886     -271.71713      54516.765     -20684.552      3345.6774     -17338.874      1.0464204    
   1601000   299.17907     -125.68636      54643.617     -20746.543      3346.9104     -17399.633      1.0439912    
   1602000   299.4514       448.56917      54580.044     -20722.372      3349.9569     -17372.415      1.0452072    
   1603000   300.38704      402.96171      54777.481     -20782.627      3360.4238     -17422.203      1.04144      
   1604000   295.13652     -456.25921      54864.526     -20770.517      3301.6864     -17468.83       1.0397877    
   1605000   301.26372      233.64989      54790.065     -20701.486      3370.2312     -17331.254      1.0412008    
   1606000   293.37548      120.11897      54653.01      -20768.649      3281.9857     -17486.664      1.0438118    
   1607000   299.01976     -545.11925      54607.005     -20746.268      3345.1281     -17401.14       1.0446912    
   1608000   302.78111      434.66087      54922.25      -20730.373      3387.2062     -17343.167      1.0386948    
   1609000   294.97063      609.58467      54801.079     -20838.268      3299.8306     -17538.437      1.0409915    
   1610000   306.70816      270.78204      54685.242     -20899.107      3431.1381     -17467.969      1.0431966    
   1611000   294.8205       338.03246      55058.368     -20896.962      3298.151      -17598.811      1.0361269    
   1612000   305.71203      147.65363      54123.773     -20893.587      3419.9944     -17473.593      1.0540185    
   1613000   299.44054     -742.11815      54702.122     -20710.218      3349.8353     -17360.382      1.0428747    
   1614000   301.83188     -54.792979      54536.737     -20632.543      3376.5873     -17255.956      1.0460372    
   1615000   298.3305      -626.5268       55686.798     -20733.67       3337.4174     -17396.252      1.0244342    
   1616000   297.37244      208.53948      54704.379     -20822.728      3326.6996     -17496.028      1.0428316    
   1617000   296.58298      1201.0248      55059.76      -20778.587      3317.8679     -17460.72       1.0361007    
   1618000   295.99052      377.54789      55250.619     -20731.918      3311.2401     -17420.678      1.0325216    
   1619000   301.22182     -187.20785      55045.74      -20749.721      3369.7625     -17379.959      1.0363646    
   1620000   301.71312     -736.57889      55382.765     -20815.655      3375.2587     -17440.396      1.030058     
   1621000   297.85812      779.6547       54753.508     -20809.795      3332.1329     -17477.662      1.0418959    
   1622000   295.29943      659.16738      54618.041     -20836.473      3303.5089     -17532.964      1.0444801    
   1623000   292.51338     -390.04075      55061.948     -20745.328      3272.3413     -17472.987      1.0360596    
   1624000   300.71528      156.03299      54234.435     -20690.43       3364.0959     -17326.334      1.0518678    
   1625000   292.14177     -548.75501      54930.238     -20725.95       3268.1841     -17457.766      1.0385438    
   1626000   296.54384     -1191.1572      54970.951     -20786.86       3317.4301     -17469.43       1.0377746    
   1627000   307.76568      198.50335      54830.322     -20774.393      3442.9685     -17331.425      1.0404363    
   1628000   290.18374      278.6757       54935.292     -20798.786      3246.2797     -17552.507      1.0384483    
   1629000   297.84387     -890.57797      55288.126     -20782.74       3331.9734     -17450.767      1.0318211    
   1630000   293.89272     -327.02006      54521.307     -20775.517      3287.772      -17487.745      1.0463333    
   1631000   300.19297      1.1788392      54349.095     -20835.665      3358.2528     -17477.412      1.0496487    
   1632000   291.30242      3.4814875      53955.189     -20755.645      3258.7943     -17496.85       1.0573118    
   1633000   297.54591     -500.43328      54438.43      -20745.191      3328.6402     -17416.551      1.0479262    
   1634000   301.89362     -440.58916      55052.065     -20701.928      3377.2779     -17324.65       1.0362456    
   1635000   304.72814     -247.79282      55299.764     -20768.759      3408.9877     -17359.772      1.031604     
   1636000   299.10653      612.00351      54758.16      -20805.38       3346.0988     -17459.281      1.0418074    
   1637000   298.06032     -414.00011      55232.72      -20709.552      3334.3948     -17375.157      1.0328562    
   1638000   296.56221     -279.67924      54538.137     -20665.558      3317.6355     -17347.923      1.0460104    
   1639000   301.18618     -905.67694      54746.843     -20891.266      3369.3639     -17521.902      1.0420228    
   1640000   300.02819     -634.8749       54724.983     -20776.004      3356.4094     -17419.595      1.042439     
   1641000   302.46203      482.78813      54803.232     -20793.371      3383.6367     -17409.734      1.0409506    
   1642000   298.79045      650.57966      54013.27      -20809.482      3342.5628     -17466.919      1.0561749    
   1643000   307.14685      276.74377      54678.503     -20642.257      3436.0457     -17206.211      1.0433251    
   1644000   293.91769     -56.856339      55148.498     -20865.455      3288.0513     -17577.403      1.0344336    
   1645000   304.06961      942.68042      54710.487     -20728.587      3401.6207     -17326.966      1.0427152    
   1646000   305.00904     -817.74721      55305.096     -20744.05       3412.1301     -17331.92       1.0315045    
   1647000   293.085        627.4316       54663.847     -20721.097      3278.7361     -17442.361      1.0436049    
   1648000   299.01683      34.742274      54426.929     -20850.772      3345.0953     -17505.677      1.0481477    
   1649000   302.22299     -716.98353      54850.948     -20720.408      3380.9626     -17339.445      1.0400451    
   1650000   299.99328     -310.80347      54847.2       -20767.063      3356.0188     -17411.044      1.0401161    
   1651000   298.95678     -437.45581      54651.605     -20795.237      3344.4236     -17450.814      1.0438387    
   1652000   299.29939     -200.12949      54752.074     -20690.511      3348.2563     -17342.255      1.0419232    
   1653000   300.42822     -270.05541      54433.045     -20826.786      3360.8846     -17465.902      1.0480299    
   1654000   303.74664      133.0229       54318.005     -20761.692      3398.0076     -17363.685      1.0502495    
   1655000   306.99789     -298.60507      54523.818     -20795.116      3434.3793     -17360.736      1.0462851    
   1656000   306.74115      305.70022      54403.276     -20797.527      3431.5072     -17366.02       1.0486034    
   1657000   308.09778      9.0738414      54709.141     -20806.472      3446.6837     -17359.789      1.0427409    
   1658000   298.31058     -795.55917      55136.764     -20827.166      3337.1946     -17489.972      1.0346537    
   1659000   296.63494     -684.77459      55006.797     -20704.929      3318.4492     -17386.479      1.0370983    
   1660000   293.88437      635.21181      54574.949     -20756.516      3287.6786     -17468.838      1.0453048    
   1661000   297.25675     -282.0295       54438.998     -20821.93       3325.4054     -17496.525      1.0479153    
   1662000   300.41677     -685.79664      55295.094     -20811.087      3360.7564     -17450.331      1.0316911    
   1663000   295.33264      866.31206      54494.912     -20852.417      3303.8804     -17548.536      1.0468401    
   1664000   299.03873      146.58689      54412.734     -20666.166      3345.3403     -17320.826      1.0484211    
   1665000   301.31494      158.9534       54065.472     -20793.949      3370.8042     -17423.145      1.0551551    
   1666000   296.29368      155.8753       54418.452     -20614.678      3314.6316     -17300.046      1.0483109    
   1667000   304.90245      840.63477      54540.903     -20793.431      3410.9376     -17382.493      1.0459573    
   1668000   298.77455      339.70716      54831.561     -20892.47       3342.3849     -17550.085      1.0404128    
   1669000   294.27183     -54.920755      54728.018     -20724.967      3292.0132     -17432.954      1.0423812    
   1670000   300.40645     -35.053675      55596.331     -20637.078      3360.641      -17276.437      1.0261011    
   1671000   303.71541     -235.7223       55258.835     -20644.046      3397.6583     -17246.387      1.0323681    
   1672000   293.20075     -26.267581      54946.658     -20787.591      3280.0309     -17507.561      1.0382334    
   1673000   298.38753      749.32799      54488.903     -20859.802      3338.0553     -17521.746      1.0469555    
   1674000   299.58816     -488.65587      55057.27      -20755.744      3351.4868     -17404.257      1.0361476    
   1675000   306.11723     -304.35905      54805.771     -20732.077      3424.5274     -17307.55       1.0409024    
   1676000   300.75811      813.22778      54975.989     -20704.321      3364.575      -17339.746      1.0376795    
   1677000   302.37551     -352.06838      55026.246     -20782.71       3382.6688     -17400.041      1.0367318    
   1678000   303.45317     -154.70472      54778.266     -20681.084      3394.7245     -17286.359      1.041425     
   1679000   302.09797      330.43797      54577.987     -20681.231      3379.564      -17301.667      1.0452466    
   1680000   302.26238     -543.71135      54512.263     -20767.39       3381.4032     -17385.986      1.0465069    
   1681000   300.4495      -77.915694      54724.33      -20778.961      3361.1226     -17417.839      1.0424515    
   1682000   299.14842     -298.40645      54685.481     -20831.715      3346.5674     -17485.148      1.043192     
   1683000   297.98378     -310.76063      54858.072     -20775.38       3333.5386     -17441.842      1.03991      
   1684000   303.50241      308.96947      54226.278     -20754.925      3395.2754     -17359.65       1.0520261    
   1685000   304.986       -457.97218      54106.449     -20838.735      3411.8723     -17426.863      1.054356     
   1686000   303.24864     -454.28664      54956.094     -20599.251      3392.4365     -17206.814      1.0380552    
   1687000   298.78751     -60.570857      54188.692     -20777.821      3342.5299     -17435.291      1.0527558    
   1688000   295.75634      761.8429       54354.659     -20792.621      3308.6203     -17484.001      1.0495413    
   1689000   304.42614      285.74528      54667.151     -20737.521      3405.6092     -17331.912      1.0435418    
   1690000   298.60293     -49.612035      54778.268     -20863.115      3340.465      -17522.65       1.041425     
   1691000   301.56042     -710.19782      54494.931     -20780.443      3373.5504     -17406.893      1.0468397    
   1692000   305.42941      124.97004      54695.539     -20735.935      3416.8328     -17319.103      1.0430002    
   1693000   304.79029     -914.45096      55223.56      -20744.655      3409.6829     -17334.972      1.0330275    
   1694000   307.12637     -80.404228      54970.14      -20666.545      3435.8166     -17230.728      1.0377899    
   1695000   307.97469     -117.79257      54534.544     -20813.042      3445.3068     -17367.736      1.0460793    
   1696000   303.32768      359.99246      54504.568     -20801.348      3393.3207     -17408.028      1.0466546    
   1697000   302.72072     -328.21567      55042.499     -20739.827      3386.5307     -17353.297      1.0364256    
   1698000   297.96484      558.66985      54684.6       -20740.612      3333.3268     -17407.285      1.0432088    
   1699000   302.45634      119.84289      54605.818     -20711.266      3383.5731     -17327.693      1.0447139    
   1700000   298.80725     -259.37442      54754.275     -20704.839      3342.7507     -17362.088      1.0418813    
   1701000   300.01479      251.77984      54861.176     -20790.543      3356.2595     -17434.284      1.0398512    
   1702000   297.61966      394.15274      54995.555     -20766.18       3329.4653     -17436.714      1.0373103    
   1703000   294.5041      -301.47049      54418.037     -20792.264      3294.6115     -17497.653      1.0483189    
   1704000   298.48935     -213.42145      54386.405     -20750.012      3339.1944     -17410.818      1.0489286    
   1705000   302.31466     -413.74561      54562.222     -20835.605      3381.9881     -17453.617      1.0455487    
   1706000   289.73759     -701.07143      54740.749     -20889.71       3241.2886     -17648.421      1.0421388    
   1707000   301.56755      349.49978      54596.425     -20886.685      3373.6301     -17513.055      1.0448937    
   1708000   298.24229     -602.41353      54693.993     -20745.176      3336.4306     -17408.745      1.0430297    
   1709000   303.22178     -707.12541      55109.906     -20739.626      3392.136      -17347.49       1.035158     
   1710000   294.84391      223.36101      54205.286     -20816.935      3298.4129     -17518.522      1.0524335    
   1711000   298.50838      552.06813      54720.074     -20836.932      3339.4073     -17497.524      1.0425325    
   1712000   304.0721      -543.70426      54516.131     -20618.622      3401.6485     -17216.973      1.0464326    
   1713000   294.5069      -546.7297       54932.93      -20789.475      3294.6429     -17494.832      1.0384929    
   1714000   304.10847     -641.0204       54967.445     -20836.528      3402.0554     -17434.473      1.0378408    
   1715000   311.17298     -696.40892      54930.518     -20740.02       3481.086      -17258.934      1.0385385    
   1716000   298.6168       742.44075      55102.808     -20739.94       3340.6202     -17399.32       1.0352913    
   1717000   299.40537      233.62861      55024.24      -20793.037      3349.4419     -17443.595      1.0367696    
   1718000   302.93379     -551.8653       54523.248     -20818.49       3388.9143     -17429.576      1.046296     
   1719000   298.72379      66.147404      54347.722     -20836.08       3341.8171     -17494.263      1.0496752    
   1720000   297.11161     -399.6331       55178.814     -20788.983      3323.7817     -17465.202      1.0338652    
   1721000   302.88291     -242.90605      54897.492     -20757.949      3388.3451     -17369.604      1.0391633    
   1722000   304.38202     -259.74717      54849.707     -20770.069      3405.1156     -17364.953      1.0400686    
   1723000   292.96812     -572.73919      54774.874     -20771.981      3277.4286     -17494.552      1.0414895    
   1724000   303.19954      613.23466      54821.126     -20822.416      3391.8872     -17430.529      1.0406108    
   1725000   300.6163      -387.75404      54491.588     -20799.948      3362.9886     -17436.959      1.0469039    
   1726000   302.08041      160.9838       54740.47      -20809.971      3379.3676     -17430.604      1.0421441    
   1727000   301.38348      25.475474      54694.84      -20708.429      3371.571      -17336.858      1.0430135    
   1728000   299.08785      108.31617      54608.29      -20760.341      3345.8898     -17414.451      1.0446666    
   1729000   303.57453     -253.96853      54753.428     -20749.984      3396.0822     -17353.901      1.0418975    
   1730000   296.49653     -36.561472      55025.137     -20772.447      3316.9008     -17455.546      1.0367527    
   1731000   298.08149     -500.29721      54606.268     -20688.992      3334.6317     -17354.361      1.0447053    
   1732000   306.20118      668.75278      54858.587     -20760.902      3425.4665     -17335.435      1.0399002    
   1733000   294.03094     -391.90206      54717.123     -20654.818      3289.3183     -17365.5        1.0425888    
   1734000   303.10544     -459.56991      54819.39      -20690.687      3390.8345     -17299.853      1.0406438    
   1735000   299.33757      111.05211      54481.517     -20700.316      3348.6835     -17351.633      1.0470974    
   1736000   305.25564     -149.82165      55309.772     -20740.556      3414.8887     -17325.668      1.0314173    
   1737000   298.97352     -351.11234      55252.989     -20715.182      3344.6108     -17370.571      1.0324773    
   1738000   302.64623      409.99879      54541.89      -20747.254      3385.6973     -17361.557      1.0459384    
   1739000   298.77802      457.68492      54158.864     -20746.286      3342.4238     -17403.862      1.0533356    
   1740000   304.95945     -208.93859      54511.189     -20675.114      3411.5753     -17263.539      1.0465275    
   1741000   299.21757      136.96298      54593.838     -20638.564      3347.3411     -17291.223      1.0449432    
   1742000   298.37689      636.04088      54861.741     -20755.253      3337.9364     -17417.317      1.0398404    
   1743000   297.52511     -180.02353      55077.666     -20810.793      3328.4075     -17482.386      1.0357639    
   1744000   308.67044      617.60679      54447.264     -20691.407      3453.0901     -17238.317      1.0477562    
   1745000   294.54869      575.12969      54988.486     -20647.912      3295.1104     -17352.802      1.0374437    
   1746000   294.60334      281.36395      54511.043     -20833.302      3295.7217     -17537.58       1.0465303    
   1747000   297.75662      301.32495      54458.995     -20855.665      3330.9973     -17524.667      1.0475305    
   1748000   298.99984      237.13778      54165.778     -20777.618      3344.9052     -17432.713      1.0532011    
   1749000   301.43725     -264.27828      54525.624     -20764.286      3372.1725     -17392.114      1.0462504    
   1750000   300.6383      -494.89369      54775.576     -20782.803      3363.2347     -17419.568      1.0414762    
   1751000   303.44794      324.9334       54717.423     -20880.847      3394.6661     -17486.181      1.042583     
   1752000   307.45399     -165.8545       55430.451     -20797.08       3439.4817     -17357.598      1.0291718    
   1753000   298.41409     -81.653083      54893.33      -20831.175      3338.3524     -17492.822      1.0392421    
   1754000   290.5236      -974.96157      55074.317     -20904.218      3250.0817     -17654.137      1.0358269    
   1755000   303.30189      538.20107      54561.903     -20566.623      3393.0322     -17173.591      1.0455548    
   1756000   309.11221     -705.647        54870.464     -20718.279      3458.0321     -17260.247      1.0396751    
   1757000   297.46267      407.31164      54807.018     -20643.939      3327.709      -17316.23       1.0408787    
   1758000   301.903       -555.34165      54807.754     -20776.072      3377.3828     -17398.69       1.0408647    
   1759000   306.4413       527.15892      54717.299     -20806.983      3428.1527     -17378.83       1.0425854    
   1760000   305.58701      583.68774      55101.399     -20812.416      3418.5959     -17393.82       1.0353178    
   1761000   302.17374      218.24003      55075.7       -20782.417      3380.4116     -17402.005      1.0358009    
   1762000   303.04442     -238.36514      55103.835     -20701.341      3390.1519     -17311.189      1.035272     
   1763000   305.89979      43.663278      55006.746     -20839.873      3422.0949     -17417.778      1.0370993    
   1764000   302.62579      417.16559      54600.088     -20750.085      3385.4687     -17364.617      1.0448236    
   1765000   306.19744     -264.35753      54311.802     -20755.861      3425.4246     -17330.436      1.0503695    
   1766000   303.75738     -77.618693      54742.334     -20820.73       3398.1278     -17422.602      1.0421086    
   1767000   297.42044      19.566395      54503.101     -20802.586      3327.2365     -17475.35       1.0466828    
   1768000   301.72255     -474.27637      54687.224     -20904.115      3375.3642     -17528.751      1.0431588    
   1769000   293.30624     -884.96381      55011.853     -20722.58       3281.2111     -17441.369      1.037003     
   1770000   298.08626     -914.96925      55309.626     -20644.944      3334.6851     -17310.259      1.0314201    
   1771000   296.22423     -406.31905      55223.271     -20753.136      3313.8546     -17439.281      1.0330329    
   1772000   295.30858     -72.295233      54698.432     -20784.445      3303.6112     -17480.833      1.042945     
   1773000   299.38891     -652.13374      54233.648     -20773.607      3349.2578     -17424.35       1.0518831    
   1774000   303.87474     -853.14156      54328.208     -20725.691      3399.4406     -17326.25       1.0500523    
   1775000   305.56044     -404.54533      54774.549     -20619.717      3418.2985     -17201.418      1.0414957    
   1776000   299.85235     -18.72589       53978.915     -20756.245      3354.4422     -17401.803      1.0568471    
   1777000   308.01052      819.07173      54539.653     -20599.536      3445.7076     -17153.828      1.0459813    
   1778000   295.08496     -240.18545      54743.688     -20659.532      3301.1095     -17358.423      1.0420828    
   1779000   299.24721     -125.12635      54947.187     -20756.717      3347.6726     -17409.045      1.0382234    
   1780000   302.59774     -85.265293      54945.552     -20675.022      3385.1548     -17289.868      1.0382543    
   1781000   299.33966     -220.63372      55030.253     -20797.799      3348.7069     -17449.092      1.0366563    
   1782000   295.41713     -347.27658      55058.485     -20682.679      3304.8255     -17377.854      1.0361247    
   1783000   296.43225      135.85532      54898.187     -20811.442      3316.1817     -17495.26       1.0391501    
   1784000   298.43972      183.76014      54757.253     -20797.113      3338.6392     -17458.474      1.0418247    
   1785000   305.19299      152.4156       54967.474     -20784.381      3414.1879     -17370.194      1.0378403    
   1786000   297.46266      22.344542      54830.752     -20658.129      3327.7088     -17330.42       1.0404282    
   1787000   297.64827      551.34752      54415.497     -20588.561      3329.7853     -17258.776      1.0483679    
   1788000   298.94391     -495.06048      54492.279     -20785.937      3344.2796     -17441.658      1.0468907    
   1789000   298.62943      47.39206       54173.24      -20786.08       3340.7615     -17445.319      1.053056     
   1790000   306.18105     -172.51605      54331.156     -20682.085      3425.2413     -17256.844      1.0499953    
   1791000   287.44857     -105.87628      54286.526     -20789.764      3215.6814     -17574.082      1.0508585    
   1792000   292.89594     -51.179091      54041.961     -20814.54       3276.621      -17537.919      1.0556141    
   1793000   293.63131      662.17463      54710.579     -20690.407      3284.8476     -17405.559      1.0427135    
   1794000   302.51299      11.373799      54892.382     -20680.61       3384.2069     -17296.403      1.03926      
   1795000   295.45246     -238.87892      55368.612     -20729.339      3305.2208     -17424.118      1.0303213    
   1796000   301.02402      161.98532      55057.85      -20584.643      3367.5497     -17217.093      1.0361367    
   1797000   298.16013      455.52234      54852.728     -20750.06       3335.5114     -17414.549      1.0400113    
   1798000   303.9236       301.58792      54808.587     -20873.689      3399.9873     -17473.702      1.0408489    
   1799000   301.99147     -227.43291      55048.157     -20684.41       3378.3726     -17306.037      1.0363191    
   1800000   305.26672     -42.316451      54872.514     -20844.346      3415.0128     -17429.333      1.0396363    
   1801000   300.07521     -133.86258      54883.555     -20590.949      3356.9354     -17234.014      1.0394272    
   1802000   297.15632     -803.49196      55012.85      -20747.639      3324.2818     -17423.357      1.0369842    
   1803000   302.473       -471.89891      55011.417     -20717.76       3383.7595     -17334          1.0370112    
   1804000   299.5452      -338.59075      54951.762     -20551.56       3351.0062     -17200.554      1.038137     
   1805000   294.50285     -100.67169      54720.23      -20793.019      3294.5976     -17498.421      1.0425296    
   1806000   294.5744       929.08968      54537.547     -20785.967      3295.398      -17490.569      1.0460217    
   1807000   298.09698     -662.09957      55020.634     -20711.773      3334.805      -17376.968      1.0368375    
   1808000   304.47174      271.53115      54952.651     -20857.205      3406.1193     -17451.086      1.0381202    
   1809000   295.68083      577.24139      54449.771     -20840.501      3307.7756     -17532.725      1.0477079    
   1810000   300.67912      193.73817      54734.816     -20707.176      3363.6913     -17343.485      1.0422517    
   1811000   296.22697     -425.23127      54648.48      -20770.913      3313.8853     -17457.028      1.0438983    
   1812000   300.52452      65.320327      54943.795     -20771.53       3361.9618     -17409.568      1.0382875    
   1813000   295.68594     -348.58601      54377.188     -20752.68       3307.8327     -17444.848      1.0491064    
   1814000   303.7029      -66.285634      54953.852     -20768.086      3397.5183     -17370.567      1.0380975    
   1815000   300.20861     -508.059        55381.898     -20684.656      3358.4277     -17326.228      1.0300741    
   1816000   299.76764     -318.67018      54413.56      -20736.704      3353.4947     -17383.21       1.0484052    
   1817000   294.5393       250.22879      54629.678     -20885.526      3295.0052     -17590.52       1.0442576    
   1818000   300.06766      130.52742      54507.449     -20777.851      3356.851      -17421          1.0465993    
   1819000   296.18354      484.004        54238.91      -20759.321      3313.3994     -17445.921      1.0517811    
   1820000   310.8277      -611.5503       54939.307     -20735.645      3477.2233     -17258.422      1.0383724    
   1821000   301.89901      78.783904      54767.977     -20714.133      3377.3382     -17336.795      1.0416207    
   1822000   294.66582     -519.23228      54693.288     -20710.912      3296.4206     -17414.491      1.0430431    
   1823000   297.23496      629.77511      54836.412     -20733.206      3325.1616     -17408.044      1.0403208    
   1824000   297.26734     -12.741919      54955.376     -20744.508      3325.5238     -17418.984      1.0380687    
   1825000   297.52765      465.94428      53882.022     -20726.739      3328.4359     -17398.303      1.0587475    
   1826000   294.9369       563.7592       55021.357     -20774.835      3299.4532     -17475.382      1.0368239    
   1827000   305.59245      791.87929      55082.223     -20787.515      3418.6567     -17368.858      1.0356782    
   1828000   303.6531       432.73453      54830.761     -20817.92       3396.9612     -17420.958      1.040428     
   1829000   295.37973      243.00163      54699.421     -20688.876      3304.4072     -17384.469      1.0429262    
   1830000   301.07491      340.66235      55049.824     -20808.156      3368.1191     -17440.037      1.0362877    
   1831000   304.30304     -454.47831      54843.515     -20774.256      3404.2321     -17370.024      1.040186     
   1832000   306.44461      444.54922      54778.762     -20843.881      3428.1897     -17415.691      1.0414156    
   1833000   293.71222      892.80155      54482.236     -20692.595      3285.7527     -17406.842      1.0470836    
   1834000   303.64494     -611.04013      54882.601     -20682.507      3396.8699     -17285.638      1.0394452    
   1835000   295.57978     -305.61466      54508.684     -20823.614      3306.6451     -17516.968      1.0465756    
   1836000   296.40062     -202.63674      54215.877     -20838.883      3315.8278     -17523.055      1.0522279    
   1837000   307.71459      704.41833      54490.913     -20790.199      3442.397      -17347.802      1.0469169    
   1838000   297.71388      119.26028      54794.625     -20775.696      3330.5193     -17445.177      1.0411141    
   1839000   303.76528     -396.91352      54606.176     -20843.563      3398.2161     -17445.347      1.0447071    
   1840000   306.38298     -63.612815      54702.075     -20788.863      3427.5003     -17361.363      1.0428756    
   1841000   297.67146     -255.12862      54950.852     -20858.015      3330.0447     -17527.97       1.0381542    
   1842000   300.77464      535.4181       55008.281     -20772.86       3364.7599     -17408.101      1.0370704    
   1843000   297.22226     -319.28893      54737.194     -20655          3325.0195     -17329.98       1.0422065    
   1844000   301.59751      169.14131      54759.211     -20809.048      3373.9654     -17435.082      1.0417874    
   1845000   301.44686     -398.54473      54916.83      -20751.609      3372.2801     -17379.329      1.0387974    
   1846000   299.69088      189.21657      54949.292     -20753.602      3352.6359     -17400.966      1.0381837    
   1847000   300.74958      129.08108      54828.961     -20701.031      3364.4795     -17336.551      1.0404621    
   1848000   299.76274     -925.07558      54924.441     -20869.325      3353.4398     -17515.886      1.0386534    
   1849000   305.01498      120.45002      54583.355     -20744.993      3412.1965     -17332.796      1.0451439    
   1850000   300.73624     -599.07114      54909.859     -20746.985      3364.3303     -17382.654      1.0389292    
   1851000   300.47777     -748.53027      54645.3       -20818.541      3361.4389     -17457.102      1.0439591    
   1852000   297.11462     -169.9076       54948.648     -20812.531      3323.8153     -17488.716      1.0381958    
   1853000   299.30576      25.840153      54884.272     -20738.167      3348.3275     -17389.839      1.0394136    
   1854000   299.80902     -32.460896      54661.971     -20727.209      3353.9576     -17373.252      1.0436407    
   1855000   304.81692     -555.50431      54942.028     -20700.794      3409.9809     -17290.813      1.0383209    
   1856000   305.27528      297.76423      54982.397     -20793.08       3415.1084     -17377.971      1.0375586    
   1857000   306.17191     -499.23969      54579.071     -20746.012      3425.139      -17320.873      1.0452259    
   1858000   298.40971     -61.289314      54556.126     -20880.584      3338.3035     -17542.28       1.0456655    
   1859000   294.80589     -280.90111      55377.954     -20807.933      3297.9876     -17509.946      1.0301474    
   1860000   298.27074     -1061.4934      55082.373     -20622.085      3336.7488     -17285.336      1.0356754    
   1861000   291.92636     -123.28508      55054.235     -20718.69       3265.7744     -17452.915      1.0362047    
   1862000   302.17398     -331.19443      54950.237     -20867.571      3380.4143     -17487.157      1.0381658    
   1863000   299.14651      557.39829      54670.06      -20645.081      3346.546      -17298.535      1.0434863    
   1864000   300.91032      501.26611      54605.651     -20770.47       3366.2778     -17404.192      1.0447171    
   1865000   294.74498     -253.06317      54714.297     -20753.739      3297.3062     -17456.433      1.0426426    
   1866000   299.86479      780.26159      54790.798     -20746.319      3354.5814     -17391.737      1.0411868    
   1867000   299.58727     -30.341668      54866.744     -20886.002      3351.4768     -17534.526      1.0397456    
   1868000   300.09433     -191.61241      55199.691     -20775.793      3357.1493     -17418.643      1.0334742    
   1869000   301.34646     -310.05487      54947.589     -20786.32       3371.1568     -17415.163      1.0382158    
   1870000   293.38897      576.07496      54120.154     -20716.684      3282.1366     -17434.547      1.054089     
   1871000   302.12371      430.96715      54478.285     -20911.451      3379.852      -17531.599      1.0471596    
   1872000   300.18729      420.30376      54532.194     -20700.156      3358.1893     -17341.967      1.0461244    
   1873000   295.8137       830.59989      54733.226     -20652.953      3309.262      -17343.691      1.042282     
   1874000   292.90998      457.10321      54601.829     -20710.081      3276.7781     -17433.303      1.0447902    
   1875000   296.84986      894.71971      54317.19      -20647.647      3320.8535     -17326.794      1.0502653    
   1876000   306.43568      3.8656634      54467.186     -20800.573      3428.0898     -17372.483      1.0473729    
   1877000   296.5794       73.586543      54781.973     -20831.598      3317.8279     -17513.77       1.0413546    
   1878000   300.25849      273.95871      54972.673     -20662.773      3358.9857     -17303.787      1.0377421    
   1879000   301.95035      321.07958      54869.24      -20731.554      3377.9126     -17353.642      1.0396983    
   1880000   303.15154     -716.86867      54863.418     -20764.722      3391.3502     -17373.372      1.0398087    
   1881000   298.96017      779.7509       54335.486     -20818.965      3344.4615     -17474.504      1.0499116    
   1882000   296.52755      728.92083      54665.744     -20684.083      3317.2479     -17366.835      1.0435687    
   1883000   296.09378      799.29127      54151.685     -20733.237      3312.3952     -17420.841      1.0534752    
   1884000   303.64724     -211.42129      54164.957     -20789.34       3396.8957     -17392.445      1.0532171    
   1885000   293.83215      675.92387      54941.622     -20680.805      3287.0945     -17393.711      1.0383286    
   1886000   308.48223     -688.54576      54815.969     -20789.605      3450.9846     -17338.621      1.0407087    
   1887000   300.06408     -268.31841      55342.49      -20778.026      3356.8109     -17421.215      1.0308076    
   1888000   303.31124      558.9069       55070.02      -20802.36       3393.1369     -17409.223      1.0359077    
   1889000   291.30418     -490.98682      54193.066     -20635.755      3258.814      -17376.941      1.0526708    
   1890000   303.09485     -249.97914      54556.939     -20747.515      3390.7161     -17356.799      1.0456499    
   1891000   300.12489      79.531042      54863.669     -20823.522      3357.4911     -17466.031      1.0398039    
   1892000   298.49992      44.793502      54635.836     -20891.91       3339.3127     -17552.598      1.0441399    
   1893000   296.83236     -107.16059      54762.245     -20827.954      3320.6577     -17507.296      1.0417297    
   1894000   302.83107      104.26248      54890.609     -20775.629      3387.7652     -17387.863      1.0392936    
   1895000   304.23419      356.11729      54637.032     -20730.976      3403.4618     -17327.514      1.0441171    
   1896000   300.54991      504.08223      54540.516     -20614.68       3362.2458     -17252.434      1.0459648    
   1897000   301.45921     -271.99922      54458.04      -20938.181      3372.4182     -17565.763      1.0475489    
   1898000   297.09645      823.60548      54218.81      -20727.92       3323.6121     -17404.308      1.052171     
   1899000   298.09773     -179.78546      54704.925     -20710.573      3334.8134     -17375.76       1.0428212    
   1900000   303.67308      209.36355      54853.383     -20836.823      3397.1847     -17439.638      1.0399989    
   1901000   300.65073      348.14523      54103.964     -20831.455      3363.3738     -17468.081      1.0544044    
   1902000   301.76946     -149.38931      54489.868     -20741.502      3375.8889     -17365.613      1.046937     
   1903000   298.88157      313.83065      54716.144     -20723.207      3343.5822     -17379.625      1.0426074    
   1904000   303.47481     -363.90166      54580.419     -20763.888      3394.9667     -17368.921      1.0452001    
   1905000   292.35232      1105.1162      54715.052     -20653.016      3270.5396     -17382.476      1.0426282    
   1906000   304.02762      318.07239      54720.404     -20784.806      3401.151      -17383.655      1.0425263    
   1907000   301.03898     -57.118807      55048.945     -20824.558      3367.7171     -17456.841      1.0363043    
   1908000   301.38306     -358.98676      55142.245     -20845.777      3371.5663     -17474.21       1.0345509    
   1909000   299.14452      719.07945      54696.967     -20781.622      3346.5238     -17435.098      1.042973     
   1910000   295.7235       670.31859      54903.035     -20709.99       3308.2529     -17401.737      1.0390584    
   1911000   300.89469      427.61557      53939.568     -20888.386      3366.1029     -17522.283      1.057618     
   1912000   297.36458     -296.86215      54764.836     -20825.801      3326.6116     -17499.189      1.0416804    
   1913000   303.24329      212.01016      54848.848     -20805.581      3392.3767     -17413.204      1.0400849    
   1914000   300.05566     -1470.6982      55280.774     -20896.33       3356.7167     -17539.613      1.0319584    
   1915000   294.63965      226.04069      54237.771     -20890.914      3296.1279     -17594.786      1.0518031    
   1916000   296.69318      631.11845      54980.275     -20676.178      3319.1007     -17357.077      1.0375986    
   1917000   299.76685      381.74897      55003.044     -20892.112      3353.4858     -17538.626      1.0371691    
   1918000   294.77935     -486.74286      54756.978     -20893.175      3297.6907     -17595.485      1.0418299    
   1919000   293.82323     -462.132        54692.989     -20815.032      3286.9946     -17528.037      1.0430488    
   1920000   300.69441      46.128597      54806.259     -20800.507      3363.8624     -17436.645      1.0408931    
   1921000   298.49181      71.50623       54538.192     -20706.479      3339.222      -17367.257      1.0460093    
   1922000   301.40061     -98.15552       54577.63      -20762.668      3371.7626     -17390.905      1.0452535    
   1923000   299.69786      222.15828      54650.037     -20794.499      3352.714      -17441.785      1.0438686    
   1924000   300.56897     -573.84496      54351.879     -20860.002      3362.459      -17497.543      1.049595     
   1925000   300.84341      481.67791      54284.273     -20755.027      3365.5292     -17389.497      1.0509021    
   1926000   298.90015      9.9739325      54478.935     -20762.287      3343.79       -17418.497      1.0471471    
   1927000   297.0785       539.7111       54506.157     -20825.701      3323.4113     -17502.29       1.0466241    
   1928000   296.07228     -306.39937      54840.549     -20714.477      3312.1547     -17402.322      1.0402423    
   1929000   299.5526      -28.083538      54351.81      -20771.619      3351.089      -17420.53       1.0495963    
   1930000   298.80049      266.83664      54593.995     -20826.295      3342.6752     -17483.619      1.0449401    
   1931000   299.75454     -557.81023      54705.445     -20828.479      3353.3481     -17475.131      1.0428113    
   1932000   307.90431     -344.73659      54687.055     -20670.242      3444.5194     -17225.723      1.043162     
   1933000   295.25715     -331.29359      54872.678     -20809.08       3303.0359     -17506.044      1.0396332    
   1934000   302.55769      408.97633      54386.994     -20757.086      3384.7068     -17372.379      1.0489173    
   1935000   296.73283      207.35096      54456.998     -20825.948      3319.5442     -17506.404      1.0475689    
   1936000   304.8543       131.93169      54579.186     -20717.954      3410.399      -17307.555      1.0452237    
   1937000   305.04528     -630.87846      55040.745     -20775.956      3412.5355     -17363.421      1.0364587    
   1938000   299.15998      345.13433      54251.18      -20612.38       3346.6967     -17265.683      1.0515432    
   1939000   291.7773      -222.38447      54991.507     -20741.416      3264.1069     -17477.309      1.0373867    
   1940000   300.422        90.561838      54467.538     -20880.364      3360.8149     -17519.549      1.0473662    
   1941000   296.85022      678.07337      54881.447     -20850.739      3320.8575     -17529.882      1.0394671    
   1942000   296.1311       548.71304      55226.418     -20798.464      3312.8127     -17485.651      1.0329741    
   1943000   301.4444      -8.443459       54936.329     -20697.801      3372.2525     -17325.549      1.0384287    
   1944000   302.19261     -96.183765      54785.891     -20631.631      3380.6227     -17251.008      1.0412801    
   1945000   300.53756     -356.29076      54896.83      -20662.727      3362.1077     -17300.619      1.0391758    
   1946000   294.37478     -14.100483      55299.262     -20775.563      3293.1648     -17482.398      1.0316134    
   1947000   300.96883      973.85469      55436.77      -20616.425      3366.9324     -17249.493      1.0290545    
   1948000   296.32376     -129.55827      54539.045     -20774.842      3314.968      -17459.874      1.045993     
   1949000   296.83636     -120.32499      54910.267     -20696.337      3320.7024     -17375.635      1.0389215    
   1950000   297.65839      520.77928      54251.545     -20753.786      3329.8985     -17423.888      1.0515361    
   1951000   298.35919     -305.5325       54734.022     -20723.215      3337.7384     -17385.477      1.0422669    
   1952000   294.00116      58.340049      54466.79      -20744.526      3288.9851     -17455.541      1.0473806    
   1953000   303.7523       731.6815       54316.892     -20616.431      3398.0709     -17218.36       1.050271     
   1954000   303.23079     -178.4291       54510.335     -20770.166      3392.2368     -17377.93       1.0465439    
   1955000   299.37859      221.77676      54762.453     -20667.743      3349.1423     -17318.601      1.0417258    
   1956000   302.99202     -251.01831      55236.787     -20755.218      3389.5657     -17365.653      1.0327802    
   1957000   300.0062       208.02047      54874.291     -20704.414      3356.1634     -17348.25       1.0396026    
   1958000   299.07739      31.667791      54468.426     -20750.567      3345.7729     -17404.794      1.0473491    
   1959000   299.99726     -546.00687      54743.953     -20665.495      3356.0634     -17309.432      1.0420778    
   1960000   309.12442      629.84779      54906.672     -20997.884      3458.1687     -17539.715      1.0389895    
   1961000   304.14932     -12.176689      54586.059     -20833.803      3402.5124     -17431.29       1.0450921    
   1962000   298.43306      693.38175      54406.934     -20867.699      3338.5647     -17529.135      1.0485329    
   1963000   293.38165     -383.39794      54937.404     -20592.218      3282.0547     -17310.163      1.0384083    
   1964000   300.79368      20.763786      54879.504     -20819.07       3364.973      -17454.097      1.0395039    
   1965000   306.12258      714.76501      54905.88      -20746.995      3424.5872     -17322.407      1.0390045    
   1966000   299.3425       163.44128      54858.305     -20777.318      3348.7386     -17428.58       1.0399056    
   1967000   300.45487     -135.4836       54971.347     -20728.931      3361.1827     -17367.749      1.0377671    
   1968000   299.33867     -398.58646      54848.474     -20729.477      3348.6957     -17380.781      1.040092     
   1969000   301.50302     -195.54404      55042.839     -20695.692      3372.9083     -17322.784      1.0364192    
   1970000   303.74844     -211.93037      54117.031     -20846.218      3398.0278     -17448.19       1.0541498    
   1971000   289.98257     -140.65454      54787.914     -20814.515      3244.0293     -17570.485      1.0412416    
   1972000   293.83183     -428.59819      55278.541     -20865.167      3287.0908     -17578.076      1.0320001    
   1973000   304.67573      147.01918      54357.581     -20835.027      3408.4014     -17426.625      1.0494849    
   1974000   299.32401     -393.78689      54550.484     -20736.831      3348.5317     -17388.299      1.0457736    
   1975000   299.77382      232.78946      54581.234     -20627.588      3353.5638     -17274.024      1.0451845    
   1976000   299.97086     -65.770149      54600.644     -20697.533      3355.768      -17341.765      1.0448129    
   1977000   298.2582       275.66821      55134.95      -20798.412      3336.6085     -17461.803      1.0346878    
   1978000   301.02359     -959.88395      55035.753     -20693.089      3367.5449     -17325.544      1.0365527    
   1979000   301.55317      202.7833       55158.611     -20768.236      3373.4693     -17394.767      1.0342439    
   1980000   299.7311       632.86057      54561.805     -20788.245      3353.0858     -17435.159      1.0455567    
   1981000   307.82703      809.06653      54897.432     -20724.045      3443.6548     -17280.39       1.0391644    
   1982000   302.02093     -293.60243      54878.47      -20845.381      3378.7022     -17466.679      1.0395235    
   1983000   296.36765     -447.58272      54701.703     -20781.511      3315.459      -17466.052      1.0428827    
   1984000   290.64264      306.18244      54756.751     -20734.023      3251.4134     -17482.609      1.0418342    
   1985000   302.07626      1001.7328      54581.869     -20825.51       3379.3211     -17446.188      1.0451723    
   1986000   303.86739     -107.27321      54444.669     -20782.094      3399.3584     -17382.736      1.0478061    
   1987000   298.13374      258.41378      54229.676     -20788.938      3335.2162     -17453.722      1.0519601    
   1988000   301.73571     -147.42567      54461.075     -20760.288      3375.5114     -17384.776      1.0474905    
   1989000   306.31794      546.97147      54509.197     -20666.505      3426.7727     -17239.733      1.0465657    
   1990000   301.97754     -165.07218      54636.507     -20717.076      3378.2167     -17338.859      1.0441271    
   1991000   303.72045      49.882843      54457.951     -20737.051      3397.7146     -17339.336      1.0475506    
   1992000   298.03992      451.67491      54385.729     -20766.678      3334.1666     -17432.512      1.0489417    
   1993000   297.56678      43.042453      54200.11      -20886.394      3328.8736     -17557.52       1.052534     
   1994000   294.18948     -25.133318      54463.875     -20849.559      3291.0919     -17558.467      1.0474366    
   1995000   302.0483       901.8094       54334.678     -20751.776      3379.0083     -17372.768      1.0499272    
   1996000   297.97899     -263.30078      54485.638     -20830.889      3333.485      -17497.404      1.0470182    
   1997000   295.59284      550.44184      54589.109     -20785.866      3306.7912     -17479.075      1.0450337    
   1998000   296.15442     -11.623235      54912.186     -20748.161      3313.0736     -17435.088      1.0388852    
   1999000   299.31666     -87.186393      54680.986     -20834.972      3348.4495     -17486.523      1.0432778    
   2000000   300.17247      310.83554      55231.062     -20756.032      3358.0234     -17398.009      1.0328872    
   2001000   302.00989      54.589287      54835.795     -20774.303      3378.5787     -17395.724      1.0403325    
   2002000   294.00447     -46.942415      54455.413     -20710.833      3289.0221     -17421.811      1.0475994    
   2003000   292.91875     -378.73096      54875.3       -20727.371      3276.8763     -17450.495      1.0395835    
   2004000   300.30181     -576.26132      54620.895     -20756.118      3359.4703     -17396.647      1.0444255    
   2005000   301.67526     -803.84478      55478.62      -20820.042      3374.8351     -17445.206      1.0282782    
   2006000   303.06726      94.706744      54894.458     -20750.953      3390.4074     -17360.546      1.0392207    
   2007000   298.09238      1006.6212      54694.723     -20876.448      3334.7535     -17541.694      1.0430158    
   2008000   302.04597      36.411047      54725.901     -20753.242      3378.9823     -17374.259      1.0424215    
   2009000   292.21126      189.27565      55026.612     -20811.854      3268.9616     -17542.892      1.0367249    
   2010000   304.48098      270.52201      54961.964     -20773.173      3406.2227     -17366.95       1.0379443    
   2011000   302.67246      91.978299      54789.553     -20792.303      3385.9908     -17406.312      1.0412105    
   2012000   297.25952     -592.38911      55059.46      -20773.499      3325.4363     -17448.062      1.0361064    
   2013000   302.25345     -629.20314      54333.566     -20841.887      3381.3034     -17460.583      1.0499487    
   2014000   302.18421      131.24336      54757.561     -20679.565      3380.5287     -17299.037      1.0418188    
   2015000   299.3602      -59.072749      54890.589     -20652.143      3348.9366     -17303.206      1.039294     
   2016000   310.11541      240.72831      54755.083     -20848.139      3469.2549     -17378.884      1.041866     
   2017000   301.93169     -1321.7576      54790.105     -20701.306      3377.7038     -17323.602      1.0412       
   2018000   301.0988       49.375585      54735.356     -20842.231      3368.3863     -17473.845      1.0422415    
   2019000   300.15365      147.61799      54821.329     -20794.481      3357.8129     -17436.668      1.040607     
   2020000   301.27385      1110.6348      54024.133     -20780.843      3370.3446     -17410.498      1.0559625    
   2021000   302.35408     -425.2858       54538.113     -20664.146      3382.429      -17281.717      1.0460108    
   2022000   300.35856     -552.9963       54694.11      -20713.902      3360.1053     -17353.796      1.0430274    
   2023000   301.74298      14.364843      54835.415     -20749.966      3375.5927     -17374.373      1.0403397    
   2024000   303.15779      449.0437       54691.936     -20776.515      3391.4202     -17385.095      1.0430689    
   2025000   302.97649     -429.93009      55115.175     -20803.204      3389.3919     -17413.812      1.035059     
   2026000   295.0371       584.80286      54644.523     -20714.737      3300.5742     -17414.163      1.0439739    
   2027000   301.35003     -44.787647      54480.59      -20735.153      3371.1968     -17363.956      1.0471153    
   2028000   293.55042      802.13374      54637.508     -20587.508      3283.9427     -17303.566      1.044108     
   2029000   302.05763     -737.16825      54386.829     -20889.093      3379.1127     -17509.981      1.0489205    
   2030000   291.79063      973.45091      54715.313     -20857.995      3264.256      -17593.739      1.0426233    
   2031000   295.46367      190.81341      54469.269     -20649.242      3305.3462     -17343.896      1.0473329    
   2032000   302.21454      93.79865       54858.096     -20711.096      3380.8681     -17330.228      1.0399095    
   2033000   291.99265      395.48963      54677.749     -20583.984      3266.5159     -17317.468      1.0433395    
   2034000   298.51981     -181.73509      54225.093     -20844.505      3339.5352     -17504.969      1.052049     
   2035000   299.92928      19.46958       54568.378     -20867.754      3355.3029     -17512.451      1.0454307    
   2036000   296.59457      66.952428      54787.306     -20651.058      3317.9975     -17333.061      1.0412532    
   2037000   295.89585      611.24532      54607.184     -20830.875      3310.1809     -17520.694      1.0446878    
   2038000   300.89536     -235.93261      54667.36      -20612.13       3366.1104     -17246.019      1.0435378    
   2039000   300.38167      252.74155      54622.757     -20779.974      3360.3638     -17419.61       1.0443899    
   2040000   298.60584      469.90355      54799.809     -20765.434      3340.4976     -17424.936      1.0410156    
   2041000   291.73473     -200.42831      55107.431     -20755.679      3263.6307     -17492.048      1.0352045    
   2042000   302.80867      482.1593       54733.558     -20631.46       3387.5145     -17243.945      1.0422757    
   2043000   302.75411      50.596095      54302.587     -20760.579      3386.9042     -17373.674      1.0505477    
   2044000   291.533        544.3539       54422.646     -20818.078      3261.3738     -17556.704      1.0482301    
   2045000   300.24755     -459.69635      54571.541     -20726.222      3358.8633     -17367.359      1.0453701    
   2046000   305.48674     -441.67866      54768.192     -20944.786      3417.4741     -17527.312      1.0416166    
   2047000   292.94174      62.234902      54440.33      -20769.547      3277.1334     -17492.413      1.0478896    
   2048000   304.82472      215.09232      54992.897     -20781.13       3410.0681     -17371.062      1.0373605    
   2049000   303.86719     -559.1856       54744.465     -20728.95       3399.3562     -17329.594      1.042068     
   2050000   302.26847      187.71964      54480.197     -20746.411      3381.4714     -17364.939      1.0471228    
   2051000   302.96281     -851.22796      54752.608     -20700.634      3389.2389     -17311.395      1.0419131    
   2052000   297.99095     -577.00526      54762.428     -20809.735      3333.6189     -17476.116      1.0417262    
   2053000   294.49794     -1054.5911      55533.56      -20784.44       3294.5426     -17489.897      1.027261     
   2054000   300.91551      72.865665      54673.516     -20781.777      3366.3358     -17415.441      1.0434203    
   2055000   300.56129     -365.14217      54403.637     -20876.038      3362.3732     -17513.665      1.0485964    
   2056000   300.46943      150.78757      54932.207     -20709.167      3361.3455     -17347.822      1.0385066    
   2057000   306.43811      406.54397      54259.477     -20807.534      3428.117      -17379.417      1.0513824    
   2058000   292.21548      360.47052      55173.605     -20792.302      3269.0088     -17523.293      1.0339629    
   2059000   300.08635      88.378376      54689.01      -20779.768      3357.06       -17422.708      1.0431247    
   2060000   299.22057     -738.4898       54773.285     -20902.471      3347.3746     -17555.097      1.0415197    
   2061000   289.59405      184.7188       54316.775     -20830.763      3239.6829     -17591.08       1.0502733    
   2062000   301.80116      305.35173      54538.553     -20815.87       3376.2435     -17439.626      1.0460024    
   2063000   302.58569     -399.45396      55099.922     -20722.112      3385.0201     -17337.091      1.0353455    
   2064000   295.20781     -352.12088      54942.797     -20792.627      3302.4839     -17490.143      1.0383064    
   2065000   299.45399      507.80237      54826.17      -20836.756      3349.9859     -17486.77       1.0405151    
   2066000   297.42139     -355.65714      54676.059     -20812.809      3327.2472     -17485.562      1.0433718    
   2067000   301.41479     -699.46999      55156.882     -20752.544      3371.9212     -17380.623      1.0342763    
   2068000   312.62452      31.228152      54497.416     -20803.532      3497.3243     -17306.208      1.046792     
   2069000   297.28545     -87.021933      54995.064     -20823.641      3325.7265     -17497.914      1.0373196    
   2070000   301.42624     -16.228544      54560.543     -20778.415      3372.0494     -17406.366      1.0455808    
   2071000   304.60917     -276.75677      54592.476     -20822.749      3407.6567     -17415.092      1.0449692    
   2072000   302.22529     -137.15617      54856.191     -20779.066      3380.9883     -17398.077      1.0399457    
   2073000   299.46083     -472.40447      55059.121     -20763.865      3350.0623     -17413.803      1.0361128    
   2074000   302.41334     -394.81207      54539.77      -20847.268      3383.092      -17464.176      1.0459791    
   2075000   297.319       -748.70032      55237.031     -20748.279      3326.1017     -17422.177      1.0327756    
   2076000   306.60369      404.32336      54974.169     -20760.015      3429.9694     -17330.045      1.0377139    
   2077000   297.30206      957.95117      54244.532     -20698.706      3325.9122     -17372.794      1.051672     
   2078000   302.04898      565.935        54775.545     -20812.734      3379.0159     -17433.718      1.0414768    
   2079000   304.12863      47.725042      55101.888     -20813.501      3402.2809     -17411.22       1.0353086    
   2080000   300.76577     -680.34806      55564.017     -20795.831      3364.6607     -17431.17       1.0266979    
   2081000   297.02127      135.39066      55245.114     -20714.088      3322.771      -17391.317      1.0326245    
   2082000   298.59488      811.77599      54676.648     -20560.099      3340.375      -17219.724      1.0433605    
   2083000   300.25398      256.75879      54246.671     -20874.816      3358.9353     -17515.881      1.0516306    
   2084000   293.96421     -145.20656      55016.761     -20811.625      3288.5718     -17523.054      1.0369105    
   2085000   300.36637      330.10265      54539.09      -20850.192      3360.1927     -17489.999      1.0459921    
   2086000   306.81467      87.29387       55060.858     -20753.027      3432.3296     -17320.698      1.0360801    
   2087000   304.28841     -312.65552      54806.896     -20631.281      3404.0684     -17227.212      1.040881     
   2088000   297.75595      408.32346      54056.274     -20935.573      3330.9899     -17604.583      1.0553346    
   2089000   302.86319      137.28917      54812.954     -20744.245      3388.1245     -17356.121      1.040766     
   2090000   300.33921      1229.668       54726.306     -20789.589      3359.8888     -17429.7        1.0424138    
   2091000   297.85379      112.72435      54804.241     -20778.335      3332.0844     -17446.251      1.0409314    
   2092000   298.5184       315.30289      54170.275     -20705.58       3339.5194     -17366.061      1.0531137    
   2093000   301.32777      28.853107      54924.245     -20706.182      3370.9478     -17335.234      1.0386571    
   2094000   299.32508      219.45863      54483.59      -20789.245      3348.5437     -17440.701      1.0470576    
   2095000   298.05285      122.25503      54789.246     -20748.19       3334.3114     -17413.878      1.0412163    
   2096000   302.74177      316.17582      54989.091     -20732.949      3386.7662     -17346.183      1.0374323    
   2097000   296.52004     -201.35248      54549.146     -20806.83       3317.1638     -17489.666      1.0457993    
   2098000   305.59703     -277.74587      55228.117     -20728.039      3418.7079     -17309.331      1.0329423    
   2099000   294.72858     -178.08986      54744.54      -20759.315      3297.1228     -17462.192      1.0420666    
   2100000   297.24521     -385.3321       54875.764     -20837.054      3325.2762     -17511.778      1.0395747    
   2101000   297.3227      -370.99742      54688.891     -20852.474      3326.1431     -17526.331      1.043127     
   2102000   301.01648     -230.81828      54983.928     -20822.373      3367.4653     -17454.908      1.0375297    
   2103000   303.58364     -7.3705438      55407.653     -20767.212      3396.1841     -17371.027      1.0295953    
   2104000   300.87481      628.834        54985.228     -20798.98       3365.8805     -17433.1        1.0375051    
   2105000   301.68049     -274.72497      54910.417     -20773.325      3374.8936     -17398.431      1.0389187    
   2106000   301.18751      527.76889      54963.752     -20836.034      3369.3787     -17466.655      1.0379105    
   2107000   297.86541      351.49584      54598.148     -20789.546      3332.2145     -17457.331      1.0448607    
   2108000   295.34605     -144.96166      54517.782     -20809.597      3304.0304     -17505.567      1.0464009    
   2109000   296.35102      816.26607      54991.13      -20819.977      3315.273      -17504.704      1.0373938    
   2110000   293.41196      542.44137      54555.352     -20712.441      3282.3937     -17430.047      1.0456803    
   2111000   305.1656       70.492524      54528.04      -20895.194      3413.8815     -17481.312      1.0462041    
   2112000   302.35742     -758.51509      55167.862     -20737.997      3382.4664     -17355.531      1.0340705    
   2113000   298.45035      173.87201      54591.476     -20772.724      3338.7582     -17433.966      1.0449884    
   2114000   299.54489      76.996421      54990.831     -20664.987      3351.0027     -17313.984      1.0373995    
   2115000   304.13749     -324.41628      54592.324     -20840.929      3402.3801     -17438.549      1.0449721    
   2116000   296.77339      304.702        54985.423     -20731.106      3319.998      -17411.108      1.0375015    
   2117000   300.62144      543.80023      54805.976     -20725.715      3363.0461     -17362.669      1.0408985    
   2118000   293.27371      679.231        54623.053     -20794.077      3280.8471     -17513.23       1.0443843    
   2119000   300.65091      26.060413      54349.845     -20787.437      3363.3758     -17424.061      1.0496342    
   2120000   301.53577      661.21549      54803.722     -20733.308      3373.2747     -17360.033      1.0409413    
   2121000   294.2611       408.65261      54432.208     -20793.744      3291.8931     -17501.851      1.048046     
   2122000   301.74607      125.93955      55010.287     -20692.169      3375.6272     -17316.541      1.0370325    
   2123000   302.86795     -643.97396      54938.777     -20623.299      3388.1777     -17235.121      1.0383824    
   2124000   299.22677     -512.52321      54708.019     -20723.572      3347.444      -17376.128      1.0427623    
   2125000   302.04127     -114.6916       54699.032     -20650.767      3378.9297     -17271.837      1.0429336    
   2126000   297.26355     -148.91957      54837.328     -20662.862      3325.4814     -17337.381      1.0403034    
   2127000   303.17993      45.060414      54174.228     -20672.721      3391.6678     -17281.053      1.0530368    
   2128000   294.86038     -554.86508      55119.547     -20775.483      3298.5972     -17476.886      1.0349769    
   2129000   296.45802     -547.5718       54933.559     -20733.434      3316.47       -17416.964      1.038481     
   2130000   303.83909      300.65611      54997.998     -20734.866      3399.0419     -17335.824      1.0372643    
   2131000   295.47174     -716.72095      54927.391     -20762.981      3305.4365     -17457.544      1.0385976    
   2132000   296.04384      331.89375      54797.16      -20687.922      3311.8366     -17376.085      1.0410659    
   2133000   307.93583      78.62261       54642.875     -20787.008      3444.872      -17342.136      1.0440054    
   2134000   298.46589     -130.17527      54520.761     -20734.173      3338.932      -17395.241      1.0463438    
   2135000   303.53486     -312.14388      54776.942     -20610.115      3395.6384     -17214.477      1.0414502    
   2136000   306.95421      504.43782      54398.286     -20749.844      3433.8907     -17315.953      1.0486995    
   2137000   297.77451      685.25165      54786.886     -20712.897      3331.1975     -17381.699      1.0412612    
   2138000   303.14796      391.71069      54338.574     -20825.617      3391.3102     -17434.307      1.0498519    
   2139000   304.98891     -391.84962      54420.32      -20786.343      3411.9048     -17374.439      1.0482749    
   2140000   301.27862      118.65571      54694.759     -20857.015      3370.398      -17486.617      1.0430151    
   2141000   302.60989     -100.2828       54984.362     -20795.159      3385.2908     -17409.868      1.0375215    
   2142000   304.56185     -302.64455      54098.47      -20749.2        3407.1273     -17342.073      1.0545115    
   2143000   298.63332     -339.65929      55019.554     -20751.378      3340.805      -17410.573      1.0368579    
   2144000   296.78078     -350.28218      55075.032     -20853.848      3320.0806     -17533.767      1.0358134    
   2145000   300.32702      141.44018      54762.339     -20863.925      3359.7524     -17504.173      1.0417279    
   2146000   299.28859      625.09133      54567.498     -20769.236      3348.1355     -17421.101      1.0454476    
   2147000   302.10197     -599.4914       54714.028     -20665.109      3379.6087     -17285.5        1.0426477    
   2148000   297.27062      960.82557      54507.054     -20749.736      3325.5605     -17424.175      1.0466069    
   2149000   294.53453      518.45748      54681.88      -20770.513      3294.9519     -17475.561      1.0432607    
   2150000   307.75851     -212.26507      55111.867     -20786.486      3442.8884     -17343.598      1.0351211    
   2151000   300.34702     -580.42821      55113.148     -20826.935      3359.9762     -17466.959      1.0350971    
   2152000   300.09213      30.728155      54783.072     -20790.145      3357.1247     -17433.02       1.0413337    
   2153000   300.7314      -521.88363      54977.048     -20644.3        3364.2762     -17280.024      1.0376595    
   2154000   302.11749     -287.30364      54845.932     -20839.986      3379.7823     -17460.204      1.0401402    
   2155000   305.62122      556.56579      55275.413     -20809.921      3418.9785     -17390.942      1.0320585    
   2156000   298.81757      89.369821      55225.641     -20777.192      3342.8663     -17434.326      1.0329886    
   2157000   303.129        478.60848      54902.196     -20756.053      3391.0981     -17364.955      1.0390742    
   2158000   301.61632     -174.79161      54660.591     -20770.606      3374.1758     -17396.43       1.043667     
   2159000   299.91503      254.87371      54700.136     -20707.99       3355.1435     -17352.846      1.0429125    
   2160000   302.42522     -187.67117      55013.065     -20761.96       3383.2249     -17378.735      1.0369802    
   2161000   299.79634      746.21542      54860.873     -20835.368      3353.8157     -17481.553      1.0398569    
   2162000   305.3593      -655.63375      54859.561     -20880.939      3416.0484     -17464.891      1.0398818    
   2163000   304.94802      365.52624      54666.779     -20886.719      3411.4475     -17475.271      1.0435489    
   2164000   300.84452      858.66958      54534.482     -20812.051      3365.5416     -17446.509      1.0460805    
   2165000   299.54926      547.6812       54378.45      -20850.265      3351.0516     -17499.213      1.0490821    
   2166000   300.83531      103.3483       54739.778     -20811.314      3365.4386     -17445.875      1.0421573    
   2167000   298.22544     -329.33396      54863.937     -20798.323      3336.242      -17462.081      1.0397988    
   2168000   298.81583     -5.7174761      55091.445     -20783.991      3342.8467     -17441.145      1.0355048    
   2169000   297.61881     -276.35852      54812.346     -20794.003      3329.4557     -17464.547      1.0407775    
   2170000   301.75458     -634.64187      55059.969     -20926.251      3375.7225     -17550.529      1.0360968    
   2171000   300.5217       233.14654      54796.494     -20895.601      3361.9302     -17533.671      1.0410786    
   2172000   302.68617     -119.81507      54466.495     -20822.086      3386.1442     -17435.942      1.0473863    
   2173000   292.4258       173.46951      54794.886     -20852.624      3271.3616     -17581.263      1.0411092    
   2174000   300.82734      430.58033      54538.399     -20711.337      3365.3495     -17345.987      1.0460054    
   2175000   298.87985     -1168.5523      55654.242     -20754.663      3343.563      -17411.1        1.0250334    
   2176000   297.22097     -184.41309      54695.915     -20814.443      3325.005      -17489.438      1.042993     
   2177000   300.3615      -405.46245      55076.483     -20673.086      3360.1381     -17312.948      1.0357861    
   2178000   299.57172     -1006.8892      55648.713     -20657.785      3351.3029     -17306.482      1.0251352    
   2179000   300.17858      848.58456      54828.519     -20717.764      3358.0918     -17359.672      1.0404705    
   2180000   300.03367     -907.60572      55066.658     -20683.279      3356.4707     -17326.808      1.0359709    
   2181000   303.14164     -27.029968      54720.722     -20771.579      3391.2395     -17380.34       1.0425202    
   2182000   301.7483      -660.87317      55386.502     -20719.461      3375.6523     -17343.809      1.0299885    
   2183000   298.30019      669.96087      54541.27      -20714.006      3337.0783     -17376.928      1.0459503    
   2184000   304.87549     -997.31761      55158.057     -20835.696      3410.6361     -17425.06       1.0342543    
   2185000   308.74506     -128.87682      54773.793     -20839.502      3453.9248     -17385.577      1.0415101    
   2186000   297.5774      -918.19744      54822.617     -20790.986      3328.9925     -17461.994      1.0405825    
   2187000   300.19553      195.89279      54844.783     -20645.055      3358.2815     -17286.773      1.040162     
   2188000   302.40294      296.68165      55122.647     -20694.237      3382.9756     -17311.261      1.0349187    
   2189000   301.61347     -186.46438      54607.876     -20793.524      3374.1439     -17419.38       1.0446745    
   2190000   297.74515     -109.16002      54833.272     -20832.373      3330.8691     -17501.504      1.0403803    
   2191000   291.21713      106.67873      54383.822     -20746.069      3257.8402     -17488.229      1.0489785    
   2192000   303.09227      833.34785      54092.571     -20722.167      3390.6872     -17331.48       1.0546265    
   2193000   302.83591     -98.379333      54771.49      -20693.807      3387.8193     -17305.988      1.0415539    
   2194000   287.21551     -271.55404      55382.089     -20734.559      3213.0743     -17521.485      1.0300705    
   2195000   301.86391      671.30318      55148.723     -20685.375      3376.9455     -17308.43       1.0344294    
   2196000   300.45913     -327.67654      54855.487     -20761.006      3361.2303     -17399.776      1.039959     
   2197000   303.93721     -50.092175      55138.534     -20591.207      3400.1395     -17191.067      1.0346205    
   2198000   301.58587     -427.63446      54920.726     -20679.602      3373.8351     -17305.767      1.0387237    
   2199000   306.18311     -474.09615      55211.162     -20775.732      3425.2644     -17350.467      1.0332595    
   2200000   303.50562      573.28566      54692.521     -20803.9        3395.3113     -17408.588      1.0430577    
   2201000   305.54279     -211.49719      55242.807     -20715.099      3418.1012     -17296.998      1.0326676    
   2202000   296.97644      478.70753      54594.032     -20783.472      3322.2695     -17461.202      1.0449394    
   2203000   304.06612      74.825131      55068.568     -20793.156      3401.5817     -17391.574      1.035935     
   2204000   298.0363       263.6238       54771.99      -20714.74       3334.1261     -17380.614      1.0415444    
   2205000   305.16306     -142.35334      54550.768     -20704.914      3413.8531     -17291.061      1.0457682    
   2206000   302.49057     -59.294743      55337.832     -20773.826      3383.956      -17389.87       1.0308943    
   2207000   304.16361      20.766657      54688.682     -20783.368      3402.6723     -17380.695      1.043131     
   2208000   300.14988     -460.85647      55007.007     -20783.652      3357.7707     -17425.882      1.0370944    
   2209000   296.87918      332.25002      55178.938     -20648.431      3321.1815     -17327.25       1.0338629    
   2210000   301.34165      158.84765      54752.462     -20685.389      3371.1031     -17314.286      1.0419159    
   2211000   297.51528     -109.93049      54664.218     -20661.557      3328.2976     -17333.26       1.0435978    
   2212000   300.75518     -53.114793      54612.031     -20796.023      3364.5422     -17431.48       1.0445951    
   2213000   296.8005      -584.08385      54563.191     -20729.805      3320.3013     -17409.503      1.0455301    
   2214000   305.76175      248.47758      54218.892     -20842.498      3420.5506     -17421.947      1.0521694    
   2215000   300.68241     -464.29929      54039.099     -20801.819      3363.7281     -17438.091      1.05567      
   2216000   302.00914      309.13615      54477.156     -20716.932      3378.5702     -17338.362      1.0471813    
   2217000   294.97017      665.6619       54477.158     -20791.61       3299.8254     -17491.785      1.0471812    
   2218000   304.56953     -246.28902      55276.258     -20707.613      3407.2133     -17300.399      1.0320427    
   2219000   294.96511      449.24102      54741.029     -20740.385      3299.7688     -17440.616      1.0421335    
   2220000   301.47311     -233.33519      54525.948     -20625.058      3372.5736     -17252.484      1.0462442    
   2221000   297.69348     -69.085388      54706.129     -20743.732      3330.291      -17413.441      1.0427983    
   2222000   297.27906      614.20837      54519.152     -20787.01       3325.6549     -17461.355      1.0463746    
   2223000   303.09801      342.68196      54555.562     -20785.826      3390.7514     -17395.075      1.0456763    
   2224000   303.73799      224.66772      54525.081     -20732.429      3397.9109     -17334.518      1.0462609    
   2225000   295.55631     -242.97159      54975.507     -20807.444      3306.3826     -17501.061      1.0376886    
   2226000   302.27814      207.56428      54727.338     -20729.139      3381.5795     -17347.56       1.0423942    
   2227000   305.81855      136.41827      55085.39      -20763.141      3421.186      -17341.955      1.0356187    
   2228000   302.20642     -980.05915      54779.021     -20879.541      3380.7772     -17498.764      1.0414107    
   2229000   288.9384      -1000.9662      54339.402     -20804.505      3232.3481     -17572.157      1.049836     
   2230000   299.63698      86.419092      54158.223     -20782.604      3352.0329     -17430.571      1.053348     
   2231000   298.63872      696.53399      54823.815     -20687.509      3340.8654     -17346.644      1.0405598    
   2232000   300.13716     -79.478334      54446.548     -20872.613      3357.6285     -17514.985      1.04777      
   2233000   301.58355     -671.09756      55222.516     -20756.345      3373.8092     -17382.536      1.0330471    
   2234000   302.10002      195.53938      54493.103     -20665.768      3379.5869     -17286.181      1.0468748    
   2235000   305.32357     -242.03889      54939.296     -20558.896      3415.6487     -17143.248      1.0383726    
   2236000   302.47078     -442.28416      54850.783     -20828.355      3383.7346     -17444.62       1.0400482    
   2237000   294.25732      106.7412       55401.659     -20701.846      3291.8508     -17409.995      1.0297067    
   2238000   302.18728      576.55515      54244.863     -20671.15       3380.5631     -17290.587      1.0516656    
   2239000   297.23851     -256.22324      54747.644     -20778.387      3325.2013     -17453.185      1.0420075    
   2240000   287.51626     -84.961692      54873.645     -20685.007      3216.4387     -17468.569      1.0396149    
   2241000   296.97733      527.83394      54873.924     -20851.691      3322.2794     -17529.411      1.0396096    
   2242000   302.96001      801.57675      54540.141     -20913.805      3389.2076     -17524.597      1.0459719    
   2243000   297.45663     -24.126554      54700.62      -20830.062      3327.6414     -17502.421      1.0429033    
   2244000   291.99719      718.23892      54127.465     -20725.752      3266.5668     -17459.185      1.0539466    
   2245000   298.33406     -401.27048      55096.978     -20779.187      3337.4572     -17441.73       1.0354008    
   2246000   309.0066      -364.59071      54844.373     -20718.639      3456.8507     -17261.789      1.0401697    
   2247000   294.34252      441.86711      54815.951     -20822.494      3292.8039     -17529.69       1.0407091    
   2248000   303.94645      115.90905      54791.915     -20823.496      3400.2429     -17423.253      1.0411656    
   2249000   301.97504     -305.35513      54626.114     -20798.926      3378.1887     -17420.737      1.0443257    
   2250000   302.82276      369.801        54781.478     -20766.695      3387.6722     -17379.023      1.041364     
   2251000   304.72588     -417.70032      54950.513     -20807.527      3408.9624     -17398.564      1.0381606    
   2252000   307.26471     -405.93671      54730.894     -20962.066      3437.3642     -17524.701      1.0423264    
   2253000   303.07139     -474.19344      54741.52      -20786.356      3390.4536     -17395.902      1.0421241    
   2254000   304.55847     -557.17885      54837.096     -20880.639      3407.0895     -17473.55       1.0403078    
   2255000   293.08285     -337.60426      55066.934     -20714.373      3278.7121     -17435.661      1.0359658    
   2256000   295.94862     -412.87111      54788.845     -20616.924      3310.7714     -17306.152      1.041224     
   2257000   298.1878      -770.86362      55148.891     -20752.529      3335.821      -17416.708      1.0344262    
   2258000   297.27906     -622.78628      55291.474     -20705.926      3325.655      -17380.271      1.0317587    
   2259000   299.44631     -968.75744      54661.673     -20749.588      3349.8999     -17399.688      1.0436464    
   2260000   297.10589     -409.90723      54591.421     -20875.524      3323.7177     -17551.806      1.0449894    
   2261000   297.75202      345.65272      54812.104     -20854.82       3330.9459     -17523.874      1.0407821    
   2262000   300.40615      1059.4803      54749.018     -20665.231      3360.6376     -17304.593      1.0419814    
   2263000   299.42953     -9.5404825      54972.048     -20816.943      3349.7122     -17467.231      1.0377539    
   2264000   298.23235      706.81423      54792.877     -20745.261      3336.3193     -17408.942      1.0411473    
   2265000   296.72006      62.322651      54756.638     -20696.123      3319.4014     -17376.722      1.0418364    
   2266000   303.47801      495.28204      54504.841     -20758.888      3395.0025     -17363.885      1.0466494    
   2267000   301.91816      768.11224      54108.918     -20698.484      3377.5524     -17320.931      1.0543079    
   2268000   301.40317     -372.87686      55050.004     -20621.065      3371.7913     -17249.274      1.0362843    
   2269000   301.16968      509.3622       53971.356     -20751.749      3369.1792     -17382.57       1.0569951    
   2270000   294.94816      121.34851      55118.857     -20707.594      3299.5792     -17408.015      1.0349898    
   2271000   301.21902      238.61799      54871.871     -20730.389      3369.7312     -17360.658      1.0396485    
   2272000   298.97584     -1076.4958      55524.229     -20805.849      3344.6368     -17461.213      1.0274336    
   2273000   310.45618      136.06577      54714.462     -20785.166      3473.0671     -17312.099      1.0426395    
   2274000   300.30327      96.032901      54260.861     -20655.778      3359.4867     -17296.292      1.0513556    
   2275000   296.64116     -593.15058      54917.439     -20823.388      3318.5187     -17504.87       1.0387858    
   2276000   294.17505      72.824981      54308.098     -20723.905      3290.9305     -17432.974      1.0504411    
   2277000   293.66025     -1222.9921      55013.644     -20762.213      3285.1714     -17477.042      1.0369693    
   2278000   304.10817      481.8514       54624.857     -20682.117      3402.052      -17280.065      1.0443498    
   2279000   299.29802      56.557546      54670.905     -20676.048      3348.241      -17327.807      1.0434702    
   2280000   296.13219     -710.17559      54477.697     -20767.249      3312.8249     -17454.424      1.0471709    
   2281000   299.99288     -924.62497      55173.803     -20889.543      3356.0144     -17533.529      1.0339591    
   2282000   302.00686      322.99864      55075.802     -20831.627      3378.5447     -17453.082      1.0357989    
   2283000   303.48717      125.76453      54942.512     -20822.934      3395.105      -17427.829      1.0383118    
   2284000   295.37659      686.20563      54967.851     -20891.124      3304.372      -17586.752      1.0378332    
   2285000   295.10855      57.619807      55278.582     -20818.341      3301.3735     -17516.968      1.0319993    
   2286000   304.19998     -239.9494       55071.738     -20779.812      3403.0791     -17376.733      1.0358754    
   2287000   294.20149      580.82226      54669.072     -20785.205      3291.2262     -17493.978      1.0435051    
   2288000   306.47336     -79.615243      54387.354     -20749.164      3428.5114     -17320.653      1.0489103    
   2289000   301.88132      104.15747      54113.729     -20757.218      3377.1404     -17380.078      1.0542141    
   2290000   298.8665       221.67735      54860.856     -20843.866      3343.4136     -17500.453      1.0398572    
   2291000   289.4612      -317.44958      54582.632     -20697.638      3238.1967     -17459.441      1.0451577    
   2292000   298.88382     -596.03759      55039.428     -20683.509      3343.6074     -17339.902      1.0364835    
   2293000   299.76824     -272.40526      54628.527     -20740.675      3353.5013     -17387.174      1.0442796    
   2294000   304.85007      106.3641       54840.472     -20804.076      3410.3516     -17393.725      1.0402437    
   2295000   297.96847     -327.94387      54705.847     -20721.654      3333.3673     -17388.287      1.0428037    
   2296000   297.7404      -191.44313      54791.512     -20667.988      3330.816      -17337.172      1.0411733    
   2297000   296.11354     -1172.6862      55042.046     -20743.161      3312.6163     -17430.544      1.0364342    
   2298000   293.21441     -127.91374      54820.608     -20777.888      3280.1838     -17497.704      1.0406207    
   2299000   300.78193      458.59503      54568.478     -20702.536      3364.8414     -17337.694      1.0454288    
   2300000   299.23983     -2.44117        55057.277     -20653.773      3347.59       -17306.183      1.0361475    
   2301000   301.05308      53.111988      55160.806     -20753.081      3367.8749     -17385.206      1.0342028    
   2302000   302.2168      -806.70682      54575.934     -20829.661      3380.8933     -17448.768      1.045286     
   2303000   296.4916       531.26368      54862.074     -20814.717      3316.8456     -17497.871      1.0398341    
   2304000   301.84783     -366.28688      54556.974     -20839.988      3376.7656     -17463.223      1.0456492    
   2305000   302.70156     -534.38556      54937.098     -20784.359      3386.3163     -17398.043      1.0384141    
   2306000   297.90595      455.89637      55060.998     -20685.507      3332.6679     -17352.839      1.0360774    
   2307000   299.31326     -576.88007      54806.15      -20707.525      3348.4115     -17359.113      1.0408952    
   2308000   295.77448      164.15238      55166.964     -20698.334      3308.8232     -17389.511      1.0340873    
   2309000   304.9128      -391.02023      54974.904     -20718.521      3411.0535     -17307.468      1.0377       
   2310000   293.89429     -287.56914      55191.948     -20701.612      3287.7896     -17413.822      1.0336192    
   2311000   305.89557     -88.692047      54981.499     -20680.299      3422.0477     -17258.251      1.0375755    
   2312000   303.15838     -1020.7831      55067.618     -20836.763      3391.4267     -17445.337      1.0359529    
   2313000   297.45858      987.58182      54706.03      -20785.769      3327.6632     -17458.106      1.0428002    
   2314000   305.55567     -378.42474      54898.504     -20855.056      3418.2452     -17436.81       1.0391441    
   2315000   304.13067      232.59823      54791.867     -20697.183      3402.3037     -17294.879      1.0411665    
   2316000   302.26473      498.61878      54439.771     -20674.539      3381.4295     -17293.109      1.0479004    
   2317000   298.95994      296.10312      54649.211     -20696.497      3344.4589     -17352.038      1.0438844    
   2318000   299.36222     -360.30182      54594.448     -20882.645      3348.9592     -17533.686      1.0449315    
   2319000   298.0967       605.75513      54236.699     -20805.248      3334.8019     -17470.446      1.0518239    
   2320000   297.53466      392.03863      54587.164     -20670.501      3328.5143     -17341.987      1.0450709    
   2321000   307.23579      336.59909      54785.489     -20744.225      3437.0407     -17307.184      1.0412877    
   2322000   306.24923      455.059        54353.672     -20929.768      3426.004      -17503.764      1.0495603    
   2323000   300.26834     -322.58944      54682.087     -20762.247      3359.0959     -17403.151      1.0432568    
   2324000   307.40285      20.230967      54052.176     -20736.939      3438.9096     -17298.03       1.0554146    
   2325000   307.526       -143.96439      54101.392     -20788.941      3440.2873     -17348.654      1.0544545    
   2326000   296.9079      -523.83801      54938.966     -20706.434      3321.5028     -17384.931      1.0383788    
   2327000   306.88759      158.9203       54787.357     -20871.651      3433.1453     -17438.506      1.0412522    
   2328000   309.75258     -178.90469      55062.095     -20805.199      3465.1959     -17340.003      1.0360568    
   2329000   294.12445     -842.92948      55273.056     -20766.666      3290.3644     -17476.301      1.0321025    
   2330000   293.31683      566.5531       54888.128     -20722.359      3281.3295     -17441.029      1.0393406    
   2331000   302.61984     -130.56682      54749.46      -20786.719      3385.4022     -17401.317      1.041973     
   2332000   300.38035     -302.03646      54691.995     -20770.265      3360.349      -17409.916      1.0430678    
   2333000   294.12678      631.97636      55077.027     -20837.036      3290.3904     -17546.646      1.0357759    
   2334000   303.9378      -489.01532      54831.551     -20665.945      3400.1461     -17265.799      1.040413     
   2335000   301.39571      683.64638      54414.321     -20775.122      3371.7078     -17403.414      1.0483905    
   2336000   296.25589     -85.079458      54752.916     -20793.116      3314.2087     -17478.908      1.0419072    
   2337000   296.29768      18.157061      54569.554     -20804.557      3314.6762     -17489.881      1.0454082    
   2338000   289.25239      397.80838      53745.563     -20826.512      3235.8607     -17590.652      1.0614357    
   2339000   298.40895     -56.899776      54808.456     -20724.517      3338.295      -17386.222      1.0408514    
   2340000   304.87463      519.42925      54334.628     -20710.74       3410.6264     -17300.113      1.0499282    
   2341000   297.59834      66.311713      54946.663     -20856.442      3329.2267     -17527.215      1.0382333    
   2342000   302.18366     -557.0469       54745.661     -20783.93       3380.5226     -17403.407      1.0420453    
   2343000   305.09896     -29.083334      54690.408     -20798.269      3413.136      -17385.133      1.043098     
   2344000   295.82747     -522.11623      54647.822     -20811.259      3309.416      -17501.843      1.0439109    
   2345000   297.90309     -50.108386      54555.325     -20737.446      3332.636      -17404.81       1.0456808    
   2346000   305.41839      210.58801      53857.868     -20882.791      3416.7095     -17466.081      1.0592224    
   2347000   305.80501     -130.44108      54462.898     -20697.121      3421.0345     -17276.087      1.0474554    
   2348000   301.19737     -253.72185      54413.715     -20703.984      3369.489      -17334.495      1.0484022    
   2349000   298.69898     -355.21104      54776.893     -20593.305      3341.5396     -17251.765      1.0414511    
   2350000   302.4312      -181.39676      54258.617     -20624.192      3383.2919     -17240.9        1.051399     
   2351000   305.47632     -787.51715      54440.851     -20747.156      3417.3575     -17329.799      1.0478796    
   2352000   298.17256     -542.70788      54533.818     -20831.973      3335.6504     -17496.323      1.0460932    
   2353000   299.97943     -250.88009      55006.543     -20697.293      3355.8639     -17341.429      1.0371031    
   2354000   303.47473      239.83619      54616.885     -20865.49       3394.9657     -17470.524      1.0445022    
   2355000   303.79845      381.27914      54919.321     -20794.852      3398.5872     -17396.264      1.0387502    
   2356000   296.93809     -116.57889      54803.748     -20627.225      3321.8405     -17305.385      1.0409408    
   2357000   301.8903       602.68046      54173.085     -20786.681      3377.2407     -17409.44       1.053059     
   2358000   302.69968      23.855486      54625.477     -20751.72       3386.2953     -17365.425      1.0443379    
   2359000   304.28706      1027.9012      54552.122     -20964.976      3404.0533     -17560.923      1.0457422    
   2360000   308.86184      722.10782      54940.742     -20879.072      3455.2313     -17423.84       1.0383452    
   2361000   292.7584      -733.21629      55412.426     -20906.03       3275.0824     -17630.948      1.0295066    
   2362000   294.04433     -726.44528      54893.193     -20831.539      3289.4681     -17542.071      1.0392447    
   2363000   306.26351     -721.6469       55237.121     -20696.736      3426.1638     -17270.573      1.0327739    
   2364000   303.89627     -217.48927      54554.994     -20748.284      3399.6815     -17348.602      1.0456872    
   2365000   304.92255      213.5369       54956.414     -20694.81       3411.1625     -17283.648      1.0380491    
   2366000   300.00396     -195.013        54874.999     -20670.909      3356.1383     -17314.77       1.0395892    
   2367000   303.88914     -455.3373       54513.792     -20793.497      3399.6018     -17393.895      1.0464775    
   2368000   296.61123     -124.71798      55022.96      -20698.241      3318.1839     -17380.057      1.0367937    
   2369000   305.53237      226.57183      54374.236     -20785.307      3417.9845     -17367.323      1.0491634    
   2370000   297.95112     -599.85866      54503.79      -20755.9        3333.1733     -17422.727      1.0466696    
   2371000   300.22609      185.49796      54373.738     -20770.645      3358.6233     -17412.021      1.049173     
   2372000   299.54955     -122.44092      54376.3       -20869.904      3351.0549     -17518.849      1.0491236    
   2373000   304.87948      469.36466      54610.391     -20700.371      3410.6806     -17289.69       1.0446264    
   2374000   298.62188      597.1876       54489.001     -20684.327      3340.677      -17343.65       1.0469536    
   2375000   303.23661     -180.73375      54178.879     -20871.992      3392.302      -17479.69       1.0529464    
   2376000   299.40972     -398.03423      54610.88      -20795.813      3349.4906     -17446.322      1.0446171    
   2377000   303.03309     -12.73036       54307.484     -20718.632      3390.0252     -17328.607      1.050453     
   2378000   301.60499      566.96429      54550.22      -20742.429      3374.049      -17368.38       1.0457787    
   2379000   304.51635     -653.17773      54232.042     -20706.812      3406.6183     -17300.193      1.0519143    
   2380000   301.27637      145.33143      54421.255     -20709.742      3370.3727     -17339.369      1.0482569    
   2381000   304.34072     -1040.7057      54696.538     -20703.628      3404.6536     -17298.974      1.0429811    
   2382000   299.54387      276.27465      54963.844     -20669.814      3350.9913     -17318.822      1.0379088    
   2383000   298.05008      152.30643      55405.014     -20803.628      3334.2803     -17469.348      1.0296443    
   2384000   302.89849     -128.58725      54908.11      -20833.404      3388.5194     -17444.885      1.0389623    
   2385000   296.40934     -168.6871       55157.79      -20812.161      3315.9254     -17496.236      1.0342593    
   2386000   293.3529      -610.44382      55091.676     -20790.623      3281.7331     -17508.89       1.0355005    
   2387000   307.00256     -269.13603      54942.743     -20827.838      3434.4315     -17393.406      1.0383074    
   2388000   296.80523      484.03106      54573.993     -20687.449      3320.3542     -17367.095      1.0453231    
   2389000   297.87405      265.75571      54131.304     -20790.126      3332.311      -17457.815      1.0538719    
   2390000   301.76377      58.108678      54796.574     -20780.615      3375.8253     -17404.789      1.0410771    
   2391000   299.56327     -411.13887      54759.918     -20765.078      3351.2083     -17413.87       1.041774     
   2392000   304.59599      560.53614      54857.08      -20542.458      3407.5093     -17134.949      1.0399288    
   2393000   296.59184      617.20119      54748.133     -20774.86       3317.9671     -17456.893      1.0419982    
   2394000   299.06529     -564.59574      54896.268     -20913.163      3345.6374     -17567.525      1.0391865    
   2395000   301.84614      125.57997      54995.919     -20924.696      3376.7468     -17547.949      1.0373035    
   2396000   298.99704     -68.319061      55107.074     -20621.814      3344.8739     -17276.94       1.0352112    
   2397000   301.18456      48.696322      54025.571     -20804.908      3369.3457     -17435.562      1.0559344    
   2398000   297.00575     -647.77762      54580.433     -20741.727      3322.5974     -17419.13       1.0451998    
   2399000   301.48757     -298.13242      55105.762     -20667.008      3372.7355     -17294.273      1.0352358    
   2400000   309.61388     -72.783077      54733.822     -20730.773      3463.6444     -17267.128      1.0422707    
   2401000   309.3594       1037.8056      54682.536     -20850.972      3460.7975     -17390.175      1.0432482    
   2402000   302.7895       129.59932      54671.641     -20691.251      3387.3001     -17303.951      1.0434561    
   2403000   298.8589       397.75376      54231.215     -20674.035      3343.3285     -17330.707      1.0519303    
   2404000   303.597        479.2544       54270.205     -20737.927      3396.3336     -17341.594      1.0511745    
   2405000   303.98002     -60.288677      54299.212     -20709.825      3400.6185     -17309.207      1.050613     
   2406000   303.90233     -779.75733      54994.136     -20682.695      3399.7493     -17282.946      1.0373371    
   2407000   306.95026      570.37576      54615.542     -20841.217      3433.8465     -17407.37       1.0445279    
   2408000   304.87214      55.430026      55173.346     -20796.844      3410.5986     -17386.246      1.0339677    
   2409000   300.41118      15.645229      54697.096     -20850.325      3360.6939     -17489.632      1.0429705    
   2410000   295.60039     -456.11161      55082.738     -20812.266      3306.8757     -17505.39       1.0356685    
   2411000   291.47239      337.52557      54866.262     -20697.699      3260.6959     -17437.004      1.0397548    
   2412000   300.74601     -281.83439      55137.286     -20775.354      3364.4396     -17410.914      1.0346439    
   2413000   300.40554      824.29395      54459.139     -20770.226      3360.6308     -17409.595      1.0475277    
   2414000   298.25965     -200.41345      54768.853     -20768.242      3336.6248     -17431.617      1.041604     
   2415000   296.45575     -163.83431      55053.98      -20692.1        3316.4446     -17375.655      1.0362095    
   2416000   302.21525     -535.23849      54847.426     -20711.866      3380.8759     -17330.99       1.0401119    
   2417000   297.41934      470.93805      54505.218     -20859.512      3327.2242     -17532.288      1.0466421    
   2418000   303.03393     -487.54158      54317.506     -20917.41       3390.0345     -17527.375      1.0502592    
   2419000   294.71617     -953.97078      55046.628     -20728.176      3296.9839     -17431.192      1.0363479    
   2420000   303.91902      289.40297      54219.56      -20836.713      3399.936      -17436.777      1.0521564    
   2421000   299.30509      755.51509      54350.545     -20864.912      3348.3201     -17516.592      1.0496207    
   2422000   293.76085      475.53893      54690.086     -20733.771      3286.2968     -17447.475      1.0431042    
   2423000   297.61302      351.69778      54457.616     -20720.909      3329.391      -17391.518      1.047557     
   2424000   302.42701     -451.63776      54698.882     -20782.398      3383.245      -17399.153      1.0429365    
   2425000   298.92625      105.99597      55324.084     -20732.325      3344.082      -17388.243      1.0311505    
   2426000   302.32985      475.63754      55058.641     -20597.266      3382.1581     -17215.108      1.0361218    
   2427000   297.41852     -390.9839       54555.163     -20871.866      3327.2151     -17544.65       1.0456839    
   2428000   303.11694      36.058584      55265.754     -20693.798      3390.9631     -17302.835      1.0322388    
   2429000   299.8716       1219.503       55120.684     -20784.039      3354.6576     -17429.381      1.0349555    
   2430000   298.65151      16.675073      54653.413     -20821.61       3341.0085     -17480.602      1.0438041    
   2431000   295.28485     -417.79914      54669.884     -20760.841      3303.3457     -17457.495      1.0434896    
   2432000   298.38126     -346.19823      55162.357     -20715.804      3337.9853     -17377.819      1.0341737    
   2433000   298.65407      357.86227      54672.74      -20740.085      3341.0371     -17399.048      1.0434351    
   2434000   294.44624      188.07723      55159.772     -20729.25       3293.9642     -17435.285      1.0342221    
   2435000   297.0014       717.39445      54895.449     -20743.419      3322.5488     -17420.871      1.039202     
   2436000   302.45652     -657.96009      54541.426     -20674.668      3383.5751     -17291.093      1.0459473    
   2437000   298.51883     -573.69375      54763.595     -20693.277      3339.5242     -17353.753      1.041704     
   2438000   303.02345      268.5723       54828.354     -20795.788      3389.9173     -17405.87       1.0404737    
   2439000   301.06155     -789.68616      55079.782     -20817.764      3367.9696     -17449.795      1.0357241    
   2440000   297.59721     -196.92671      54567.556     -20712.643      3329.2141     -17383.429      1.0454464    
   2441000   304.48959     -750.35014      54955.212     -20658.491      3406.3189     -17252.172      1.0380718    
   2442000   295.70503     -40.691399      54526.934     -20778.671      3308.0463     -17470.624      1.0462253    
   2443000   300.63802     -0.67058362     55287.471     -20739.258      3363.2315     -17376.027      1.0318334    
   2444000   295.75826      366.95574      54466.208     -20929.408      3308.6417     -17620.766      1.0473918    
   2445000   298.38462      91.410435      54472.354     -20760.187      3338.0228     -17422.164      1.0472736    
   2446000   301.24997      144.97743      54631.389     -20660.13       3370.0774     -17290.052      1.0442249    
   2447000   305.41786     -450.2268       54898.566     -20788.318      3416.7035     -17371.615      1.039143     
   2448000   294.86814     -272.23034      54741.845     -20626.056      3298.684      -17327.372      1.0421179    
   2449000   305.17933     -336.19621      54667.83      -20865.732      3414.0352     -17451.697      1.0435288    
   2450000   303.53407     -822.44831      54941.261     -20631.064      3395.6296     -17235.435      1.0383354    
   2451000   297.68893      545.80365      54873.508     -20687.164      3330.2401     -17356.924      1.0396175    
   2452000   298.59734      661.04745      54604.837     -20844.679      3340.4026     -17504.276      1.0447327    
   2453000   293.48205     -324.47314      54378.012     -20742.508      3283.1778     -17459.33       1.0490905    
   2454000   297.10835      656.40205      55083.599     -20650.767      3323.7452     -17327.022      1.0356523    
   2455000   305.24172      567.01693      55256.236     -20785.084      3414.7331     -17370.351      1.0324166    
   2456000   302.44128     -633.67916      55264.214     -20626.431      3383.4046     -17243.027      1.0322676    
   2457000   301.44364     -117.73977      54796.843     -20713.467      3372.244      -17341.223      1.041072     
   2458000   295.73087      373.30555      54363.815     -20902.54       3308.3353     -17594.205      1.0493645    
   2459000   299.83586     -301.50162      54762.311     -20888.691      3354.2578     -17534.433      1.0417285    
   2460000   297.7727       643.9096       54095.756     -20748.075      3331.1773     -17416.898      1.0545644    
   2461000   306.66005     -91.338879      54624.19      -20658.489      3430.5999     -17227.889      1.0443625    
   2462000   297.49796     -468.40044      54536.884     -20744.033      3328.1037     -17415.929      1.0460344    
   2463000   296.01901     -155.26825      54496.201     -20624.584      3311.5588     -17313.025      1.0468153    
   2464000   298.71828     -77.734297      54873.939     -20689.251      3341.7555     -17347.495      1.0396093    
   2465000   297.87558      118.18095      54751.901     -20739.554      3332.3282     -17407.226      1.0419265    
   2466000   303.34126      112.19096      54284.873     -20878.729      3393.4726     -17485.257      1.0508905    
   2467000   300.78072      202.96173      54755.487     -20768.993      3364.8279     -17404.166      1.0418583    
   2468000   304.4574      -244.93155      54574.546     -20723.918      3405.9589     -17317.96       1.0453126    
   2469000   306.11989      78.014724      55002.551     -20762.64       3424.5572     -17338.082      1.0371784    
   2470000   300.19017      948.37584      54424.223     -20826.422      3358.2215     -17468.201      1.0481998    
   2471000   302.18853      491.97631      55162.556     -20642.935      3380.577      -17262.358      1.0341699    
   2472000   299.88759      2.7579316      54387.057     -20797.096      3354.8365     -17442.26       1.0489161    
   2473000   295.30075      513.78186      54711.767     -20708.956      3303.5236     -17405.432      1.0426908    
   2474000   297.76647     -59.370215      54186.237     -20721.679      3331.1076     -17390.572      1.0528035    
   2475000   296.91303     -98.646399      54138.545     -20814.699      3321.5602     -17493.139      1.0537309    
   2476000   308.45904     -473.66896      54594.539     -20786.565      3450.7251     -17335.84       1.0449297    
   2477000   304.68888      347.41367      54139.886     -20839.12       3408.5485     -17430.571      1.0537048    
   2478000   296.04364     -134.79029      54606.022     -20741.352      3311.8343     -17429.518      1.04471      
   2479000   303.02538      235.6422       54426.088     -20691.712      3389.9389     -17301.773      1.0481639    
   2480000   303.83876      109.16258      54836.934     -20805.231      3399.0382     -17406.193      1.0403109    
   2481000   299.85338      109.81228      54641.508     -20807.706      3354.4538     -17453.252      1.0440315    
   2482000   304.77287      166.14785      54862.151     -20684.924      3409.488      -17275.436      1.0398327    
   2483000   300.25118      96.11431       54781.014     -20758.157      3358.9039     -17399.253      1.0413728    
   2484000   298.66267      308.75144      54801.936     -20776.056      3341.1334     -17434.922      1.0409752    
   2485000   296.37626      765.57379      54597.604     -20738.04       3315.5553     -17422.485      1.0448711    
   2486000   300.40656     -111.05693      54955.02      -20656.061      3360.6423     -17295.418      1.0380755    
   2487000   306.18664     -51.959003      54440.649     -20716.248      3425.3039     -17290.944      1.0478835    
   2488000   304.89196      91.743974      54303.509     -20822.276      3410.8203     -17411.456      1.0505299    
   2489000   303.59289     -162.17561      54877.669     -20695.058      3396.2876     -17298.77       1.0395386    
   2490000   303.14124      626.07972      54240.923     -20843.753      3391.2351     -17452.518      1.051742     
   2491000   300.75678      35.853312      54022.678     -20835.855      3364.5601     -17471.295      1.0559909    
   2492000   293.58415     -380.20499      54995.903     -20725.814      3284.32       -17441.494      1.0373038    
   2493000   298.67302      353.05574      54267.987     -20834.152      3341.2491     -17492.903      1.0512175    
   2494000   297.52023      769.51195      54838.012     -20608.242      3328.3529     -17279.889      1.0402904    
   2495000   301.65892     -592.05763      55069.65      -20649.111      3374.6523     -17274.459      1.0359147    
   2496000   296.31989      233.71289      54929.447     -20780.945      3314.9248     -17466.02       1.0385587    
   2497000   310.93484      498.88893      55047.477     -20687.131      3478.4219     -17208.709      1.0363319    
   2498000   300.16628     -11.253354      54449.575     -20895.349      3357.9542     -17537.395      1.0477117    
   2499000   296.8693      -492.2131       54874.524     -20782.557      3321.071      -17461.486      1.0395982    
   2500000   304.12055     -550.17486      55079.313     -20741.356      3402.1906     -17339.165      1.0357329    
   2501000   302.02435     -316.80903      54693.609     -20850.072      3378.7405     -17471.331      1.043037     
   2502000   297.06472     -741.03798      54964.213     -20653.138      3323.2572     -17329.881      1.0379018    
   2503000   298.76482      364.12258      54878.359     -20733.025      3342.2761     -17390.749      1.0395256    
   2504000   300.12919      385.00315      54492.547     -20746.856      3357.5393     -17389.317      1.0468855    
   2505000   295.32666     -267.10936      55217.456     -20847.733      3303.8135     -17543.92       1.0331417    
   2506000   299.92506     -5.4666182      55446.301     -20756.533      3355.2556     -17401.278      1.0288776    
   2507000   308.47998      410.73078      55234.37      -20784.167      3450.9594     -17333.207      1.0328254    
   2508000   304.20308     -698.64673      54854.559     -20798.689      3403.1138     -17395.575      1.0399766    
   2509000   302.15636      820.86435      54553.661     -20805.545      3380.2172     -17425.327      1.0457127    
   2510000   303.51697      5.0730972      55248.967     -20751.561      3395.4383     -17356.123      1.0325525    
   2511000   296.40932      960.35384      54910.94      -20693.565      3315.9251     -17377.639      1.0389088    
   2512000   298.06653     -263.88467      54996.076     -20760.955      3334.4643     -17426.491      1.0373005    
   2513000   295.96196     -3.3119499      54440.537     -20677.097      3310.9206     -17366.176      1.0478857    
   2514000   300.79945     -440.22098      54725.076     -20788.33       3365.0374     -17423.293      1.0424372    
   2515000   299.79212      105.08789      54982.45      -20694.746      3353.7684     -17340.977      1.0375576    
   2516000   294.48863      156.26925      54593.705     -20823.21       3294.4384     -17528.771      1.0449457    
   2517000   298.58255     -171.15558      54698.497     -20795.641      3340.2371     -17455.404      1.0429438    
   2518000   302.72101      353.0348       54537.724     -20882.925      3386.5339     -17496.391      1.0460183    
   2519000   295.17685      499.24132      54651.001     -20698.805      3302.1376     -17396.668      1.0438502    
   2520000   304.56493      154.93516      54329.134     -20860.384      3407.1618     -17453.222      1.0500344    
   2521000   307.68859     -1156.5609      54810.847     -20676.923      3442.1061     -17234.817      1.040806     
   2522000   302.99259     -90.978219      54700.893     -20703.767      3389.5721     -17314.194      1.0428981    
   2523000   298.82927      551.45059      54248.027     -20746.292      3342.9971     -17403.295      1.0516043    
   2524000   313.50807     -155.01805      54619.423     -20724.807      3507.2085     -17217.598      1.0444537    
   2525000   292.64261      59.037728      54887.202     -20939.332      3273.787      -17665.545      1.0393581    
   2526000   294.17187     -348.53447      55569.72      -20793.048      3290.8948     -17502.153      1.0265925    
   2527000   307.62403     -941.29665      54681.487     -20735.213      3441.3839     -17293.83       1.0432682    
   2528000   301.91         215.14449      54496.809     -20822.875      3377.4611     -17445.414      1.0468036    
   2529000   297.88868     -131.10085      54155.377     -20706.091      3332.4747     -17373.616      1.0534034    
   2530000   301.64358      512.75161      54227.287     -20769.657      3374.4808     -17395.176      1.0520065    
   2531000   296.31317      791.70825      54532.866     -20824.093      3314.8496     -17509.243      1.0461115    
   2532000   298.87254     -572.6497       54473.661     -20668.305      3343.4811     -17324.824      1.0472485    
   2533000   299.93892     -1004.4149      54925.345     -20869.981      3355.4107     -17514.571      1.0386363    
   2534000   302.38269      723.36877      54823.781     -20744.915      3382.7491     -17362.166      1.0405604    
   2535000   297.78447      367.63713      55137.52      -20756.826      3331.309      -17425.517      1.0346395    
   2536000   303.47378      35.309805      54836.74      -20674.193      3394.9551     -17279.237      1.0403145    
   2537000   296.32837      354.75393      54592.169     -20772.423      3315.0196     -17457.403      1.0449751    
   2538000   301.28431     -426.71217      54797.733     -20752.017      3370.4616     -17381.555      1.0410551    
   2539000   296.53154     -455.12086      54506.396     -20744.358      3317.2924     -17427.066      1.0466195    
   2540000   292.81102      86.852344      55012.623     -20703.21       3275.671      -17427.539      1.0369885    
   2541000   302.16582     -458.02451      54605.056     -20814.234      3380.323      -17433.911      1.0447285    
   2542000   298.72058      172.73703      54631.606     -20845.029      3341.7812     -17503.248      1.0442208    
   2543000   301.54445     -337.4061       55322.817     -20719.665      3373.3717     -17346.293      1.0311741    
   2544000   297.13542     -154.21172      54487.534     -20779.257      3324.048      -17455.209      1.0469818    
   2545000   306.83695     -579.61314      54447.408     -20870.248      3432.5789     -17437.67       1.0477534    
   2546000   290.97004     -577.7276       55077.458     -20784.222      3255.0761     -17529.145      1.0357678    
   2547000   297.44259     -297.54218      54348.979     -20834.493      3327.4844     -17507.009      1.049651     
   2548000   297.58925     -254.28468      54543.62      -20778.052      3329.125      -17448.927      1.0459052    
   2549000   303.08479     -482.27876      55214.243     -20863.562      3390.6035     -17472.959      1.0332018    
   2550000   299.15686     -464.07295      54211.122     -20780.363      3346.6618     -17433.701      1.0523202    
   2551000   304.95292      423.54153      54621.577     -20812.733      3411.5023     -17401.23       1.0444125    
   2552000   301.03471      947.0585       54755.162     -20718.343      3367.6693     -17350.674      1.0418645    
   2553000   301.9884       779.62254      54286.921     -20788.821      3378.3382     -17410.483      1.0508509    
   2554000   303.32913      680.495        54770.579     -20634.332      3393.337      -17240.995      1.0415712    
   2555000   299.61178      460.53069      54397.953     -20718.437      3351.751      -17366.686      1.048706     
   2556000   302.28643     -440.31294      54608.54      -20759.482      3381.6723     -17377.809      1.0446618    
   2557000   293.47004     -113.82809      54367.654     -20781.133      3283.0435     -17498.09       1.0492904    
   2558000   301.46564     -487.32222      54828.079     -20811.176      3372.4901     -17438.685      1.0404789    
   2559000   301.82388      129.47223      54927.694     -20907.287      3376.4978     -17530.79       1.0385919    
   2560000   294.46507     -252.79567      54950.743     -20781.38       3294.1748     -17487.205      1.0381562    
   2561000   301.30933     -474.0731       54396.344     -20847.864      3370.7415     -17477.122      1.048737     
   2562000   293.05482      143.07982      54508.077     -20742.001      3278.3984     -17463.603      1.0465872    
   2563000   298.50438      222.7013       54132.085     -20789.987      3339.3625     -17450.625      1.0538566    
   2564000   302.251        820.90725      54327.597     -20729.561      3381.2759     -17348.286      1.0500641    
   2565000   303.1417       549.42742      54719.083     -20709.531      3391.2402     -17318.291      1.0425514    
   2566000   294.34372      827.03986      54561.155     -20665.336      3292.8174     -17372.519      1.0455691    
   2567000   295.45289     -431.81134      54911.606     -20699.755      3305.2256     -17394.53       1.0388962    
   2568000   295.7722       156.59004      54786.007     -20755.789      3308.7977     -17446.991      1.0412779    
   2569000   300.30141     -586.42225      54882.172     -20759.768      3359.4659     -17400.302      1.0394533    
   2570000   299.21747      489.47135      54406.792     -20804.416      3347.3399     -17457.077      1.0485356    
   2571000   300.6809      -125.06934      55087.141     -20826.892      3363.7112     -17463.181      1.0355857    
   2572000   302.33636      83.425749      54576.213     -20722.861      3382.2309     -17340.63       1.0452806    
   2573000   297.64696     -108.06455      54426.512     -20723.07       3329.7706     -17393.3        1.0481557    
   2574000   296.94568     -199.29975      54684.022     -20820.953      3321.9254     -17499.027      1.0432199    
   2575000   300.37665     -295.95321      54653.065     -20775.622      3360.3076     -17415.315      1.0438108    
   2576000   300.21258     -576.50841      54789.183     -20656.477      3358.4722     -17298.005      1.0412175    
   2577000   303.86945      322.36036      54189.414     -20905.255      3399.3815     -17505.873      1.0527417    
   2578000   303.87758      45.438262      54495.512     -20705.207      3399.4725     -17305.734      1.0468286    
   2579000   305.62042     -274.75965      54609.365     -20865.021      3418.9696     -17446.052      1.0446461    
   2580000   288.5639      -125.59124      54825.951     -20791.766      3228.1586     -17563.607      1.0405192    
   2581000   302.69911     -881.98164      54441.305     -20727.361      3386.2889     -17341.072      1.0478709    
   2582000   296.82368      527.87717      54528.901     -20831.051      3320.5606     -17510.49       1.0461876    
   2583000   308.30305      33.96239       54943.891     -20703.15       3448.9801     -17254.17       1.0382857    
   2584000   297.52239      200.51092      54902.704     -20756.621      3328.377      -17428.244      1.0390646    
   2585000   296.51136      640.03199      54410.556     -20785.33       3317.0667     -17468.263      1.048463     
   2586000   299.2082       176.84351      54815.53      -20729.179      3347.2362     -17381.943      1.0407171    
   2587000   304.28554     -1142.4792      55130.103     -20765.286      3404.0363     -17361.249      1.0347787    
   2588000   294.9597       531.1307       54343.046     -20861.217      3299.7083     -17561.509      1.0497656    
   2589000   301.23035     -231.4439       55248.725     -20654.976      3369.858      -17285.118      1.032557     
   2590000   302.21464     -874.5128       55256.698     -20770.089      3380.8692     -17389.219      1.032408     
   2591000   304.17359     -113.59248      55458.216     -20803.369      3402.7839     -17400.585      1.0286566    
   2592000   299.70708     -525.21221      55019.221     -20801.593      3352.8171     -17448.776      1.0368642    
   2593000   304.79535      218.12291      54361.137     -20738.453      3409.7395     -17328.714      1.0494162    
   2594000   295.90887      241.92387      54492.908     -20732.096      3310.3267     -17421.769      1.0468786    
   2595000   292.82466     -21.582401      54909.393     -20857.295      3275.8237     -17581.472      1.0389381    
   2596000   306.781       -511.37362      54956.982     -20843.987      3431.953      -17412.034      1.0380384    
   2597000   304.49552      57.86523       54409.061     -20845.763      3406.3853     -17439.378      1.0484919    
   2598000   302.42385     -597.67416      54548.667     -20675.162      3383.2096     -17291.953      1.0458085    
   2599000   301.45865     -12.319771      54605.241     -20701.669      3372.4119     -17329.257      1.0447249    
   2600000   296.53181      822.34513      53983.343     -20697.486      3317.2955     -17380.191      1.0567604    
   2600010   300.24989     -501.41123      53980.936     -20748.244      3358.8896     -17389.354      1.0568075    
Loop time of 79397.8 on 10 procs for 2000000 steps with 5541 atoms

Performance: 4.353 ns/day, 5.514 hours/ns, 25.190 timesteps/s, 139.576 katom-step/s
658.1% CPU use with 1 MPI tasks x 10 OpenMP threads

MPI task timing breakdown:
Section |  min time  |  avg time  |  max time  |%varavg| %total
---------------------------------------------------------------
Pair    | 1995.9     | 1995.9     | 1995.9     |   0.0 |  2.51
Bond    | 25.253     | 25.253     | 25.253     |   0.0 |  0.03
Kspace  | 40004      | 40004      | 40004      |   0.0 | 50.38
Neigh   | 69.523     | 69.523     | 69.523     |   0.0 |  0.09
Comm    | 766.87     | 766.87     | 766.87     |   0.0 |  0.97
Output  | 32.375     | 32.375     | 32.375     |   0.0 |  0.04
Modify  | 36160      | 36160      | 36160      |   0.0 | 45.54
Other   |            | 344        |            |       |  0.43

Nlocal:           5541 ave        5541 max        5541 min
Histogram: 1 0 0 0 0 0 0 0 0 0
Nghost:          35755 ave       35755 max       35755 min
Histogram: 1 0 0 0 0 0 0 0 0 0
Neighs:    4.78714e+06 ave 4.78714e+06 max 4.78714e+06 min
Histogram: 1 0 0 0 0 0 0 0 0 0

Total # of neighbors = 4787144
Ave neighs/atom = 863.94947
Ave special neighs/atom = 2.4872767
Neighbor list builds = 186458
Dangerous builds = 0

unfix mynpt
undump prod_traj
undump prod_dcd
undump prod_img
unfix thermo_avg
unfix thermo_detailed
unfix rdf_CO_avg
unfix rdf_CC_avg
unfix rdf_OO_avg
unfix msd_avg
uncompute rdf_CO
uncompute rdf_CC
uncompute rdf_OO
uncompute msd_water

#==============================================================================
# FINAL OUTPUT AND VERIFICATION
#==============================================================================
print ""

print "===== Saving Final Configuration ====="
===== Saving Final Configuration =====

write_data equilibrated_system.data
System init for write_data ...
PPPM initialization ...
  extracting TIP4P info from pair style
  using 12-bit tables for long-range coulomb
  G vector (1/distance) = 0.28841983
  grid = 50 50 50
  stencil order = 5
  estimated absolute RMS force accuracy = 0.0003280743
  estimated relative force accuracy = 9.8798601e-07
  using double precision FFTW3
  3d grid and FFT values/proc = 205379 125000
Generated 0 of 3 mixed pair_coeff terms from geometric mixing rule
WARNING: Not all mixed pair coeffs generated from mixing. Use write_data with 'pair ij' option to store all pair coeffs. (src/write_data.cpp:364)
write_restart equilibrated_system.restart
System init for write_restart ...
PPPM initialization ...
  extracting TIP4P info from pair style
  using 12-bit tables for long-range coulomb
  G vector (1/distance) = 0.28841983
  grid = 50 50 50
  stencil order = 5
  estimated absolute RMS force accuracy = 0.0003280743
  estimated relative force accuracy = 9.8798601e-07
  using double precision FFTW3
  3d grid and FFT values/proc = 205379 125000
Generated 0 of 3 mixed pair_coeff terms from geometric mixing rule

print ""

print "â•â•â•â•â•â•â•â•â•â•â•â•â•â•â•â•â•â•â•â•â•â•â•â•â•â•â•â•â•â•â•â•â•â•â•â•â•â•â•â•â•â•â•â•â•â•â•â•â•â•â•â•â•â•â•â•â•â•â•â•â•â•â•â•â•â•â•â•â•â•â•â•â•â•â•â•"
••••••••••••••••••••••••••••••••••••••••••••••••••••••••••••••••••••••••••••
print "                     EQUILIBRATION COMPLETE - SUCCESS!"
                     EQUILIBRATION COMPLETE - SUCCESS!
print "â•â•â•â•â•â•â•â•â•â•â•â•â•â•â•â•â•â•â•â•â•â•â•â•â•â•â•â•â•â•â•â•â•â•â•â•â•â•â•â•â•â•â•â•â•â•â•â•â•â•â•â•â•â•â•â•â•â•â•â•â•â•â•â•â•â•â•â•â•â•â•â•â•â•â•â•"
••••••••••••••••••••••••••••••••••••••••••••••••••••••••••••••••••••••••••••
print ""

print "Simulation Summary:"
Simulation Summary:
print "  Total simulation time: 5.22 ns"
  Total simulation time: 5.22 ns
print "    - NVT thermalization:     50 ps"
    - NVT thermalization:     50 ps
print "    - Pre-equilibration:      50 ps  (NEW - prevents PPPM artifacts)"
    - Pre-equilibration:      50 ps  (NEW - prevents PPPM artifacts)
print "    - Pressure ramp:         100 ps  (EXTENDED and with drag damping)"
    - Pressure ramp:         100 ps  (EXTENDED and with drag damping)
print "    - NPT equilibration:    1000 ps"
    - NPT equilibration:    1000 ps
print "    - Production run:       4000 ps (4 ns)"
    - Production run:       4000 ps (4 ns)
print ""


# Final measurements
variable final_temp equal temp
variable final_press equal press
variable final_dens equal density
variable final_vol equal vol
variable final_boxsize equal vol^(1.0/3.0)
variable final_pe equal pe
variable final_ke equal ke
variable final_etotal equal etotal

print "Final Thermodynamic State:"
Final Thermodynamic State:
print "  Temperature:    ${final_temp} K      (target: 300K)"
  Temperature:    300.249891398526 K      (target: 300K)
print "  Pressure:       ${final_press} atm   (target: 1 atm)"
  Pressure:       -501.4112289376 atm   (target: 1 atm)
print "  Density:        ${final_dens} g/cmÂ³  (target: 0.95-1.05)"
  Density:        1.05680749757152 g/cm³  (target: 0.95-1.05)
print "  Volume:         ${final_vol} Ã…Â³"
  Volume:         53980.9357402258 …³
print "  Box size:       ${final_boxsize} Ã…    (expected: 58-63)"
  Box size:       37.7931829247407 …    (expected: 58-63)
print ""

print "Final Energies:"
Final Energies:
print "  Potential:      ${final_pe} kcal/mol"
  Potential:      -20748.2435749452 kcal/mol
print "  Kinetic:        ${final_ke} kcal/mol"
  Kinetic:        3358.88956540188 kcal/mol
print "  Total:          ${final_etotal} kcal/mol"
  Total:          -17389.3540095433 kcal/mol
print ""


# Comprehensive validation
if "${final_dens} >= 0.85 && ${final_dens} <= 1.15" then     "print 'âœ… SUCCESS: System equilibrated to LIQUID PHASE!'"     "print ''"     "print 'Quality Indicators:'"     "if '${final_dens} >= 0.95 && ${final_dens} <= 1.05' then 'print \"  âœ“ Density: EXCELLENT (within 5% of water)\"' else 'print \"  âš  Density: ACCEPTABLE (but check TIP4P/2005 reference)\"'"     "if '${final_press} >= -50.0 && ${final_press} <= 50.0' then 'print \"  âœ“ Pressure: EXCELLENT (normal fluctuations)\"' else 'print \"  âš  Pressure: CHECK (may need longer equilibration)\"'"     "if '${final_temp} >= 295.0 && ${final_temp} <= 305.0' then 'print \"  âœ“ Temperature: EXCELLENT\"' else 'print \"  âš  Temperature: CHECK (thermostat may need tuning)\"'" else     "print 'âš ï¸  WARNING: Density ${final_dens} g/cmÂ³ outside normal range'"     "print 'Expected: 0.95-1.05 g/cmÂ³ for TIP4P/2005 water at 300K, 1 atm'"     "print ''"     "print 'Possible explanations:'"     "print '  - System still equilibrating (try longer NPT)'"     "print '  - Force field parameters incorrect'"     "print '  - Nanoparticle affecting bulk water density'"
ERROR: Input line quote not followed by white-space (src/input.cpp:556)
Last input line: if "${final_dens} >= 0.85 && ${final_dens} <= 1.15" then "print 'âœ… SUCCESS: System equilibrated to LIQUID PHASE!'" "print ''" "print 'Quality Indicators:'" "if '${final_dens} >= 0.95 && ${final_dens} <= 1.05' then 'print \" âœ“ Density: EXCELLENT (within 5% of water)\"' else 'print \" âš  Density: ACCEPTABLE (but check TIP4P/2005 reference)\"'" "if '${final_press} >= -50.0 && ${final_press} <= 50.0' then 'print \" âœ“ Pressure: EXCELLENT (normal fluctuations)\"' else 'print \" âš  Pressure: CHECK (may need longer equilibration)\"'" "if '${final_temp} >= 295.0 && ${final_temp} <= 305.0' then 'print \" âœ“ Temperature: EXCELLENT\"' else 'print \" âš  Temperature: CHECK (thermostat may need tuning)\"'" else "print 'âš ï¸ WARNING: Density ${final_dens} g/cmÂ³ outside normal range'" "print 'Expected: 0.95-1.05 g/cmÂ³ for TIP4P/2005 water at 300K, 1 atm'" "print ''" "print 'Possible explanations:'" "print ' - System still equilibrating (try longer NPT)'" "print ' - Force field parameters incorrect'" "print ' - Nanoparticle affecting bulk water density'"
