LAMMPS (10 Sep 2025)
  using 4 OpenMP thread(s) per MPI task
package gpu 1 neigh yes newton off binsize 2.8 split 1.0
# LAMMPS Input Script: FULLY CORRECTED NPT Equilibration
# Purpose: Equilibrate solvated nanoparticle system at 300K, 1 bar
# Water Model: TIP4P/2005 (implicit M-site)
# GPU acceleration: Enabled for MD stages
#
# COMPLETE FIXES APPLIED (2024-11-13):
# 1. âœ… CRITICAL FIX: PPPM grid locked to prevent recalculation artifacts
# 2. âœ… CRITICAL FIX: Pre-equilibration stage to reduce initial pressure
# 3. âœ… FIXED: Gentler pressure ramp (100 atm â†’ 1 atm) with drag damping
# 4. âœ… FIXED: SHAKE verification and proper constraint application
# 5. âœ… EXTENDED: Longer equilibration (1000 ps) and production (4000 ps)
# 6. âœ… ENHANCED: Multiple density checkpoints to catch failures early
# 7. âœ… OPTIMIZED: 2 fs timestep (SHAKE allows this, 2Ã— speedup)
#
# Total time: 5.22 ns (50ps NVT + 50ps pre-equil + 100ps ramp + 1000ps NPT + 4000ps prod)
#
# ROOT CAUSE OF PREVIOUS FAILURE:
# - PPPM grid recalculation at step 51,000 caused 169,712 atm pressure spike
# - Barostat overreacted â†’ box expanded 63Ã— â†’ gas phase (Ï=0.025 g/cmÂ³)
# - All epsilon values failed identically (proves it's numerical, not physical)
#
# SOLUTION: Lock PPPM grid + reduce initial pressure + add checkpoints

# ===== INITIALIZATION =====
units real
atom_style full
boundary p p p
atom_modify map array

# ===== COMMUNICATION =====
# Increased cutoff to handle potential box fluctuations safely
comm_modify cutoff 18.0

# ===== FORCE FIELD (FULLY GPU-accelerated) =====
# CORRECTED: O=type2, H=type3 (C60 carbon is type1)
pair_style lj/cut/tip4p/long/gpu 2 3 2 1 0.1546 12.0

# ğŸ”§ CRITICAL: Use pppm/gpu for FULL GPU acceleration of Coulomb forces
# pppm/tip4p is CPU-based bottleneck (~90% CPU, ~10% GPU)
# pppm/gpu runs Coulomb solver on GPU â†’ 5-10Ã— speedup for long-range forces
kspace_style pppm/gpu 1.0e-4

# ğŸ”§ CRITICAL FIX #1: Lock PPPM grid to prevent recalculation
# This prevents the 169,712 atm pressure spike that caused gas-phase failure
kspace_modify mesh 50 50 50    # Fixed grid (handles boxes up to ~125 Ã…, increased from 40)
kspace_modify order 5           # Higher interpolation order for accuracy
kspace_modify force/disp/real 0.8  # Balance real/k-space work

bond_style harmonic
angle_style harmonic

read_data large_C60_solvated.data
Reading data file ...
  orthogonal box = (-20 -20 -20) to (20 20 20)
  1 by 1 by 1 MPI processor grid
  reading atoms ...
  5541 atoms
  reading velocities ...
  5541 velocities
  scanning bonds ...
  3 = max bonds/atom
  scanning angles ...
  1 = max angles/atom
  orthogonal box = (-20 -20 -20) to (20 20 20)
  1 by 1 by 1 MPI processor grid
  reading bonds ...
  3844 bonds
  reading angles ...
  1787 angles
Finding 1-2 1-3 1-4 neighbors ...
  special bond factors lj:    0        0        0       
  special bond factors coul:  0        0        0       
     3 = max # of 1-2 neighbors
     6 = max # of 1-3 neighbors
    18 = max # of 1-4 neighbors
    17 = max # of special neighbors
  special bonds CPU = 0.002 seconds
  read_data CPU = 0.078 seconds

# ===== PAIR COEFFICIENTS (CORRECTED ATOM TYPE MAPPING) =====
# Type 1: C60 carbon (180 atoms from 3 C60 particles)
# Type 2: Water oxygen (~2000 molecules)
# Type 3: Water hydrogen (~4000 atoms)
# TIP4P/2005 parameters (verified against literature)
pair_coeff 2 2 0.1852 3.1589    # O-O (type 2, Îµ=0.1852 kcal/mol, Ïƒ=3.1589 Ã…)
pair_coeff 3 3 0.0 0.0          # H-H (type 3, no interaction)

# C60 fullerene parameters
pair_coeff 1 1 0.07 3.4         # C-C (type 1, Îµ=0.07 kcal/mol, Ïƒ=3.4 Ã…)

# C60-water cross interactions
# Tunable parameter (passed from bash script via -var)
variable epsilon_co equal ${EPSILON_CO}
variable epsilon_co equal 0.20
pair_coeff 1 2 ${epsilon_co} 3.2   # C-O (hydrophobicity parameter)
pair_coeff 1 2 0.2 3.2   
pair_coeff 1 3 0.0 0.0             # C-H (no interaction)
pair_coeff 2 3 0.0 0.0             # O-H (no LJ, only Coulombic)

# Bond and angle coefficients
bond_coeff 1 938.0 1.42         # C-C bonds in C60 (bond type 1)
bond_coeff 2 0.0 0.9572         # O-H bonds in water (bond type 2, SHAKE controlled)
angle_coeff 1 0.0 104.52        # H-O-H angle in water (angle type 1, SHAKE controlled)

# ===== SETTINGS =====
neighbor 2.0 bin                 # Increased skin for safety
neigh_modify delay 5 every 1 check yes

# Define groups (CORRECTED)
group carbon type 1        # C60 atoms (type 1)
180 atoms in group carbon
group water type 2 3       # All water atoms (O=type2, H=type3)
5361 atoms in group water
group oxygen type 2        # Water oxygen atoms (type 2)
1787 atoms in group oxygen
group hydrogen type 3      # Water hydrogen atoms (type 3)
3574 atoms in group hydrogen

# Define thermodynamic variables
variable temp equal c_thermo_temp
variable press equal c_thermo_press
variable pe equal pe
variable ke equal ke
variable etotal equal etotal
variable vol equal vol
variable dens equal density

thermo_style custom step temp press vol pe ke etotal density
thermo 1000

# ğŸ”§ CRITICAL FIX #2: Use 2 fs timestep (SHAKE allows this, 2Ã— speedup)
timestep 2.0

# Print system info
print "â•â•â•â•â•â•â•â•â•â•â•â•â•â•â•â•â•â•â•â•â•â•â•â•â•â•â•â•â•â•â•â•â•â•â•â•â•â•â•â•â•â•â•â•â•â•â•â•â•â•â•â•â•â•â•â•â•â•â•â•â•â•â•â•â•â•â•â•â•â•â•â•â•â•â•â•"
WARNING: Detected non-ASCII characters in input. Will try to continue by replacing with ASCII equivalents where known. (src/input.cpp:479)
••••••••••••••••••••••••••••••••••••••••••••••••••••••••••••••••••••••••••••
print "SYSTEM INFORMATION:"
SYSTEM INFORMATION:
print "  Epsilon (O-C): ${epsilon_co} kcal/mol"
  Epsilon (O-C): 0.2 kcal/mol
print "  Random seed:   ${RANDOM_SEED}"
  Random seed:   42
print "  Timestep:      2.0 fs (with SHAKE constraints)"
  Timestep:      2.0 fs (with SHAKE constraints)
print "  PPPM grid:     40Ã—40Ã—40 (LOCKED to prevent artifacts)"
  PPPM grid:     40—40—40 (LOCKED to prevent artifacts)
print "â•â•â•â•â•â•â•â•â•â•â•â•â•â•â•â•â•â•â•â•â•â•â•â•â•â•â•â•â•â•â•â•â•â•â•â•â•â•â•â•â•â•â•â•â•â•â•â•â•â•â•â•â•â•â•â•â•â•â•â•â•â•â•â•â•â•â•â•â•â•â•â•â•â•â•â•"
••••••••••••••••••••••••••••••••••••••••••••••••••••••••••••••••••••••••••••
print ""


#==============================================================================
# STAGE 0: Gentle Minimization (CPU pair style for stability)
#==============================================================================
print "===== STAGE 0: Gentle Minimization (removing any overlaps) ====="
===== STAGE 0: Gentle Minimization (removing any overlaps) =====
print "Using CPU pair style for numerical stability during minimization"
Using CPU pair style for numerical stability during minimization
print ""


# Switch to CPU pair style for minimization (GPU can be unstable)
pair_style lj/cut/tip4p/long 2 3 2 1 0.1546 12.0
kspace_style pppm/tip4p 1.0e-4
kspace_modify mesh 50 50 50
kspace_modify order 5

# Re-apply pair coefficients with current epsilon_co
pair_coeff 1 1 0.07 3.4            # C-C
pair_coeff 2 2 0.1852 3.1589       # O-O
pair_coeff 3 3 0.0 0.0             # H-H
pair_coeff 1 2 ${epsilon_co} 3.2   # C-O (variable)
pair_coeff 1 2 0.2 3.2   
pair_coeff 1 3 0.0 0.0             # C-H
pair_coeff 2 3 0.0 0.0             # O-H

# Very gentle minimization (just remove bad contacts, if any)
# Using very relaxed tolerances and limited steps for speed
thermo 100
minimize 0.0 10.0 10 100  # Ultra-gentle: etol=0, ftol=10, max 10 eval, max 100 iter

CITE-CITE-CITE-CITE-CITE-CITE-CITE-CITE-CITE-CITE-CITE-CITE-CITE

Your simulation uses code contributions which should be cited:

- GPU package (short-range, long-range and three-body potentials): doi:10.1016/j.cpc.2010.12.021, doi:10.1016/j.cpc.2011.10.012, doi:10.1016/j.cpc.2013.08.002, doi:10.1016/j.commatsci.2014.10.068, doi:10.1016/j.cpc.2016.10.020, doi:10.3233/APC200086

@Article{Brown11,
 author = {W. M. Brown and P. Wang and S. J. Plimpton and A. N. Tharrington},
 title = {Implementing Molecular Dynamics on Hybrid High Performance Computers---Short Range Forces},
 journal = {Comput.\ Phys.\ Commun.},
 year =    2011,
 volume =  182,
 pages =   {898--911},
 doi =     {10.1016/j.cpc.2010.12.021}
}

@Article{Brown12,
 author = {W. M. Brown and A. Kohlmeyer and S. J. Plimpton and A. N. Tharrington},
 title = {Implementing Molecular Dynamics on Hybrid High Performance Computers - Particle-Particle Particle-Mesh},
 journal = {Comput.\ Phys.\ Commun.},
 year =    2012,
 volume =  183,
 doi =     {10.1016/j.cpc.2011.10.012},
 pages =   {449--459}
}

@Article{Brown13,
 author = {W. M. Brown and Y. Masako},
 title = {Implementing Molecular Dynamics on Hybrid High Performance Computers---Three-Body Potentials},
 journal = {Comput.\ Phys.\ Commun.},
 year =    2013,
 volume =  184,
 pages =   {2785--2793},
 doi =     {10.1016/j.cpc.2013.08.002},
}

@Article{Trung15,
 author = {T. D. Nguyen and S. J. Plimpton},
 title = {Accelerating Dissipative Particle Dynamics Simulations for Soft Matter Systems},
 journal = {Comput.\ Mater.\ Sci.},
 year =    2015,
 doi =     {10.1016/j.commatsci.2014.10.068},
 volume =  100,
 pages =   {173--180}
}

@Article{Trung17,
 author = {T. D. Nguyen},
 title = {{GPU}-Accelerated {T}ersoff Potentials for Massively Parallel
    Molecular Dynamics Simulations},
 journal = {Comput.\ Phys.\ Commun.},
 year =    2017,
 doi =     {10.1016/j.cpc.2016.10.020},
 volume =  212,
 pages =   {113--122}
}

@inproceedings{Nikolskiy19,
 author = {V. Nikolskiy and V. Stegailov},
 title = {{GPU} Acceleration of Four-Site Water Models in {LAMMPS}},
 booktitle = {Proceedings of the International Conference on Parallel
    Computing (ParCo 2019), Prague, Czech Republic},
 doi =     {10.3233/APC200086},
 year =    2019
}

CITE-CITE-CITE-CITE-CITE-CITE-CITE-CITE-CITE-CITE-CITE-CITE-CITE

Switching to 'neigh_modify every 1 delay 0 check yes' setting during minimization
PPPM initialization ...
  extracting TIP4P info from pair style
  using 12-bit tables for long-range coulomb
  G vector (1/distance) = 0.28512662
  grid = 50 50 50
  stencil order = 5
  estimated absolute RMS force accuracy = 0.00038934319
  estimated relative force accuracy = 1.1724955e-06
  using double precision FFTW3
  3d grid and FFT values/proc = 185193 125000
Generated 0 of 3 mixed pair_coeff terms from geometric mixing rule
Per MPI rank memory allocation (min/avg/max) = 50.33 | 50.33 | 50.33 Mbytes
   Step          Temp          Press          Volume         PotEng         KinEng         TotEng        Density    
         0   36.495381      27243.518      64000         -23223.593      602.67332     -22620.92       0.89136653   
        10   36.495381     -19468.528      64000         -142271.47      602.67332     -141668.8       0.89136653   
Loop time of 0.132894 on 4 procs for 10 steps with 5541 atoms

397.5% CPU use with 1 MPI tasks x 4 OpenMP threads

Minimization stats:
  Stopping criterion = max iterations
  Energy initial, next-to-last, final = 
     -23223.5929183451  -124482.516917638  -142271.472653427
  Force two-norm initial, final = 2152.65 6847.0309
  Force max component initial, final = 49.70052 359.31617
  Final line search alpha, max atom move = 0.00038814188 0.13946566
  Iterations, force evaluations = 10 10

MPI task timing breakdown:
Section |  min time  |  avg time  |  max time  |%varavg| %total
---------------------------------------------------------------
Pair    | 0.0034666  | 0.0034666  | 0.0034666  |   0.0 |  2.61
Bond    | 0.0018219  | 0.0018219  | 0.0018219  |   0.0 |  1.37
Kspace  | 0.12292    | 0.12292    | 0.12292    |   0.0 | 92.50
Neigh   | 0          | 0          | 0          |   0.0 |  0.00
Comm    | 0.00212    | 0.00212    | 0.00212    |   0.0 |  1.60
Output  | 6.7199e-05 | 6.7199e-05 | 6.7199e-05 |   0.0 |  0.05
Modify  | 8.8e-07    | 8.8e-07    | 8.8e-07    |   0.0 |  0.00
Other   |            | 0.002497   |            |       |  1.88

Nlocal:           5541 ave        5541 max        5541 min
Histogram: 1 0 0 0 0 0 0 0 0 0
Nghost:          33839 ave       33839 max       33839 min
Histogram: 1 0 0 0 0 0 0 0 0 0
Neighs:              0 ave           0 max           0 min
Histogram: 1 0 0 0 0 0 0 0 0 0

Total # of neighbors = 0
Ave neighs/atom = 0
Ave special neighs/atom = 2.4872767
Neighbor list builds = 0
Dangerous builds = 0

variable pe_minimized equal pe
print "Minimization complete. PE = ${pe_minimized} kcal/mol (was -23,217)"
Minimization complete. PE = -142271.472653427 kcal/mol (was -23,217)

# Switch back to GPU pair style for MD
pair_style lj/cut/tip4p/long/gpu 2 3 2 1 0.1546 12.0
kspace_style pppm/tip4p 1.0e-4
kspace_modify mesh 50 50 50
kspace_modify order 5

# Re-apply pair coefficients again after style change
pair_coeff 1 1 0.07 3.4            # C-C
pair_coeff 2 2 0.1852 3.1589       # O-O
pair_coeff 3 3 0.0 0.0             # H-H
pair_coeff 1 2 ${epsilon_co} 3.2   # C-O (variable)
pair_coeff 1 2 0.2 3.2   
pair_coeff 1 3 0.0 0.0             # C-H
pair_coeff 2 3 0.0 0.0             # O-H

print ""


#==============================================================================
# STAGE 0.5: Apply SHAKE Constraints
#==============================================================================
thermo 1000

# ğŸ”§ CRITICAL FIX #3: Apply SHAKE with proper verification
print "Applying SHAKE constraints..."
Applying SHAKE constraints...
# CORRECTED: bond type 2 = O-H, angle type 1 = H-O-H
fix myshk water shake 0.0001 20 0 b 2 a 1
Finding SHAKE clusters ...
       0 = # of size 2 clusters
       0 = # of size 3 clusters
       0 = # of size 4 clusters
    1787 = # of frozen angles
  find clusters CPU = 0.001 seconds

# Verify SHAKE is working
print "SHAKE constraint verification:"
SHAKE constraint verification:
print "  Expected: ~2000 water molecules with constrained bonds and angles"
  Expected: ~2000 water molecules with constrained bonds and angles
print "  Check minimization output for cluster sizes"
  Check minimization output for cluster sizes
print ""

print "GPU Acceleration Status:"
GPU Acceleration Status:
print "  âœ“ Pair forces (LJ):      GPU (lj/cut/tip4p/long/gpu)"
  œ“ Pair forces (LJ):      GPU (lj/cut/tip4p/long/gpu)
print "  âœ“ Coulomb (PPPM):        CPU (pppm/tip4p) - GPU suffix not available"
  œ“ Coulomb (PPPM):        CPU (pppm/tip4p) - GPU suffix not available
print "  âœ“ Neighbor lists:        GPU (neigh yes)"
  œ“ Neighbor lists:        GPU (neigh yes)
print "  â†’ Expected speedup:      2-3Ã— vs CPU-only version (pair forces only)"
  †’ Expected speedup:      2-3— vs CPU-only version (pair forces only)

#==============================================================================
# STAGE 1: NVT Thermalization (50 ps)
#==============================================================================
print ""

print "===== STAGE 1: NVT Thermalization (50 ps, GPU) ====="
===== STAGE 1: NVT Thermalization (50 ps, GPU) =====
print "Objective: Reach 300K while maintaining initial density"
Objective: Reach 300K while maintaining initial density

velocity all create 300.0 ${RANDOM_SEED} dist gaussian loop geom
velocity all create 300.0 42 dist gaussian loop geom

fix mynvt all nvt temp 300.0 300.0 100.0

# Trajectory output (every 4 ps) - using wrapped coordinates for proper visualization
dump nvt_traj all custom 2000 nvt_thermalization.lammpstrj id type xu yu zu
dump_modify nvt_traj sort id

dump nvt_dcd all dcd 2000 nvt_thermalization.dcd
dump_modify nvt_dcd unwrap yes

run 25000  # 50 ps at 2 fs timestep
PPPM initialization ...
  extracting TIP4P info from pair style
  using 12-bit tables for long-range coulomb
  G vector (1/distance) = 0.28512662
  grid = 50 50 50
  stencil order = 5
  estimated absolute RMS force accuracy = 0.00038934319
  estimated relative force accuracy = 1.1724955e-06
  using double precision FFTW3
  3d grid and FFT values/proc = 185193 125000
Generated 0 of 3 mixed pair_coeff terms from geometric mixing rule
Per MPI rank memory allocation (min/avg/max) = 49.79 | 49.79 | 49.79 Mbytes
   Step          Temp          Press          Volume         PotEng         KinEng         TotEng        Density    
        10   300           -111601.74      64000         -142271.47      3356.094      -138915.38      0.89136653   
      1000   301.83981     -1173.894       64000         -19996.713      3376.6759     -16620.037      0.89136653   
      2000   292.58569     -382.42589      64000         -20034.942      3273.1503     -16761.792      0.89136653   
      3000   297.05467     -714.72292      64000         -20149.244      3323.1447     -16826.099      0.89136653   
      4000   298.13323     -1500.1116      64000         -20083.687      3335.2105     -16748.476      0.89136653   
      5000   296.12721     -1079.8926      64000         -20078.217      3312.7692     -16765.448      0.89136653   
      6000   296.02889     -1288.5018      64000         -20071.758      3311.6693     -16760.089      0.89136653   
      7000   303.5522      -427.00468      64000         -20165.81       3395.8324     -16769.977      0.89136653   
      8000   300.67065     -1955.8813      64000         -20036.964      3363.5966     -16673.367      0.89136653   
      9000   304.02288     -1024.4319      64000         -20130.04       3401.0979     -16728.942      0.89136653   
     10000   299.75693     -1012.8855      64000         -20139.243      3353.3748     -16785.868      0.89136653   
     11000   305.80929     -1648.7625      64000         -20135.891      3421.0825     -16714.808      0.89136653   
     12000   297.7345      -856.07056      64000         -20195.891      3330.7499     -16865.141      0.89136653   
     13000   298.74934     -1504.5206      64000         -20262.43       3342.1029     -16920.328      0.89136653   
     14000   305.15189     -1087.9262      64000         -20230.39       3413.7281     -16816.662      0.89136653   
     15000   301.56515     -975.7908       64000         -20061.196      3373.6033     -16687.593      0.89136653   
     16000   298.72529     -1364.3871      64000         -20189.058      3341.8339     -16847.224      0.89136653   
     17000   301.25915     -1061.3992      64000         -20200.718      3370.1802     -16830.538      0.89136653   
     18000   295.94331     -1340.5759      64000         -20086.386      3310.7119     -16775.674      0.89136653   
     19000   293.46968     -1396.8389      64000         -20024.602      3283.0395     -16741.563      0.89136653   
     20000   297.98268     -977.22036      64000         -19996.341      3333.5263     -16662.814      0.89136653   
     21000   303.57319     -1241.6747      64000         -20139.685      3396.0673     -16743.618      0.89136653   
     22000   305.50154     -1176.1857      64000         -20101.496      3417.6396     -16683.856      0.89136653   
     23000   296.8294      -1146.8672      64000         -20126.935      3320.6246     -16806.31       0.89136653   
     24000   302.17081     -1361.2039      64000         -20091.861      3380.3788     -16711.482      0.89136653   
     25000   305.51122     -970.18172      64000         -20123.338      3417.748      -16705.59       0.89136653   
     25010   306.20933     -642.26997      64000         -20131.318      3425.5577     -16705.76       0.89136653   
Loop time of 350.58 on 4 procs for 25000 steps with 5541 atoms

Performance: 12.322 ns/day, 1.948 hours/ns, 71.310 timesteps/s, 395.130 katom-step/s
399.2% CPU use with 1 MPI tasks x 4 OpenMP threads

MPI task timing breakdown:
Section |  min time  |  avg time  |  max time  |%varavg| %total
---------------------------------------------------------------
Pair    | 13.719     | 13.719     | 13.719     |   0.0 |  3.91
Bond    | 0.11813    | 0.11813    | 0.11813    |   0.0 |  0.03
Kspace  | 313.58     | 313.58     | 313.58     |   0.0 | 89.45
Neigh   | 0.040572   | 0.040572   | 0.040572   |   0.0 |  0.01
Comm    | 6.8532     | 6.8532     | 6.8532     |   0.0 |  1.95
Output  | 0.091545   | 0.091545   | 0.091545   |   0.0 |  0.03
Modify  | 14.245     | 14.245     | 14.245     |   0.0 |  4.06
Other   |            | 1.934      |            |       |  0.55

Nlocal:           5541 ave        5541 max        5541 min
Histogram: 1 0 0 0 0 0 0 0 0 0
Nghost:          33227 ave       33227 max       33227 min
Histogram: 1 0 0 0 0 0 0 0 0 0
Neighs:              0 ave           0 max           0 min
Histogram: 1 0 0 0 0 0 0 0 0 0

Total # of neighbors = 0
Ave neighs/atom = 0
Ave special neighs/atom = 2.4872767
Neighbor list builds = 2327
Dangerous builds = 1

unfix mynvt
undump nvt_traj
undump nvt_dcd

write_restart nvt_complete.restart
System init for write_restart ...
PPPM initialization ...
  extracting TIP4P info from pair style
  using 12-bit tables for long-range coulomb
  G vector (1/distance) = 0.28512662
  grid = 50 50 50
  stencil order = 5
  estimated absolute RMS force accuracy = 0.00038934319
  estimated relative force accuracy = 1.1724955e-06
  using double precision FFTW3
  3d grid and FFT values/proc = 185193 125000
Generated 0 of 3 mixed pair_coeff terms from geometric mixing rule

# Check temperature
variable current_temp equal temp
print "NVT complete. Temperature: ${current_temp} K (target: 300K)"
NVT complete. Temperature: 306.209331478743 K (target: 300K)

# ğŸ”§ CHECKPOINT #1: Verify we're still at reasonable density
variable current_dens equal density
if "${current_dens} < 0.7" then     "print 'ERROR: Density dropped during NVT! Current: ${current_dens} g/cmÂ³'"     "print 'This should not happen - check initial configuration'"     "quit 1"

print "âœ“ Checkpoint 1 PASSED: Density = ${current_dens} g/cmÂ³"
œ“ Checkpoint 1 PASSED: Density = 0.891366525253081 g/cm³

#==============================================================================
# STAGE 1.5: Pre-Equilibration at 100 atm (50 ps) - NEW STAGE
#==============================================================================
print ""

print "===== STAGE 1.5: Pre-Equilibration at 100 atm (50 ps, GPU) ====="
===== STAGE 1.5: Pre-Equilibration at 100 atm (50 ps, GPU) =====
print "ğŸ”§ CRITICAL FIX: Reducing initial pressure before main ramp"
Ÿ”§ CRITICAL FIX: Reducing initial pressure before main ramp
print "Objective: Equilibrate volume at moderate pressure to prevent PPPM artifacts"
Objective: Equilibrate volume at moderate pressure to prevent PPPM artifacts
print ""

print "Why this is needed:"
Why this is needed:
print "  - NVT creates high pressure (~800 atm) in fixed volume"
  - NVT creates high pressure (~800 atm) in fixed volume
print "  - Direct ramp from 800â†’1 atm caused 169k atm spike (PPPM grid change)"
  - Direct ramp from 800†’1 atm caused 169k atm spike (PPPM grid change)
print "  - Pre-equilibrating at 100 atm reduces initial pressure safely"
  - Pre-equilibrating at 100 atm reduces initial pressure safely
print "  - Main ramp (100â†’1 atm) will then cause only ~5% box expansion"
  - Main ramp (100†’1 atm) will then cause only ~5% box expansion

# Higher barostat damping for this stage (more conservative)
fix mynpt_pre all npt temp 300.0 300.0 100.0 iso 100.0 100.0 5000.0

dump pre_dcd all dcd 2000 pre_equilibration.dcd
dump_modify pre_dcd unwrap yes

run 25000  # 50 ps at 2 fs timestep
PPPM initialization ...
  extracting TIP4P info from pair style
  using 12-bit tables for long-range coulomb
  G vector (1/distance) = 0.28512662
  grid = 50 50 50
  stencil order = 5
  estimated absolute RMS force accuracy = 0.00038934319
  estimated relative force accuracy = 1.1724955e-06
  using double precision FFTW3
  3d grid and FFT values/proc = 185193 125000
Generated 0 of 3 mixed pair_coeff terms from geometric mixing rule
Per MPI rank memory allocation (min/avg/max) = 49.8 | 49.8 | 49.8 Mbytes
   Step          Temp          Press          Volume         PotEng         KinEng         TotEng        Density    
     25010   306.20933     -642.0725       64000         -20131.318      3425.5577     -16705.76       0.89136653   
     26000   307.45944     -71.403158      61449.531     -19976.618      3439.5426     -16537.076      0.92836279   
     27000   296.73152      173.83781      59248.81      -20242.224      3319.5296     -16922.694      0.96284562   
     28000   302.4655       541.16214      57714.521     -20192.782      3383.6756     -16809.106      0.98844201   
     29000   298.59139      280.92083      56286.191     -20382.25       3340.336      -17041.914      1.0135249    
     30000   301.1309      -204.70252      55728.829     -20427.226      3368.7454     -17058.481      1.0236615    
     31000   301.55654     -246.90532      55491.313     -20439.75       3373.507      -17066.243      1.028043     
     32000   305.80176      1172.5946      55222.732     -20458.301      3420.9982     -17037.303      1.033043     
     33000   299.72694      21.276707      55063.882     -20446.545      3353.0394     -17093.505      1.0360232    
     34000   301.70169      20.28317       54705.44      -20581.693      3375.1308     -17206.563      1.0428114    
     35000   290.61108      312.56816      54924.498     -20484.682      3251.0603     -17233.622      1.0386523    
     36000   294.09034     -355.99282      55247.456     -20447.863      3289.9828     -17157.88       1.0325807    
     37000   296.62406     -171.68043      54774.062     -20563.843      3318.3274     -17245.516      1.041505     
     38000   297.35627      344.9441       54912.286     -20499.527      3326.5186     -17173.008      1.0388833    
     39000   295.97969     -317.19896      55241.679     -20432.57       3311.1189     -17121.451      1.0326887    
     40000   293.60279     -399.79595      54613.996     -20461.088      3284.5285     -17176.56       1.0445575    
     41000   299.93383     -300.67436      54765.976     -20459.291      3355.3538     -17103.937      1.0416587    
     42000   304.11954     -47.823557      55270.638     -20532.057      3402.1792     -17129.878      1.0321476    
     43000   296.68464     -442.00032      55201.705     -20475.148      3319.0052     -17156.142      1.0334365    
     44000   300.00251      460.9847       54765.144     -20525.356      3356.1222     -17169.234      1.0416746    
     45000   305.25712      776.65997      54728.278     -20412.19       3414.9053     -16997.285      1.0423763    
     46000   297.65167     -304.45746      54770.089     -20456.819      3329.8233     -17126.996      1.0415805    
     47000   297.9979       440.23361      54660.69      -20445.598      3333.6966     -17111.901      1.0436652    
     48000   299.19677     -304.55747      55277.46      -20497.231      3347.1084     -17150.122      1.0320202    
     49000   297.64331     -282.38341      55113.519     -20520.283      3329.7297     -17190.554      1.0350901    
     50000   298.50467      310.54194      54948.253     -20499.883      3339.3658     -17160.517      1.0382033    
     50010   296.2881       50.139034      54947.782     -20480.636      3314.5691     -17166.066      1.0382122    
Loop time of 699.319 on 4 procs for 25000 steps with 5541 atoms

Performance: 6.177 ns/day, 3.885 hours/ns, 35.749 timesteps/s, 198.086 katom-step/s
308.0% CPU use with 1 MPI tasks x 4 OpenMP threads

MPI task timing breakdown:
Section |  min time  |  avg time  |  max time  |%varavg| %total
---------------------------------------------------------------
Pair    | 16.254     | 16.254     | 16.254     |   0.0 |  2.32
Bond    | 0.25066    | 0.25066    | 0.25066    |   0.0 |  0.04
Kspace  | 318.02     | 318.02     | 318.02     |   0.0 | 45.48
Neigh   | 0.041399   | 0.041399   | 0.041399   |   0.0 |  0.01
Comm    | 7.4795     | 7.4795     | 7.4795     |   0.0 |  1.07
Output  | 0.013089   | 0.013089   | 0.013089   |   0.0 |  0.00
Modify  | 354.56     | 354.56     | 354.56     |   0.0 | 50.70
Other   |            | 2.697      |            |       |  0.39

Nlocal:           5541 ave        5541 max        5541 min
Histogram: 1 0 0 0 0 0 0 0 0 0
Nghost:          35183 ave       35183 max       35183 min
Histogram: 1 0 0 0 0 0 0 0 0 0
Neighs:              0 ave           0 max           0 min
Histogram: 1 0 0 0 0 0 0 0 0 0

Total # of neighbors = 0
Ave neighs/atom = 0
Ave special neighs/atom = 2.4872767
Neighbor list builds = 2335
Dangerous builds = 0

unfix mynpt_pre
undump pre_dcd

write_restart pre_equilibration_complete.restart
System init for write_restart ...
PPPM initialization ...
  extracting TIP4P info from pair style
  using 12-bit tables for long-range coulomb
  G vector (1/distance) = 0.28810681
  grid = 50 50 50
  stencil order = 5
  estimated absolute RMS force accuracy = 0.00033366494
  estimated relative force accuracy = 1.004822e-06
  using double precision FFTW3
  3d grid and FFT values/proc = 205379 125000
Generated 0 of 3 mixed pair_coeff terms from geometric mixing rule
write_data pre_equilibration_complete.data
System init for write_data ...
PPPM initialization ...
  extracting TIP4P info from pair style
  using 12-bit tables for long-range coulomb
  G vector (1/distance) = 0.28810681
  grid = 50 50 50
  stencil order = 5
  estimated absolute RMS force accuracy = 0.00033366494
  estimated relative force accuracy = 1.004822e-06
  using double precision FFTW3
  3d grid and FFT values/proc = 205379 125000
Generated 0 of 3 mixed pair_coeff terms from geometric mixing rule
WARNING: Not all mixed pair coeffs generated from mixing. Use write_data with 'pair ij' option to store all pair coeffs. (src/write_data.cpp:364)

# ğŸ”§ CHECKPOINT #2: Verify still in liquid phase after pre-equilibration
variable current_dens equal density
variable current_press equal press
variable current_vol equal vol

print ""

print "Pre-equilibration complete:"
Pre-equilibration complete:
print "  Density:  ${current_dens} g/cmÂ³"
  Density:  1.03821219972292 g/cm³
print "  Pressure: ${current_press} atm"
  Pressure: 50.1390335683781 atm
print "  Volume:   ${current_vol} Ã…Â³"
  Volume:   54947.781996226 …³

if "${current_dens} < 0.85" then     "print 'ERROR: Density dropped to ${current_dens} during pre-equilibration!'"     "print 'Expected: Still ~0.95 g/cmÂ³ (may increase slightly due to compression)'"     "print 'System failed before main pressure ramp even started!'"     "quit 1"

print "âœ“ Checkpoint 2 PASSED: System stable at 100 atm"
œ“ Checkpoint 2 PASSED: System stable at 100 atm

#==============================================================================
# STAGE 2: GENTLE Pressure Ramp (100 â†’ 1 atm, 100 ps) - CORRECTED
#==============================================================================
print ""

print "===== STAGE 2: Gentle Pressure Ramp (100 ps, GPU) ====="
===== STAGE 2: Gentle Pressure Ramp (100 ps, GPU) =====
print "Ramping pressure from 100 atm â†’ 1 atm with drag damping"
Ramping pressure from 100 atm †’ 1 atm with drag damping
print ""

print "COMPARISON TO FAILED VERSION:"
COMPARISON TO FAILED VERSION:
print "  OLD: 50 atm â†’ 1 atm, no pre-equil â†’ 169,712 atm spike at step 51k"
  OLD: 50 atm †’ 1 atm, no pre-equil †’ 169,712 atm spike at step 51k
print "  NEW: 100 atm â†’ 1 atm, with pre-equil â†’ should be smooth (< 500 atm max)"
  NEW: 100 atm †’ 1 atm, with pre-equil †’ should be smooth (< 500 atm max)

# ğŸ”§ CRITICAL FIX #4: Add drag damping to prevent explosive expansion
fix mynpt_ramp all npt temp 300.0 300.0 100.0 iso 100.0 1.0 2000.0 drag 2.0

dump ramp_dcd all dcd 1000 pressure_ramp.dcd
dump_modify ramp_dcd unwrap yes

# Monitor closely during ramp (every 500 steps = 1 ps)
thermo 500

run 50000  # 100 ps at 2 fs timestep
PPPM initialization ...
  extracting TIP4P info from pair style
  using 12-bit tables for long-range coulomb
  G vector (1/distance) = 0.28810681
  grid = 50 50 50
  stencil order = 5
  estimated absolute RMS force accuracy = 0.00033366494
  estimated relative force accuracy = 1.004822e-06
  using double precision FFTW3
  3d grid and FFT values/proc = 205379 125000
Generated 0 of 3 mixed pair_coeff terms from geometric mixing rule
Per MPI rank memory allocation (min/avg/max) = 50.64 | 50.64 | 50.64 Mbytes
   Step          Temp          Press          Volume         PotEng         KinEng         TotEng        Density    
     50010   296.2881       49.781706      54947.782     -20480.567      3314.5691     -17165.998      1.0382122    
     50500   297.1361       267.28775      54736.104     -20473.198      3324.0557     -17149.143      1.0422272    
     51000   298.2264      -430.32105      54853.414     -20439.045      3336.2528     -17102.792      1.0399983    
     51500   296.43568      553.43735      54878.131     -20443.658      3316.22       -17127.438      1.0395299    
     52000   300.96256     -1117.8281      55006.279     -20500.884      3366.8621     -17134.022      1.0371081    
     52500   304.39418      791.17448      54809.294     -20612.092      3405.2516     -17206.84       1.0408355    
     53000   297.66285     -43.186476      55114.37      -20500.262      3329.9484     -17170.313      1.0350741    
     53500   291.23836      257.62053      55153.911     -20437.102      3258.0777     -17179.025      1.034332     
     54000   296.40992      913.485        54662.775     -20491.769      3315.9319     -17175.837      1.0436253    
     54500   303.97975     -639.82123      54908.035     -20552.459      3400.6154     -17151.844      1.0389637    
     55000   302.56957     -526.02131      55028.762     -20487.784      3384.8397     -17102.944      1.0366844    
     55500   305.04859      337.17011      55217.243     -20564.103      3412.5725     -17151.53       1.0331457    
     56000   301.81806      145.89363      54678.043     -20514.559      3376.4326     -17138.127      1.0433339    
     56500   301.2548      -656.0794       54831.303     -20559.929      3370.1315     -17189.798      1.0404177    
     57000   303.62672      466.55952      54902.043     -20622.023      3396.6661     -17225.357      1.0390771    
     57500   299.65243      7.5582608      54731.893     -20535.813      3352.2058     -17183.607      1.0423074    
     58000   296.40161      223.75329      54627.561     -20447.232      3315.8389     -17131.393      1.0442981    
     58500   299.93519      467.79717      55219.364     -20511.06       3355.369      -17155.691      1.033106     
     59000   301.31127     -252.96164      55174.224     -20504.846      3370.7632     -17134.083      1.0339512    
     59500   295.68721     -577.98541      54915.661     -20426.01       3307.847      -17118.163      1.0388195    
     60000   294.35365     -198.99256      54905.904     -20369.995      3292.9284     -17077.067      1.0390041    
     60500   297.07683      440.62487      54997.471     -20422.069      3323.3925     -17098.676      1.0372742    
     61000   296.87591      446.97507      54785.205     -20450.766      3321.1449     -17129.621      1.0412931    
     61500   297.76043     -160.60266      55191.486     -20475.455      3331.04       -17144.415      1.0336279    
     62000   298.01047     -537.79159      55116.973     -20420.796      3333.8372     -17086.959      1.0350252    
     62500   299.34962      145.44058      55217.265     -20396.676      3348.8183     -17047.857      1.0331453    
     63000   302.63614     -57.42          55096.082     -20447.339      3385.5845     -17061.755      1.0354177    
     63500   303.52036      176.13953      54887.475     -20475.674      3395.4762     -17080.198      1.0393529    
     64000   298.97365      400.81056      54733.242     -20408.311      3344.6123     -17063.699      1.0422817    
     64500   302.07636     -110.29587      54857.797     -20519.858      3379.3222     -17140.536      1.0399152    
     65000   307.54585      263.12995      54640.667     -20546.464      3440.5093     -17105.955      1.0440476    
     65500   295.60971      280.47776      54748.056     -20411.526      3306.9799     -17104.546      1.0419997    
     66000   298.31529      281.36286      54815.816     -20471.269      3337.2472     -17134.021      1.0407116    
     66500   299.71742     -741.2694       55129.123     -20476.352      3352.9328     -17123.419      1.0347971    
     67000   293.62743      234.69451      55038.745     -20470.005      3284.8043     -17185.201      1.0364963    
     67500   300.43284      296.02848      54672.168     -20539.277      3360.9362     -17178.341      1.0434461    
     68000   299.51514      36.450858      54557.2       -20504.69       3350.6699     -17154.02       1.0456449    
     68500   300.74411     -654.39667      54897.449     -20552.352      3364.4184     -17187.933      1.0391641    
     69000   304.27795      10.513888      54864.087     -20587.867      3403.9514     -17183.915      1.039796     
     69500   295.4197       857.06802      54981.418     -20498.419      3304.8543     -17193.565      1.0375771    
     70000   298.71489     -864.99263      55399.781     -20504.652      3341.7176     -17162.934      1.0297416    
     70500   298.28092     -380.46084      55444.622     -20453.451      3336.8627     -17116.588      1.0289088    
     71000   301.3568      -205.17392      54974.237     -20506.182      3371.2726     -17134.909      1.0377126    
     71500   292.64046      714.48833      54543.608     -20371.779      3273.763      -17098.016      1.0459055    
     72000   304.01957      101.74326      54634.81      -20478.546      3401.0609     -17077.485      1.0441595    
     72500   299.96685     -98.539136      55005.57      -20457.93       3355.7232     -17102.207      1.0371215    
     73000   303.1216       17.477432      55090.368     -20499.557      3391.0153     -17108.541      1.0355251    
     73500   302.36581     -41.49669       55314.595     -20555.696      3382.5603     -17173.136      1.0313274    
     74000   304.70612      214.2089       55135.242     -20615.128      3408.7413     -17206.387      1.0346823    
     74500   298.7493      -282.01471      55037.193     -20546.612      3342.1025     -17204.51       1.0365256    
     75000   305.30039      947.91562      54746.343     -20574.502      3415.3894     -17159.112      1.0420323    
     75500   297.47289     -258.33238      55049.327     -20442.425      3327.8233     -17114.602      1.0362971    
     76000   306.94404     -5.859105       55314.573     -20552.582      3433.7769     -17118.805      1.0313278    
     76500   296.6215      -171.55694      55183.026     -20450.529      3318.2988     -17132.23       1.0337863    
     77000   303.4673      -67.047175      54774.032     -20526.389      3394.8827     -17131.506      1.0415055    
     77500   300.85448      347.81912      54840.839     -20534.951      3365.6531     -17169.298      1.0402368    
     78000   296.29456      92.11038       55045.471     -20493.676      3314.6414     -17179.035      1.0363697    
     78500   298.8263      -475.43606      55065.392     -20466.64       3342.9638     -17123.676      1.0359948    
     79000   300.67847     -85.06293       54959.945     -20430.103      3363.684      -17066.419      1.0379824    
     79500   298.68056      336.22449      54955.014     -20428.838      3341.3334     -17087.505      1.0380756    
     80000   305.10998      247.30864      55242.305     -20502.879      3413.2593     -17089.62       1.032677     
     80500   295.8916      -369.59909      55564.818     -20374.971      3310.1334     -17064.838      1.0266831    
     81000   301.53102      378.52889      55205.365     -20485.35       3373.2215     -17112.128      1.033368     
     81500   301.7571      -189.2155       54987.414     -20520.289      3375.7506     -17144.538      1.0374639    
     82000   306.36669      599.84917      54893.503     -20546.046      3427.3181     -17118.728      1.0392388    
     82500   299.05881     -172.68517      55390.905     -20515.992      3345.565      -17170.427      1.0299066    
     83000   299.41602      190.08778      55107.517     -20532.851      3349.561      -17183.29       1.0352028    
     83500   302.50805      212.90387      55092.655     -20574.894      3384.1516     -17190.742      1.0354821    
     84000   295.00995     -661.92937      55108.421     -20485.869      3300.2705     -17185.599      1.0351859    
     84500   305.14722      543.16593      54880.996     -20604.076      3413.6759     -17190.4        1.0394756    
     85000   297.54847      117.87573      55372.533     -20484.4        3328.6688     -17155.732      1.0302483    
     85500   301.34628     -325.84857      55272.97      -20485.247      3371.1549     -17114.093      1.0321041    
     86000   303.77052      175.41774      55445.54      -20482.143      3398.2747     -17083.869      1.0288917    
     86500   302.90056     -292.35827      55131.446     -20461.393      3388.5426     -17072.85       1.0347535    
     87000   303.58198      345.27109      55379.484     -20534.76       3396.1656     -17138.594      1.030119     
     87500   297.22454      270.23548      55131.359     -20452.065      3325.045      -17127.02       1.0347552    
     88000   306.55605      265.56244      55106.648     -20518.776      3429.4365     -17089.34       1.0352192    
     88500   299.29862      537.88704      55361.282     -20467.93       3348.2477     -17119.682      1.0304577    
     89000   295.84008      148.22355      55426.899     -20483.202      3309.5571     -17173.645      1.0292378    
     89500   302.85867     -562.08218      55287.528     -20533.64       3388.074      -17145.566      1.0318323    
     90000   293.12129     -296.78643      55004.283     -20452.969      3279.142      -17173.827      1.0371457    
     90500   300.3382       23.162558      54831         -20487.562      3359.8775     -17127.685      1.0404234    
     91000   298.8879      -402.58922      54906.341     -20458.71       3343.653      -17115.057      1.0389958    
     91500   300.70095     -476.19984      55308.138     -20478.669      3363.9355     -17114.733      1.0314478    
     92000   298.29867     -222.60212      55186.759     -20398.496      3337.0613     -17061.435      1.0337164    
     92500   303.80887     -192.35226      55271.193     -20474.213      3398.7037     -17075.509      1.0321373    
     93000   298.23604     -100.99497      54951.342     -20478.261      3336.3606     -17141.9        1.0381449    
     93500   299.9013      -269.88179      54979.517     -20496.813      3354.9899     -17141.823      1.0376129    
     94000   301.54046      433.13046      55052.687     -20525.653      3373.3271     -17152.326      1.0362338    
     94500   296.43435     -120.89929      55081.997     -20419.346      3316.2052     -17103.14       1.0356825    
     95000   295.67155      193.67232      55345.312     -20442.651      3307.6717     -17134.979      1.030755     
     95500   300.47111     -139.4643       55445.98      -20482.424      3361.3643     -17121.06       1.0288836    
     96000   303.1262      -143.7722       55339.753     -20491.331      3391.0667     -17100.265      1.0308586    
     96500   296.7758      -301.31905      55048.504     -20431.42       3320.0249     -17111.395      1.0363126    
     97000   302.91446      283.86653      55135.404     -20547.025      3388.6981     -17158.327      1.0346792    
     97500   301.20269     -243.88126      55135.186     -20531.946      3369.5485     -17162.397      1.0346833    
     98000   305.16002     -370.43268      55320.075     -20539.889      3413.8191     -17126.07       1.0312252    
     98500   298.61515      371.13053      55184         -20452.921      3340.6017     -17112.32       1.0337681    
     99000   301.18886     -24.336342      54766.902     -20480.81       3369.3938     -17111.416      1.0416411    
     99500   300.08875      474.2948       54952.464     -20444.18       3357.0869     -17087.093      1.0381237    
    100000   297.25885      168.74325      54987.947     -20430.803      3325.4289     -17105.374      1.0374538    
    100010   300.19936     -458.71821      54983.156     -20463.483      3358.3242     -17105.159      1.0375443    
Loop time of 1417.88 on 4 procs for 50000 steps with 5541 atoms

Performance: 6.094 ns/day, 3.939 hours/ns, 35.264 timesteps/s, 195.397 katom-step/s
309.2% CPU use with 1 MPI tasks x 4 OpenMP threads

MPI task timing breakdown:
Section |  min time  |  avg time  |  max time  |%varavg| %total
---------------------------------------------------------------
Pair    | 32.418     | 32.418     | 32.418     |   0.0 |  2.29
Bond    | 0.48798    | 0.48798    | 0.48798    |   0.0 |  0.03
Kspace  | 654.97     | 654.97     | 654.97     |   0.0 | 46.19
Neigh   | 0.082654   | 0.082654   | 0.082654   |   0.0 |  0.01
Comm    | 15.033     | 15.033     | 15.033     |   0.0 |  1.06
Output  | 0.048239   | 0.048239   | 0.048239   |   0.0 |  0.00
Modify  | 709.43     | 709.43     | 709.43     |   0.0 | 50.03
Other   |            | 5.409      |            |       |  0.38

Nlocal:           5541 ave        5541 max        5541 min
Histogram: 1 0 0 0 0 0 0 0 0 0
Nghost:          35331 ave       35331 max       35331 min
Histogram: 1 0 0 0 0 0 0 0 0 0
Neighs:              0 ave           0 max           0 min
Histogram: 1 0 0 0 0 0 0 0 0 0

Total # of neighbors = 0
Ave neighs/atom = 0
Ave special neighs/atom = 2.4872767
Neighbor list builds = 4641
Dangerous builds = 0

thermo 1000  # Return to normal frequency

unfix mynpt_ramp
undump ramp_dcd

write_restart pressure_ramp_complete.restart
System init for write_restart ...
PPPM initialization ...
  extracting TIP4P info from pair style
  using 12-bit tables for long-range coulomb
  G vector (1/distance) = 0.28809546
  grid = 50 50 50
  stencil order = 5
  estimated absolute RMS force accuracy = 0.00033386951
  estimated relative force accuracy = 1.0054381e-06
  using double precision FFTW3
  3d grid and FFT values/proc = 205379 125000
Generated 0 of 3 mixed pair_coeff terms from geometric mixing rule
write_data pressure_ramp_complete.data
System init for write_data ...
PPPM initialization ...
  extracting TIP4P info from pair style
  using 12-bit tables for long-range coulomb
  G vector (1/distance) = 0.28809546
  grid = 50 50 50
  stencil order = 5
  estimated absolute RMS force accuracy = 0.00033386951
  estimated relative force accuracy = 1.0054381e-06
  using double precision FFTW3
  3d grid and FFT values/proc = 205379 125000
Generated 0 of 3 mixed pair_coeff terms from geometric mixing rule
WARNING: Not all mixed pair coeffs generated from mixing. Use write_data with 'pair ij' option to store all pair coeffs. (src/write_data.cpp:364)

# ğŸ”§ CHECKPOINT #3: Critical check after ramp (most likely failure point)
variable current_dens equal density
variable current_press equal press
variable current_vol equal vol
variable current_boxsize equal vol^(1.0/3.0)

print ""

print "Pressure ramp complete:"
Pressure ramp complete:
print "  Density:  ${current_dens} g/cmÂ³"
  Density:  1.03754426322978 g/cm³
print "  Pressure: ${current_press} atm"
  Pressure: -458.71820668265 atm
print "  Volume:   ${current_vol} Ã…Â³"
  Volume:   54983.1555509871 …³
print "  Box size: ${current_boxsize} Ã…"
  Box size: 38.0256418694607 …

if "${current_dens} < 0.75" then     "print ''"     "print 'ğŸ”´ CRITICAL ERROR: Density collapsed to ${current_dens} g/cmÂ³!'"     "print ''"     "print 'This means the PPPM artifact occurred despite fixes.'"     "print 'Check equilibration.log for pressure spike around step 75,000-85,000'"     "print ''"     "print 'If pressure exceeded 10,000 atm during ramp:'"     "print '  â†’ PPPM grid still recalculating (increase mesh size)'"     "print '  â†’ Try mesh 50 50 50 or mesh 60 60 60'"     "print ''"     "print 'If pressure stayed < 1,000 atm but density still dropped:'"     "print '  â†’ Initial configuration may be problematic'"     "print '  â†’ Check initial_system.data for pre-existing issues'"     "print ''"     "quit 1"

print "âœ“ Checkpoint 3 PASSED: Pressure ramp successful, liquid phase maintained"
œ“ Checkpoint 3 PASSED: Pressure ramp successful, liquid phase maintained

#==============================================================================
# STAGE 3: NPT Equilibration (Complete 1000 ps with 2-phase strategy)
#==============================================================================
print ""

print "===== STAGE 3: NPT Equilibration (1000 ps, GPU) ====="
===== STAGE 3: NPT Equilibration (1000 ps, GPU) =====
print "Equilibrating at 300K, 1 atm with improved pressure control"
Equilibrating at 300K, 1 atm with improved pressure control
print ""

print "Strategy:"
Strategy:
print "  Phase 1 (400 ps): Higher damping for gentle pressure equilibration"
  Phase 1 (400 ps): Higher damping for gentle pressure equilibration
print "  Phase 2 (600 ps): Standard damping for final equilibration"
  Phase 2 (600 ps): Standard damping for final equilibration
print ""


# Phase 1: Gentle NPT with stronger pressure damping (400 ps)
print "Phase 1: Gentle pressure equilibration (400 ps, pdamp=5000)..."
Phase 1: Gentle pressure equilibration (400 ps, pdamp=5000)...
# ğŸ”§ CRITICAL: Using npt/gpu instead of npt for FULL GPU acceleration
fix mynpt_gentle all npt/gpu temp 300.0 300.0 100.0 iso 1.0 1.0 5000.0

dump npt_traj all custom 2000 npt_equilibration.lammpstrj id type xu yu zu
dump_modify npt_traj sort id

dump npt_dcd all dcd 2000 npt_equilibration.dcd
dump_modify npt_dcd unwrap yes

# Thermodynamic averaging during NPT
fix thermo_avg_npt all ave/time 100 10 1000 v_epsilon_co v_temp v_press v_pe v_ke v_etotal v_vol v_dens     file npt_equilibration_thermo.dat

run 200000  # 400 ps at 2 fs timestep
PPPM initialization ...
  extracting TIP4P info from pair style
  using 12-bit tables for long-range coulomb
  G vector (1/distance) = 0.28809546
  grid = 50 50 50
  stencil order = 5
  estimated absolute RMS force accuracy = 0.00033386951
  estimated relative force accuracy = 1.0054381e-06
  using double precision FFTW3
  3d grid and FFT values/proc = 205379 125000
Generated 0 of 3 mixed pair_coeff terms from geometric mixing rule
Per MPI rank memory allocation (min/avg/max) = 50.64 | 50.64 | 50.64 Mbytes
   Step          Temp          Press          Volume         PotEng         KinEng         TotEng        Density    
    100010   300.19936     -462.9862       54983.156     -20463.507      3358.3242     -17105.183      1.0375443    
    101000   298.2405       121.6195       55049.677     -20373.292      3336.4106     -17036.881      1.0362905    
    102000   292.14701      256.71858      54929.985     -20576.875      3268.2428     -17308.632      1.0385486    
    103000   297.46766      653.03728      54789.761     -20449.327      3327.7648     -17121.562      1.0412065    
    104000   297.53745     -49.347082      55506.838     -20395.642      3328.5456     -17067.097      1.0277555    
    105000   302.48411      390.55788      55093.048     -20384.864      3383.8837     -17000.98       1.0354747    
    106000   293.04133     -14.878065      54540.874     -20654.35       3278.2475     -17376.103      1.0459579    
    107000   289.91246     -680.51374      55697.152     -20470.336      3243.2449     -17227.091      1.0242437    
    108000   302.10264     -22.673412      55356.351     -20627.979      3379.6163     -17248.363      1.0305495    
    109000   298.29075      603.86307      54912.345     -20658.89       3336.9727     -17321.917      1.0388822    
    110000   309.49128     -700.79106      55097.271     -20459.008      3462.2728     -16996.735      1.0353953    
    111000   305.02962      242.52144      54627.087     -20383.256      3412.3603     -16970.896      1.0443072    
    112000   297.78305      271.55348      54456.216     -20501.871      3331.2931     -17170.578      1.0475839    
    113000   298.83063     -815.01159      55295.177     -20418.493      3343.0123     -17075.481      1.0316896    
    114000   297.81138      63.816563      55199.18      -20435.338      3331.61       -17103.728      1.0334838    
    115000   305.56454      475.77136      54878.312     -20365.093      3418.3444     -16946.748      1.0395265    
    116000   300.25338     -314.67415      55530.344     -20437.574      3358.9286     -17078.645      1.0273205    
    117000   302.72652      365.41621      55685.699     -20477.516      3386.5956     -17090.92       1.0244544    
    118000   296.69934     -235.47205      55534.966     -20454.156      3319.1696     -17134.986      1.0272349    
    119000   306.03822     -693.05886      55577.654     -20432.766      3423.6435     -17009.122      1.026446     
    120000   303.37466     -434.6261       55436.327     -20386.099      3393.8463     -16992.253      1.0290627    
    121000   296.93648      564.83401      55151.276     -20517.396      3321.8225     -17195.573      1.0343815    
    122000   298.52181     -39.010137      55447.648     -20394.038      3339.5575     -17054.48       1.0288526    
    123000   297.34339     -151.09022      55232.089     -20553.355      3326.3745     -17226.981      1.032868     
    124000   292.1931      -307.98132      55312.535     -20442.059      3268.7584     -17173.301      1.0313658    
    125000   294.37569     -126.01424      55587.819     -20615.687      3293.175      -17322.512      1.0262582    
    126000   296.84287      447.82892      54862.806     -20553.798      3320.7752     -17233.023      1.0398203    
    127000   296.26599     -276.1936       54718.289     -20570.565      3314.3218     -17256.243      1.0425666    
    128000   298.04845     -415.94757      55463.35      -20499.952      3334.2621     -17165.69       1.0285613    
    129000   309.94636      703.30221      54882.521     -20419.672      3467.3637     -16952.308      1.0394467    
    130000   297.23392      134.02267      54822.234     -20410.326      3325.15       -17085.176      1.0405898    
    131000   301.02285     -200.43977      55265.141     -20327.482      3367.5367     -16959.946      1.0322503    
    132000   299.20102      144.09865      55330.87      -20410.145      3347.1558     -17062.989      1.031024     
    133000   308.79068      458.5082       54656.704     -20570.3        3454.4352     -17115.864      1.0437413    
    134000   298.40217     -204.08125      54720.862     -20490.25       3338.2191     -17152.03       1.0425175    
    135000   297.94092     -439.31916      55567.494     -20348.042      3333.0592     -17014.983      1.0266336    
    136000   298.27234     -525.77596      55588.187     -20319.753      3336.7667     -16982.986      1.0262514    
    137000   296.3309      -832.6385       55210.295     -20524.474      3315.0479     -17209.426      1.0332757    
    138000   298.86504     -125.31831      55048.32      -20571.931      3343.3973     -17228.534      1.0363161    
    139000   297.46083     -222.27268      55182.159     -20437.015      3327.6883     -17109.327      1.0338026    
    140000   299.81532     -53.24762       54803.566     -20619.343      3354.028      -17265.314      1.0409443    
    141000   298.08739     -778.76606      55064.39      -20378.974      3334.6977     -17044.276      1.0360136    
    142000   299.2686       101.89149      54671.582     -20494.812      3347.9118     -17146.9        1.0434572    
    143000   294.24031     -662.9338       55046.405     -20514.158      3291.6604     -17222.497      1.0363521    
    144000   297.84131     -197.70234      55984.981     -20349.332      3331.9448     -17017.388      1.0189779    
    145000   303.13983     -143.29442      54958.987     -20378.738      3391.2192     -16987.519      1.0380005    
    146000   299.95689      494.22295      54709.454     -20396.18       3355.6117     -17040.569      1.0427349    
    147000   299.57656     -185.68614      55241.661     -20501.915      3351.357      -17150.558      1.032689     
    148000   305.14301     -164.91189      55286.703     -20499.303      3413.6288     -17085.674      1.0318477    
    149000   303.54644     -125.96078      55073.816     -20518.975      3395.768      -17123.207      1.0358363    
    150000   294.33611     -298.97123      54932.719     -20545.813      3292.7322     -17253.081      1.0384969    
    151000   302.00245      624.36448      55367.626     -20430.403      3378.4954     -17051.908      1.0303396    
    152000   305.19526      401.95429      55227.433     -20434.652      3414.2133     -17020.439      1.0329551    
    153000   300.25506      255.38913      55258.998     -20517.83       3358.9473     -17158.882      1.032365     
    154000   292.29435      314.68545      55186.492     -20576.238      3269.8911     -17306.347      1.0337214    
    155000   301.14987      592.54524      55754.628     -20459.94       3368.9576     -17090.982      1.0231878    
    156000   299.19206      121.02936      55432.831     -20467.045      3347.0556     -17119.99       1.0291276    
    157000   295.82609      300.33297      55017.222     -20479.827      3309.4005     -17170.426      1.0369018    
    158000   296.32244     -67.746178      55197.15      -20471.187      3314.9532     -17156.234      1.0335218    
    159000   303.30046      802.07306      54869.586     -20507.26       3393.0162     -17114.244      1.0396918    
    160000   294.93638      198.44476      54950.838     -20506.887      3299.4474     -17207.44       1.0381545    
    161000   299.35012      185.67805      54977.496     -20583.72       3348.8238     -17234.896      1.0376511    
    162000   297.45597      136.03845      54982.843     -20526.027      3327.634      -17198.393      1.0375502    
    163000   304.60039      596.45995      55354.476     -20447.847      3407.5585     -17040.289      1.0305844    
    164000   299.09809      238.97207      55648.134     -20483.45       3346.0043     -17137.446      1.0251459    
    165000   301.76707     -176.09844      55216.333     -20479.449      3375.8622     -17103.587      1.0331627    
    166000   295.36481      429.98856      54852.884     -20462.468      3304.2403     -17158.228      1.0400084    
    167000   296.16136     -387.45239      54697.472     -20537.514      3313.1512     -17224.363      1.0429633    
    168000   300.54565      125.884        55056.751     -20499.461      3362.1982     -17137.263      1.0361573    
    169000   303.31663      234.28068      55750.517     -20328.997      3393.1971     -16935.8        1.0232633    
    170000   298.53496     -354.09409      55453.648     -20283.105      3339.7046     -16943.401      1.0287413    
    171000   306.25977      248.97539      55056.7       -20563.048      3426.1219     -17136.926      1.0361583    
    172000   301.90016     -157.56876      55477.807     -20506.252      3377.351      -17128.901      1.0282933    
    173000   295.64785      293.82696      55042.044     -20550.848      3307.4067     -17243.442      1.0364342    
    174000   302.9855       78.607257      55003.145     -20470.563      3389.4928     -17081.07       1.0371672    
    175000   296.69988     -25.236861      55292.742     -20514.662      3319.1757     -17195.486      1.031735     
    176000   300.76577      215.94028      55225.442     -20443.128      3364.6607     -17078.468      1.0329923    
    177000   291.71888      140.0703       55534.303     -20457.738      3263.4533     -17194.285      1.0272472    
    178000   301.2676      -876.74967      55579.453     -20381.654      3370.2747     -17011.38       1.0264127    
    179000   306.4633      -192.8233       54815.1       -20519.016      3428.3989     -17090.617      1.0407252    
    180000   298.45517      74.554576      54633.328     -20391.973      3338.8121     -17053.16       1.0441879    
    181000   298.06522      232.03751      55303.649     -20451.21       3334.4497     -17116.76       1.0315315    
    182000   311.43886     -361.1817       55306.443     -20339.864      3484.0604     -16855.804      1.0314794    
    183000   300.47143     -786.67211      55069.719     -20450.426      3361.3679     -17089.058      1.0359134    
    184000   304.26977      183.84303      55264.373     -20646.248      3403.8599     -17242.388      1.0322646    
    185000   296.34824     -95.630642      55831.895     -20434.269      3315.2418     -17119.027      1.0217718    
    186000   301.49707      377.62133      55431.414     -20356.645      3372.8417     -16983.803      1.0291539    
    187000   300.38085      789.48886      55302.578     -20451.182      3360.3546     -17090.828      1.0315515    
    188000   302.33951      178.57053      55370.009     -20369.885      3382.2661     -16987.618      1.0302953    
    189000   300.02695     -17.008278      54965.804     -20375.763      3356.3955     -17019.367      1.0378718    
    190000   293.53153     -446.59413      55229.828     -20432.214      3283.7314     -17148.483      1.0329103    
    191000   300.9709      -613.59505      55419.874     -20473.124      3366.9555     -17106.168      1.0293682    
    192000   292.43707      163.19572      54694.679     -20519.972      3271.4877     -17248.484      1.0430166    
    193000   301.3671       329.22799      54721.592     -20462.138      3371.3878     -17090.75       1.0425036    
    194000   297.46493     -44.492301      54871.431     -20418.804      3327.7343     -17091.07       1.0396568    
    195000   299.77772      545.83985      54913.804     -20520.896      3353.6074     -17167.289      1.0388546    
    196000   303.40497     -395.36948      55276.58      -20546.884      3394.1854     -17152.698      1.0320367    
    197000   299.20434     -115.88025      55213.542     -20560.558      3347.193      -17213.365      1.033215     
    198000   303.36695     -140.29309      54900.801     -20592.808      3393.76       -17199.048      1.0391006    
    199000   297.54499     -509.05054      55182.471     -20404.39       3328.6299     -17075.76       1.0337967    
    200000   302.58636      868.49301      55198.381     -20542.832      3385.0275     -17157.804      1.0334988    
    201000   297.37268      79.548723      55277.451     -20487.227      3326.7023     -17160.525      1.0320204    
    202000   301.85791      25.355737      55236.607     -20422.979      3376.8785     -17046.101      1.0327835    
    203000   296.2125       66.384194      55036.444     -20569.752      3313.7233     -17256.028      1.0365397    
    204000   298.22872      628.28933      54995.18      -20552.274      3336.2788     -17215.995      1.0373174    
    205000   304.34549     -430.2024       55058.06      -20482.493      3404.7069     -17077.786      1.0361327    
    206000   303.03647      341.81364      55106.846     -20526.273      3390.0629     -17136.21       1.0352154    
    207000   301.13121     -227.06247      55484.405     -20603.741      3368.7489     -17234.992      1.028171     
    208000   296.8467       575.49614      55528.439     -20640.574      3320.8182     -17319.756      1.0273557    
    209000   294.6524      -368.8743       55790.031     -20443.392      3296.2706     -17147.121      1.0225386    
    210000   297.9052       971.85318      54697.475     -20407.52       3332.6595     -17074.86       1.0429633    
    211000   302.22718     -668.5505       55176.123     -20370.115      3381.0095     -16989.105      1.0339157    
    212000   295.23202     -165.55031      55761.909     -20477.527      3302.7547     -17174.772      1.0230543    
    213000   299.39504     -116.57681      55093.246     -20460.167      3349.3263     -17110.84       1.035471     
    214000   302.21046     -30.729683      54673.882     -20494.053      3380.8225     -17113.231      1.0434133    
    215000   295.83783      79.101099      55102.972     -20433.099      3309.5319     -17123.567      1.0352882    
    216000   298.75293     -579.33871      55324.339     -20396.158      3342.1431     -17054.015      1.0311458    
    217000   301.7292       651.36517      55282.515     -20557.83       3375.4385     -17182.392      1.0319259    
    218000   295.49511     -85.27858       55524.038     -20492.367      3305.698      -17186.669      1.0274371    
    219000   305.11202      111.11854      55275.96      -20413.031      3413.2821     -16999.749      1.0320482    
    220000   305.93873     -375.02314      55841.261     -20471.872      3422.5305     -17049.341      1.0216005    
    221000   301.9792      -610.54182      55362.407     -20539.087      3378.2354     -17160.852      1.0304367    
    222000   308.46294      334.17493      54554.263     -20341.251      3450.7687     -16890.482      1.0457012    
    223000   300.89045     -216.5999       55145.729     -20508.67       3366.0555     -17142.615      1.0344855    
    224000   297.52112      37.68318       55098.853     -20466.03       3328.3629     -17137.667      1.0353656    
    225000   300.55544      386.35798      54589.52      -20507.082      3362.3078     -17144.774      1.0450258    
    226000   300.96376     -1039.3295      55541.385     -20404.401      3366.8756     -17037.526      1.0271162    
    227000   296.03403     -360.96262      55263.597     -20545.242      3311.7268     -17233.515      1.0322791    
    228000   298.60727      342.58539      54965.823     -20416.896      3340.5135     -17076.382      1.0378714    
    229000   305.02356      407.30048      55036.607     -20487.745      3412.2925     -17075.453      1.0365366    
    230000   292.92919      117.97359      54898.07      -20478.724      3276.993      -17201.731      1.0391523    
    231000   296.40164      238.85346      54776.771     -20492.249      3315.8392     -17176.41       1.0414535    
    232000   306.71037     -1366.2747      55639.612     -20507.216      3431.1628     -17076.054      1.0253029    
    233000   297.41508      150.55615      55415.886     -20587.324      3327.1766     -17260.147      1.0294423    
    234000   303.33499     -235.23574      55981.729     -20382.327      3393.4026     -16988.924      1.0190371    
    235000   303.56625      331.51566      56039.481     -20530.179      3395.9896     -17134.19       1.0179869    
    236000   293.63331     -496.36266      55304.979     -20592.186      3284.87       -17307.316      1.0315067    
    237000   295.94797     -758.3437       55164.401     -20492.04       3310.764      -17181.276      1.0341354    
    238000   302.29816      251.60428      54882.369     -20328.649      3381.8035     -16946.845      1.0394496    
    239000   296.14087     -219.96905      54937.425     -20565.075      3312.922      -17252.153      1.0384079    
    240000   300.4404      -79.258369      55638.231     -20488.606      3361.0208     -17127.585      1.0253284    
    241000   289.81003     -124.3768       55182.691     -20566.612      3242.099      -17324.513      1.0337926    
    242000   303.85606      109.19342      55327.191     -20478.673      3399.2317     -17079.441      1.0310926    
    243000   299.74493      208.75231      55137.306     -20486.451      3353.2406     -17133.21       1.0346435    
    244000   300.71214     -249.6253       55102.239     -20471.71       3364.0607     -17107.65       1.035302     
    245000   300.50372     -374.68124      55421.746     -20555.151      3361.7292     -17193.422      1.0293335    
    246000   301.35857      156.58676      55312.203     -20464.448      3371.2923     -17093.155      1.031372     
    247000   300.98622      446.1412       54622.552     -20537.03       3367.1269     -17169.903      1.0443939    
    248000   303.19678      47.37107       54773.2       -20604.442      3391.8564     -17212.586      1.0415214    
    249000   293.39795     -359.04372      55541.334     -20435.384      3282.237      -17153.147      1.0271172    
    250000   298.21092     -49.081589      54833.252     -20524.357      3336.0796     -17188.277      1.0403807    
    251000   293.74322     -156.9712       54815.592     -20453.04       3286.0995     -17166.94       1.0407159    
    252000   303.73043      184.17609      54999.576     -20425.38       3397.8263     -17027.553      1.0372345    
    253000   299.79314      133.66885      54808.915     -20538.164      3353.7799     -17184.385      1.0408427    
    254000   297.87223      527.00985      55234.155     -20645.072      3332.2907     -17312.781      1.0328294    
    255000   302.47159      281.8828       55283.346     -20602.721      3383.7436     -17218.978      1.0319104    
    256000   294.46033     -6.1847196      55252.788     -20600.917      3294.1218     -17306.795      1.0324811    
    257000   304.98687      94.105352      55043.02      -20711.044      3411.8821     -17299.162      1.0364158    
    258000   297.5933       490.81915      54529.766     -20527.409      3329.1703     -17198.239      1.046171     
    259000   300.46574      1128.8068      54486.931     -20413.307      3361.3042     -17052.003      1.0469934    
    260000   296.3263      -335.42427      55016.645     -20561.607      3314.9965     -17246.61       1.0369127    
    261000   307.72316      199.42849      55239.492     -20446.911      3442.4929     -17004.418      1.0327296    
    262000   297.33886     -17.631091      55159.197     -20493.956      3326.3239     -17167.632      1.0342329    
    263000   296.87582      596.74692      54913.116     -20531.38       3321.1439     -17210.236      1.0388676    
    264000   299.21591     -589.06559      55774.861     -20483.816      3347.3225     -17136.494      1.0228167    
    265000   298.74749      500.14253      55686.054     -20516.192      3342.0823     -17174.109      1.0244478    
    266000   301.6255       670.17234      54970.192     -20382.615      3374.2785     -17008.336      1.037789     
    267000   299.01768     -404.21288      55153.882     -20600.271      3345.1049     -17255.166      1.0343326    
    268000   298.52948     -132.84654      55183.805     -20467.606      3339.6434     -17127.963      1.0337717    
    269000   299.24266     -354.89344      55058.778     -20444.41       3347.6217     -17096.789      1.0361192    
    270000   301.05295      97.470277      55107.294     -20544.011      3367.8734     -17176.138      1.035207     
    271000   301.97989      80.626709      55334.189     -20553.818      3378.243      -17175.575      1.0309622    
    272000   294.25985     -165.56603      55302.514     -20568.979      3291.8791     -17277.1        1.0315527    
    273000   296.41401     -574.27388      55564.56      -20630.815      3315.9776     -17314.838      1.0266878    
    274000   301.79647      303.96802      55174.606     -20646.551      3376.1911     -17270.36       1.0339441    
    275000   297.63399     -29.924836      55284.756     -20585.631      3329.6255     -17256.006      1.031884     
    276000   301.33501     -323.71495      55401.18      -20420.21       3371.0288     -17049.181      1.0297156    
    277000   297.42006      117.34213      54837.873     -20426.56       3327.2323     -17099.327      1.040293     
    278000   296.69402     -236.70445      55130.638     -20544.392      3319.1101     -17225.282      1.0347687    
    279000   296.92724     -261.23343      56137.971     -20489.792      3321.7191     -17168.073      1.0162009    
    280000   294.2382       691.25567      55010.418     -20460.565      3291.6369     -17168.928      1.0370301    
    281000   296.20514      28.228903      55199.109     -20503.013      3313.641      -17189.372      1.0334851    
    282000   293.96442     -106.92602      55572.065     -20417.452      3288.5741     -17128.878      1.0265492    
    283000   302.44848      160.42864      54962.542     -20577.033      3383.4851     -17193.548      1.0379334    
    284000   304.58021     -647.34695      54977.909     -20479.436      3407.3328     -17072.103      1.0376433    
    285000   304.9801      -264.71604      55300.44      -20555.405      3411.8063     -17143.598      1.0315914    
    286000   303.34656     -17.96695       55603.818     -20494.737      3393.5319     -17101.205      1.025963     
    287000   295.27347      124.00652      54860.604     -20494.495      3303.2184     -17191.276      1.039862     
    288000   291.95884      494.95833      55083.858     -20560.142      3266.1378     -17294.004      1.0356475    
    289000   300.94516     -168.81355      55444.527     -20531.519      3366.6675     -17164.852      1.0289105    
    290000   299.42994     -679.05889      55545.742     -20468.801      3349.7168     -17119.084      1.0270357    
    291000   299.45844     -354.35719      55313.187     -20316.226      3350.0356     -16966.191      1.0313537    
    292000   303.92893     -17.920901      55246.95      -20399.749      3400.0469     -16999.702      1.0325902    
    293000   299.30286     -694.75484      55370.583     -20456.643      3348.2952     -17108.348      1.0302846    
    294000   290.45259      379.07168      55213.588     -20452.68       3249.2874     -17203.392      1.0332141    
    295000   297.16506     -287.27416      54787.919     -20616.086      3324.3796     -17291.706      1.0412416    
    296000   300.92321      467.95129      55065.444     -20454.149      3366.422      -17087.727      1.0359938    
    297000   304.26597     -265.94589      55705.23      -20320.935      3403.8174     -16917.118      1.0240952    
    298000   306.18778      763.78107      54893.052     -20457.255      3425.3166     -17031.939      1.0392473    
    299000   294.51737     -371.02187      54397.854     -20617.289      3294.76       -17322.529      1.0487079    
    300000   303.02713      173.99368      55460.514     -20454.536      3389.9585     -17064.578      1.0286139    
    300010   307.79427     -21.794721      55466.792     -20495.605      3443.2884     -17052.317      1.0284975    
Loop time of 5676.21 on 4 procs for 200000 steps with 5541 atoms

Performance: 6.089 ns/day, 3.942 hours/ns, 35.235 timesteps/s, 195.236 katom-step/s
309.3% CPU use with 1 MPI tasks x 4 OpenMP threads

MPI task timing breakdown:
Section |  min time  |  avg time  |  max time  |%varavg| %total
---------------------------------------------------------------
Pair    | 128.85     | 128.85     | 128.85     |   0.0 |  2.27
Bond    | 1.9863     | 1.9863     | 1.9863     |   0.0 |  0.03
Kspace  | 2625.3     | 2625.3     | 2625.3     |   0.0 | 46.25
Neigh   | 0.33274    | 0.33274    | 0.33274    |   0.0 |  0.01
Comm    | 60.045     | 60.045     | 60.045     |   0.0 |  1.06
Output  | 0.72889    | 0.72889    | 0.72889    |   0.0 |  0.01
Modify  | 2837.1     | 2837.1     | 2837.1     |   0.0 | 49.98
Other   |            | 21.88      |            |       |  0.39

Nlocal:           5541 ave        5541 max        5541 min
Histogram: 1 0 0 0 0 0 0 0 0 0
Nghost:          35177 ave       35177 max       35177 min
Histogram: 1 0 0 0 0 0 0 0 0 0
Neighs:              0 ave           0 max           0 min
Histogram: 1 0 0 0 0 0 0 0 0 0

Total # of neighbors = 0
Ave neighs/atom = 0
Ave special neighs/atom = 2.4872767
Neighbor list builds = 18606
Dangerous builds = 0

unfix mynpt_gentle

variable phase1_dens equal density
variable phase1_press equal press
print ""

print "Phase 1 complete:"
Phase 1 complete:
print "  Density:  ${phase1_dens} g/cmÂ³"
  Density:  1.02849751494139 g/cm³
print "  Pressure: ${phase1_press} atm"
  Pressure: -21.7947207202605 atm
print ""


# Phase 2: Standard NPT damping (600 ps)
print "Phase 2: Final equilibration (600 ps, pdamp=2000)..."
Phase 2: Final equilibration (600 ps, pdamp=2000)...
# ğŸ”§ CRITICAL: Using npt/gpu instead of npt for FULL GPU acceleration
fix mynpt_standard all npt/gpu temp 300.0 300.0 100.0 iso 1.0 1.0 2000.0

run 300000  # 600 ps at 2 fs timestep
PPPM initialization ...
  extracting TIP4P info from pair style
  using 12-bit tables for long-range coulomb
  G vector (1/distance) = 0.28794086
  grid = 50 50 50
  stencil order = 5
  estimated absolute RMS force accuracy = 0.00033666664
  estimated relative force accuracy = 1.0138616e-06
  using double precision FFTW3
  3d grid and FFT values/proc = 205379 125000
Generated 0 of 3 mixed pair_coeff terms from geometric mixing rule
Per MPI rank memory allocation (min/avg/max) = 53.19 | 53.19 | 53.19 Mbytes
   Step          Temp          Press          Volume         PotEng         KinEng         TotEng        Density    
    300010   307.79427     -15.193395      55466.792     -20495.608      3443.2884     -17052.32       1.0284975    
    301000   300.34144     -137.99016      55423.622     -20348.32       3359.9138     -16988.407      1.0292986    
    302000   299.84537      544.29059      54900.233     -20537.778      3354.3642     -17183.414      1.0391114    
    303000   293.54393     -373.48682      55033.733     -20429.416      3283.8702     -17145.546      1.0365907    
    304000   310.06014      281.98279      54447.35      -20436.462      3468.6366     -16967.825      1.0477545    
    305000   304.63873     -412.28546      55157.715     -20522.985      3407.9874     -17114.998      1.0342607    
    306000   303.84599      385.58409      55809.776     -20508.643      3399.119      -17109.524      1.0221768    
    307000   297.44822      542.72299      55011.096     -20470.684      3327.5474     -17143.137      1.0370173    
    308000   302.06595      99.917866      55228.015     -20484.563      3379.2058     -17105.357      1.0329442    
    309000   303.8112       361.26072      55511.183     -20569.131      3398.7299     -17170.401      1.027675     
    310000   303.03117      157.50558      54785.924     -20579.377      3390.0037     -17189.374      1.0412795    
    311000   293.03992     -240.28184      55597.671     -20480.087      3278.2318     -17201.856      1.0260764    
    312000   293.76702      767.01345      54883.796     -20332.458      3286.3658     -17046.092      1.0394226    
    313000   291.36587      132.9433       55237.252     -20427.451      3259.5042     -17167.946      1.0327715    
    314000   303.12003      350.01425      55289.453     -20424.293      3390.9977     -17033.295      1.0317964    
    315000   297.58962     -726.61814      54535.802     -20463.417      3329.1292     -17134.288      1.0460552    
    316000   292.05143     -395.59055      55429.001     -20355.777      3267.1735     -17088.603      1.0291987    
    317000   298.78004      461.58237      55290.074     -20513.138      3342.4464     -17170.691      1.0317848    
    318000   295.87203      502.87844      54971.389     -20507.573      3309.9145     -17197.658      1.0377663    
    319000   305.29482      922.26937      54897.772     -20520.082      3415.327      -17104.754      1.039158     
    320000   302.05353      197.94761      55061.258     -20588.142      3379.0668     -17209.076      1.0360725    
    321000   295.76096      442.38676      55164.43      -20418.665      3308.672      -17109.993      1.0341348    
    322000   300.45855     -222.55741      55287.098     -20452.266      3361.2238     -17091.043      1.0318403    
    323000   300.61077     -90.417283      55086.669     -20360.784      3362.9267     -16997.858      1.0355946    
    324000   298.41563      50.966847      55679.113     -20544.326      3338.3698     -17205.956      1.0245755    
    325000   296.09194     -471.36677      55373.007     -20580.235      3312.3746     -17267.86       1.0302395    
    326000   296.64478      369.17585      54831.114     -20528.586      3318.5592     -17210.027      1.0404213    
    327000   297.87045      248.38706      55572.315     -20572.379      3332.2708     -17240.108      1.0265446    
    328000   299.38734     -186.77611      55287.536     -20566.824      3349.2402     -17217.584      1.0318322    
    329000   290.94757     -201.99585      55030.462     -20369.633      3254.8246     -17114.809      1.0366523    
    330000   298.79139     -263.61075      54850.488     -20497.567      3342.5733     -17154.994      1.0400538    
    331000   296.55541      508.79525      55374.865     -20509.311      3317.5595     -17191.752      1.0302049    
    332000   296.11254     -170.71159      54815.692     -20456.692      3312.6051     -17144.087      1.040714     
    333000   298.28919      678.02718      55061.733     -20637.526      3336.9552     -17300.57       1.0360636    
    334000   301.81342      66.427947      54698.051     -20484.771      3376.3807     -17108.39       1.0429523    
    335000   300.16475     -404.35688      55527.871     -20471.56       3357.9371     -17113.623      1.0273662    
    336000   302.94676     -433.40558      55094.581     -20577.239      3389.0594     -17188.18       1.0354459    
    337000   300.53069     -23.223504      55235.222     -20451.639      3362.0308     -17089.608      1.0328094    
    338000   298.47657      244.39055      55083.181     -20388.013      3339.0515     -17048.961      1.0356602    
    339000   295.57045     -695.1875       55716.833     -20445.944      3306.5407     -17139.403      1.0238819    
    340000   306.23737     -786.34791      55581.44      -20448.891      3425.8714     -17023.019      1.026376     
    341000   291.04266     -79.932028      55507.424     -20398.217      3255.8884     -17142.328      1.0277446    
    342000   300.71119      161.76337      55156.263     -20445.195      3364.0502     -17081.145      1.0342879    
    343000   291.28776     -186.37274      55618.143     -20339.181      3258.6303     -17080.55       1.0256987    
    344000   300.27277     -357.74055      55157.398     -20447.54       3359.1455     -17088.394      1.0342667    
    345000   292.67256      211.72994      55031.197     -20382.747      3274.1221     -17108.625      1.0366385    
    346000   301.73912      168.67995      55046.749     -20389.965      3375.5495     -17014.415      1.0363456    
    347000   298.62233     -422.79913      55422.121     -20478.717      3340.6821     -17138.035      1.0293265    
    348000   298.74568     -775.29485      55938.855     -20510.941      3342.062      -17168.879      1.0198181    
    349000   296.91368     -694.70995      55820.592     -20353.954      3321.5674     -17032.387      1.0219787    
    350000   304.43151     -16.117056      54827.233     -20531.589      3405.6693     -17125.919      1.0404949    
    351000   300.8961       414.27117      54277.172     -20531.059      3366.1187     -17164.94       1.0510396    
    352000   300.2523       120.87879      55291.871     -20541.752      3358.9165     -17182.836      1.0317513    
    353000   300.23727      401.22296      54726.656     -20576.571      3358.7483     -17217.823      1.0424071    
    354000   302.21564     -319.96042      55338.472     -20573.546      3380.8803     -17192.666      1.0308824    
    355000   300.85924     -336.20848      55020.387     -20437.453      3365.7064     -17071.747      1.0368422    
    356000   296.72736      26.940379      54847.614     -20579.01       3319.4831     -17259.527      1.0401083    
    357000   296.938        399.87725      55043.529     -20497.89       3321.8395     -17176.05       1.0364063    
    358000   300.11862     -779.26804      55311.559     -20538.989      3357.4211     -17181.568      1.031384     
    359000   294.94912      360.63855      54838.619     -20475.865      3299.59       -17176.275      1.0402789    
    360000   303.69219     -359.29103      55210.297     -20446.785      3397.3985     -17049.387      1.0332757    
    361000   295.77999      664.21318      54973.542     -20365.559      3308.8848     -17056.674      1.0377257    
    362000   302.76426     -481.56494      55113.972     -20413.355      3387.0177     -17026.337      1.0350816    
    363000   296.12131      22.92432       54764.031     -20474.888      3312.7033     -17162.185      1.0416957    
    364000   304.13355     -166.87007      54975.981     -20442.36       3402.336      -17040.024      1.0376797    
    365000   299.65491     -177.07895      55687.61      -20500.719      3352.2335     -17148.486      1.0244192    
    366000   294.29038     -211.60091      55015.105     -20481.263      3292.2206     -17189.043      1.0369417    
    367000   298.01212     -151.7858       54539.949     -20463.649      3333.8557     -17129.794      1.0459756    
    368000   302.89366      732.97858      55075.547     -20360.782      3388.4654     -16972.316      1.0358037    
    369000   291.40981     -638.79292      55330.677     -20532.916      3259.9958     -17272.921      1.0310276    
    370000   302.95779      315.55473      54850.624     -20398.487      3389.1828     -17009.304      1.0400512    
    371000   303.65835     -363.93197      55654.342     -20525.72       3397.0199     -17128.7        1.0250316    
    372000   301.869       -249.05877      55174.097     -20564.885      3377.0025     -17187.882      1.0339536    
    373000   294.9768      -83.249349      55243.899     -20428.058      3299.8996     -17128.159      1.0326472    
    374000   297.79396      66.476644      55820.286     -20419.363      3331.4151     -17087.947      1.0219843    
    375000   303.18865      21.444172      55816.446     -20502.318      3391.7654     -17110.553      1.0220546    
    376000   300.94553     -412.91332      55250.323     -20438.34       3366.6717     -17071.668      1.0325271    
    377000   304.68418      500.76344      54875.031     -20441.236      3408.4958     -17032.74       1.0395886    
    378000   302.77913     -331.09049      55030.919     -20527.913      3387.1841     -17140.729      1.0366437    
    379000   305.80521      720.65791      55072.825     -20464.954      3421.0368     -17043.917      1.0358549    
    380000   298.60872     -364.26042      54838.343     -20459.373      3340.5298     -17118.843      1.0402841    
    381000   304.69203     -454.12142      55609.127     -20384.266      3408.5837     -16975.682      1.025865     
    382000   293.30637      313.92225      55647.237     -20440.261      3281.2126     -17159.048      1.0251624    
    383000   305.62337      525.63249      54868         -20579.311      3419.0025     -17160.309      1.0397218    
    384000   290.14854      28.499616      54616.48      -20424.911      3245.886      -17179.025      1.04451      
    385000   299.03062      481.78261      55503.362     -20372.88       3345.2496     -17027.63       1.0278199    
    386000   302.38402      256.17578      55075.013     -20389.612      3382.764      -17006.848      1.0358138    
    387000   301.65376     -289.81873      55249.78      -20382.571      3374.5946     -17007.976      1.0325373    
    388000   292.50869      177.62464      55109.505     -20446.042      3272.2889     -17173.753      1.0351655    
    389000   299.97343      41.942779      54938.278     -20453.827      3355.7968     -17098.03       1.0383918    
    390000   296.40159     -15.540859      55065.44      -20362.544      3315.8387     -17046.705      1.0359939    
    391000   301.63738      172.48677      55278.613     -20410.886      3374.4114     -17036.474      1.0319987    
    392000   298.81109     -25.514282      54735.45      -20516.521      3342.7937     -17173.727      1.0422397    
    393000   300.79991     -305.58043      55201.656     -20470.564      3365.0427     -17105.521      1.0334374    
    394000   295.37644      408.00412      54585.862     -20644.183      3304.3704     -17339.813      1.0450959    
    395000   302.51268      209.34533      55133.408     -20635.591      3384.2033     -17251.387      1.0347167    
    396000   298.63341      856.04771      55116.755     -20461.484      3340.806      -17120.678      1.0350293    
    397000   299.88971     -261.06293      54895.43      -20588.37       3354.8602     -17233.51       1.0392023    
    398000   294.64335      652.85231      55497.461     -20490.401      3296.1692     -17194.232      1.0279291    
    399000   303.62924      1069.1139      54893.834     -20539.87       3396.6942     -17143.176      1.0392325    
    400000   293.97295      325.0698       55025.672     -20529.463      3288.6696     -17240.793      1.0367426    
    401000   301.92108     -222.06971      55196.112     -20445.915      3377.5851     -17068.33       1.0335412    
    402000   295.90651      36.352746      55426.633     -20542.262      3310.3003     -17231.962      1.0292427    
    403000   295.09279      576.98633      54801.393     -20462.87       3301.1972     -17161.673      1.0409855    
    404000   295.61341     -223.51304      55474.027     -20587.586      3307.0213     -17280.565      1.0283634    
    405000   299.7052       97.498847      55315.119     -20512.095      3352.7961     -17159.299      1.0313176    
    406000   309.35756      65.97153       55115.714     -20464.832      3460.7769     -17004.055      1.0350489    
    407000   304.53179     -277.50443      55111.728     -20445.031      3406.7911     -17038.239      1.0351237    
    408000   302.55833      536.35312      54723.254     -20419.366      3384.714      -17034.652      1.042472     
    409000   294.64935     -826.41516      54740.537     -20614.311      3296.2364     -17318.074      1.0421428    
    410000   296.17483     -185.81574      54955.616     -20543.722      3313.302      -17230.421      1.0380642    
    411000   298.96159     -212.58751      55630.127     -20437.357      3344.4773     -17092.88       1.0254778    
    412000   299.03579      246.7975       55421.786     -20379.854      3345.3074     -17034.547      1.0293327    
    413000   302.59034     -605.92175      55565.243     -20455.726      3385.0721     -17070.654      1.0266752    
    414000   298.2776      -417.4919       55783.566     -20488.589      3336.8256     -17151.763      1.0226571    
    415000   296.94434     -730.72765      55048.78      -20544.294      3321.9105     -17222.384      1.0363074    
    416000   303.02289      271.54375      55523.201     -20465.14       3389.9111     -17075.229      1.0274526    
    417000   297.83035      297.59619      55361.131     -20557.73       3331.8222     -17225.908      1.0304605    
    418000   305.89695      531.10157      55238.472     -20420.23       3422.0631     -16998.167      1.0327486    
    419000   307.5677      -77.756707      55216.341     -20504.896      3440.7538     -17064.142      1.0331626    
    420000   297.29778      90.801185      54579.837     -20493.883      3325.8644     -17168.018      1.0452112    
    421000   294.38296      105.42688      54516.333     -20492.565      3293.2564     -17199.308      1.0464287    
    422000   296.58376     -7.6429846      54796.49      -20388.119      3317.8767     -17070.242      1.0410787    
    423000   299.53956     -768.09217      54801.851     -20547.069      3350.9431     -17196.126      1.0409768    
    424000   299.75246      349.47239      55119.465     -20442.296      3353.3248     -17088.971      1.0349784    
    425000   298.80774      638.50213      55696.145     -20411.828      3342.7563     -17069.072      1.0242622    
    426000   295.28326     -933.48043      55408.136     -20464.691      3303.328      -17161.363      1.0295863    
    427000   299.40574      682.05172      54887.559     -20388.33       3349.4461     -17038.884      1.0393513    
    428000   301.77596      924.87044      54987.456     -20498.931      3375.9617     -17122.969      1.0374631    
    429000   300.12817      33.724882      55299.243     -20526.527      3357.5279     -17168.999      1.0316137    
    430000   303.6835      -606.38726      54411.855     -20532.093      3397.3013     -17134.791      1.048438     
    431000   297.71686     -169.37773      55231.407     -20386.158      3330.5526     -17055.605      1.0328808    
    432000   292.87475     -238.31825      55232.605     -20495.831      3276.384      -17219.447      1.0328583    
    433000   297.66968     -518.66649      55343.147     -20503.461      3330.0248     -17173.436      1.0307953    
    434000   296.64382      107.42573      54570.073     -20500.37       3318.5485     -17181.821      1.0453982    
    435000   301.2806      -670.93918      55257.346     -20497.571      3370.4201     -17127.151      1.0323959    
    436000   298.91626      56.203421      55474.816     -20482.536      3343.9703     -17138.566      1.0283487    
    437000   301.32598      250.63185      54894.705     -20545.49       3370.9278     -17174.562      1.039216     
    438000   300.69898      235.47668      54983.869     -20495.55       3363.9135     -17131.636      1.0375308    
    439000   312.30895      225.38876      55054.389     -20387.394      3493.794      -16893.6        1.0362018    
    440000   297.61713     -892.10929      55331.091     -20497.123      3329.4369     -17167.686      1.0310199    
    441000   300.62367     -35.277779      55312.56      -20376.595      3363.0711     -17013.524      1.0313653    
    442000   301.04535     -286.79922      54835.915     -20517.627      3367.7884     -17149.839      1.0403302    
    443000   300.57489      490.50545      54514.516     -20529.659      3362.5253     -17167.134      1.0464636    
    444000   295.44533      312.91262      55234.972     -20463.439      3305.141      -17158.298      1.0328141    
    445000   301           -72.829345      55392.214     -20608.662      3367.2811     -17241.381      1.0298822    
    446000   299.92032      41.740739      55062.207     -20630.65       3355.2026     -17275.447      1.0360547    
    447000   302.0891      -660.46912      55633.827     -20444.722      3379.4648     -17065.257      1.0254096    
    448000   303.27969     -283.47528      55274.291     -20351.371      3392.7838     -16958.587      1.0320794    
    449000   292.8148      -37.431654      54867.547     -20427.696      3275.7134     -17151.983      1.0397304    
    450000   301.67847      236.11043      54781.54      -20510.835      3374.871      -17135.964      1.0413628    
    451000   295.08554      713.29632      54769.798     -20569.789      3301.1161     -17268.673      1.041586     
    452000   293.9194      -57.959951      55184.414     -20470.139      3288.0705     -17182.068      1.0337603    
    453000   303.72051      501.66268      54850.466     -20373.682      3397.7153     -16975.967      1.0400542    
    454000   300.93875     -680.1398       55624.523     -20418.75       3366.5958     -17052.155      1.0255811    
    455000   303.80699     -235.53712      55160.421     -20590.339      3398.6827     -17191.657      1.03421      
    456000   301.94899      37.232542      55022.872     -20476.438      3377.8973     -17098.541      1.0367953    
    457000   302.99361      116.07593      55485.67      -20560.9        3389.5835     -17171.317      1.0281476    
    458000   302.98186     -707.46375      55618.811     -20310.577      3389.452      -16921.125      1.0256864    
    459000   301.52731     -288.63406      55958.316     -20479.092      3373.18       -17105.912      1.0194634    
    460000   305.0079       592.93878      55320.967     -20586.618      3412.1173     -17174.501      1.0312086    
    461000   298.4121       33.306756      54669.939     -20389.682      3338.3302     -17051.352      1.0434886    
    462000   302.0193       306.79418      55381.498     -20421.452      3378.684      -17042.768      1.0300815    
    463000   296.46571      448.89032      55026.442     -20568.759      3316.5561     -17252.202      1.0367281    
    464000   300.33335     -1165.8035      55626.233     -20647.286      3359.8233     -17287.463      1.0255495    
    465000   297.12372      534.44775      55192.548     -20491.132      3323.9171     -17167.214      1.033608     
    466000   306.12699      299.43452      55016.225     -20480.144      3424.6366     -17055.508      1.0369206    
    467000   300.38359      410.96079      55532.309     -20530.007      3360.3853     -17169.621      1.0272841    
    468000   297.38405      178.14568      55316.788     -20562.572      3326.8295     -17235.742      1.0312865    
    469000   299.64646      511.27435      55412.039     -20521.911      3352.139      -17169.772      1.0295138    
    470000   299.24631     -403.33839      55580.003     -20473.217      3347.6625     -17125.555      1.0264026    
    471000   304.15293     -304.81233      55021.828     -20320.813      3402.5528     -16918.26       1.036815     
    472000   301.22798     -87.26109       54740.648     -20428.067      3369.8314     -17058.236      1.0421407    
    473000   300.82185      155.62113      55134.038     -20525.272      3365.2881     -17159.983      1.0347049    
    474000   303.26777     -138.30294      55413.008     -20485.845      3392.6505     -17093.195      1.0294958    
    475000   297.55294     -110.35657      55454.402     -20490.05       3328.7189     -17161.332      1.0287273    
    476000   292.71415     -68.591381      55088.408     -20533.614      3274.5874     -17259.027      1.0355619    
    477000   293.33279     -248.62122      55318.591     -20615.917      3281.5081     -17334.409      1.0312529    
    478000   299.79948     -593.88971      55007.471     -20596.799      3353.8508     -17242.949      1.0370856    
    479000   299.34702      64.950697      55308.088     -20302.26       3348.7891     -16953.471      1.0314487    
    480000   294.23235      485.09326      55471.604     -20550.158      3291.5714     -17258.587      1.0284083    
    481000   306.42963      79.356156      55306.547     -20437.884      3428.0222     -17009.861      1.0314775    
    482000   298.16887     -446.07645      55494.64      -20464.249      3335.6092     -17128.64       1.0279814    
    483000   300.23182      834.95234      54724.727     -20482.737      3358.6874     -17124.05       1.0424439    
    484000   303.52475      454.62346      55292.515     -20414.575      3395.5254     -17019.05       1.0317393    
    485000   303.17871      121.20315      54632.779     -20440.932      3391.6542     -17049.277      1.0441983    
    486000   300.08078      464.74548      54787.027     -20594.308      3356.9977     -17237.31       1.0412585    
    487000   302.01981      229.2367       55007.935     -20474.242      3378.6896     -17095.553      1.0370769    
    488000   298.28673      345.82305      54780.147     -20505.254      3336.9277     -17168.326      1.0413893    
    489000   302.21697     -123.24514      55599.393     -20443.548      3380.8953     -17062.653      1.0260446    
    490000   296.50753      61.435427      55049.848     -20397.94       3317.0239     -17080.916      1.0362873    
    491000   298.31885      605.00055      55003.415     -20377.53       3337.2871     -17040.243      1.0371621    
    492000   297.05128     -296.11204      54912.597     -20561.79       3323.1068     -17238.683      1.0388774    
    493000   301.92392     -402.72131      55277.878     -20385.346      3377.6168     -17007.729      1.0320124    
    494000   296.82064     -293.34435      54862.328     -20619.445      3320.5266     -17298.918      1.0398293    
    495000   299.7288      -417.46737      55569.259     -20496.486      3353.0602     -17143.426      1.026601     
    496000   295.98794      149.45296      55381.978     -20428.96       3311.2112     -17117.749      1.0300726    
    497000   300.14359      526.56502      55952.024     -20429.233      3357.7003     -17071.533      1.0195781    
    498000   305.73015     -561.67655      55719.114     -20481.903      3420.1971     -17061.705      1.02384      
    499000   295.52584      290.50183      54946.123     -20550.571      3306.0417     -17244.53       1.0382436    
    500000   296.49681      241.18195      55034.33      -20534.297      3316.9039     -17217.393      1.0365795    
    501000   291.52605      28.849103      55034.25      -20491.069      3261.2962     -17229.773      1.036581     
    502000   303.01156     -385.89682      55386.419     -20430.717      3389.7843     -17040.933      1.02999      
    503000   298.70926     -171.50956      55159.636     -20577.432      3341.6545     -17235.777      1.0342247    
    504000   296.86478      160.71719      55830.013     -20466.759      3321.0204     -17145.739      1.0218063    
    505000   305.34387     -16.940882      55041.195     -20421.862      3415.8758     -17005.986      1.0364502    
    506000   296.34044     -58.395703      54632.494     -20326.718      3315.1546     -17011.564      1.0442038    
    507000   296.50804     -438.20869      54957.904     -20506.128      3317.0295     -17189.098      1.038021     
    508000   302.74162      393.85042      55266.956     -20487.301      3386.7645     -17100.537      1.0322164    
    509000   302.87801      854.16973      54744.396     -20487.032      3388.2903     -17098.742      1.0420694    
    510000   298.93351      287.77805      55323.546     -20361.609      3344.1633     -17017.445      1.0311605    
    511000   299.54098     -70.850634      55329.521     -20568.698      3350.9589     -17217.739      1.0310492    
    512000   296.95196     -712.56878      55545.543     -20550.825      3321.9956     -17228.829      1.0270393    
    513000   298.91414     -419.76507      55566.858     -20479.829      3343.9465     -17135.882      1.0266454    
    514000   306.00103      224.25558      55017.037     -20487.132      3423.2274     -17063.904      1.0369053    
    515000   298.1303       639.4704       54800.342     -20700.44       3335.1777     -17365.263      1.0410055    
    516000   299.97609     -150.09026      55513.344     -20520.579      3355.8265     -17164.753      1.027635     
    517000   304.66684     -643.79826      55679.304     -20555.39       3408.3019     -17147.088      1.024572     
    518000   305.47088      151.59694      55413.325     -20507.021      3417.2966     -17089.724      1.0294899    
    519000   303.00499      390.47377      55287.751     -20417.943      3389.7108     -17028.232      1.0318281    
    520000   290.74724      254.42066      54843.507     -20426.657      3252.5836     -17174.073      1.0401862    
    521000   305.6459       17.482653      55261.15      -20495.092      3419.2546     -17075.837      1.0323248    
    522000   306.23136      168.88881      55125.321     -20500.087      3425.8041     -17074.283      1.0348685    
    523000   301.29437      228.6128       55314.485     -20380.715      3370.5741     -17010.141      1.0313294    
    524000   298.4333      -40.767793      55585.601     -20440.883      3338.5674     -17102.316      1.0262992    
    525000   299.91108      920.47557      54156.858     -20469.865      3355.0993     -17114.765      1.0533746    
    526000   290.40787      560.10536      55023.943     -20357.602      3248.7871     -17108.815      1.0367752    
    527000   303.68072      299.96523      54684.266     -20518.938      3397.2702     -17121.668      1.0432152    
    528000   307.10226      167.26946      54413.232     -20465.288      3435.5469     -17029.741      1.0484115    
    529000   299.89209     -433.66577      55108.933     -20401.626      3354.8868     -17046.739      1.0351762    
    530000   305.00061      365.7339       55343.753     -20472.994      3412.0358     -17060.958      1.030784     
    531000   304.11607     -39.809156      55283.726     -20485.991      3402.1404     -17083.85       1.0319033    
    532000   300.00261      176.89357      55267.541     -20420.477      3356.1232     -17064.353      1.0322055    
    533000   301.21926     -2.1567031      54961.676     -20485.193      3369.7339     -17115.46       1.0379497    
    534000   296.48691      352.05825      55280.999     -20615.724      3316.7932     -17298.931      1.0319542    
    535000   293.84473     -81.454004      54738.108     -20453.627      3287.2352     -17166.392      1.0421891    
    536000   301.75647     -91.370379      55325.277     -20527.286      3375.7436     -17151.542      1.0311283    
    537000   296.26012     -7.3525841      54928.853     -20478.288      3314.2561     -17164.032      1.03857      
    538000   299.59654     -335.03012      55226.362     -20463.063      3351.5806     -17111.482      1.0329751    
    539000   297.22283      1247.7215      54960.794     -20522.023      3325.0259     -17196.997      1.0379664    
    540000   303.38377      411.32452      54839.116     -20560.442      3393.9483     -17166.493      1.0402695    
    541000   300.38706      932.2059       54661.255     -20538.819      3360.4241     -17178.395      1.0436544    
    542000   295.98771     -164.24176      55177.131     -20556.805      3311.2086     -17245.596      1.0338968    
    543000   295.30719     -995.65444      55822.06      -20537.858      3303.5956     -17234.263      1.0219518    
    544000   296.49707      1361.1631      55267.026     -20554.233      3316.9069     -17237.327      1.0322151    
    545000   297.44618      172.66351      54751.302     -20439.074      3327.5245     -17111.55       1.0419379    
    546000   301.2593       70.24264       55052.352     -20472.29       3370.1818     -17102.108      1.0362402    
    547000   302.71848      581.42343      54827.187     -20587.903      3386.5056     -17201.398      1.0404958    
    548000   297.61049      649.46429      54846.495     -20475.249      3329.3626     -17145.887      1.0401295    
    549000   296.19836      416.35821      54714.19      -20463.661      3313.5651     -17150.096      1.0426447    
    550000   299.34586     -811.61627      54744.745     -20470.789      3348.7762     -17122.013      1.0420627    
    551000   299.27778     -536.10825      55023.693     -20499.098      3348.0145     -17151.083      1.0367799    
    552000   299.47668     -237.53606      54615.176     -20502.592      3350.2397     -17152.353      1.0445349    
    553000   309.33401     -275.19528      54795.062     -20434.172      3460.5135     -16973.659      1.0411058    
    554000   292.89909     -335.50248      55399.537     -20463.172      3276.6563     -17186.515      1.0297461    
    555000   301.3698      -275.56005      55745.861     -20561.02       3371.418      -17189.602      1.0233488    
    556000   302.203       -300.31276      55585.901     -20376.062      3380.739      -16995.323      1.0262937    
    557000   303.21375     -224.96788      55117.94      -20542.592      3392.0461     -17150.546      1.0350071    
    558000   298.94984      508.18866      54769.934     -20544.01       3344.3459     -17199.664      1.0415835    
    559000   295.58203      238.58633      54923.772     -20402.522      3306.6703     -17095.851      1.0386661    
    560000   301.78018     -304.54383      55133         -20588.238      3376.0088     -17212.229      1.0347243    
    561000   309.78851     -399.17281      54883.51      -20585.588      3465.598      -17119.99       1.039428     
    562000   304.27339     -870.84828      55146.739     -20416.985      3403.9003     -17013.084      1.0344666    
    563000   293.14849     -513.84409      55367.412     -20383.412      3279.4463     -17103.965      1.0303436    
    564000   300.97088      176.88945      55561.469     -20441.242      3366.9552     -17074.287      1.026745     
    565000   299.58304      161.39829      55168.004     -20451.027      3351.4295     -17099.597      1.0340678    
    566000   302.2592       800.03419      54773.547     -20376.015      3381.3677     -16994.647      1.0415148    
    567000   303.51473      659.06234      54919.905     -20476.768      3395.4132     -17081.354      1.0387392    
    568000   298.36587     -202.93577      54869.932     -20532.751      3337.8131     -17194.938      1.0396852    
    569000   296.59999      194.93688      54914.958     -20580.381      3318.0582     -17262.323      1.0388328    
    570000   297.81595     -22.01786       55383.759     -20391.243      3331.6611     -17059.582      1.0300395    
    571000   297.70921      998.39753      54661.255     -20435.897      3330.467      -17105.43       1.0436544    
    572000   298.479        122.41149      54724.353     -20624.637      3339.0787     -17285.558      1.042451     
    573000   304.3016      -435.12773      55299.122     -20449.519      3404.216      -17045.303      1.031616     
    574000   300.73745      30.116097      55839.563     -20413.967      3364.3439     -17049.623      1.0216315    
    575000   304.54427      439.90946      55078.704     -20422.537      3406.9307     -17015.607      1.0357444    
    576000   297.45519      92.032105      54639.598     -20482.097      3327.6253     -17154.472      1.044068     
    577000   301.70876     -387.56761      54945.407     -20399.947      3375.2099     -17024.737      1.0382571    
    578000   299.23712      709.06393      55051.517     -20521.548      3347.5597     -17173.988      1.0362559    
    579000   307.0943       375.64836      55369.596     -20524.083      3435.4578     -17088.625      1.0303029    
    580000   298.14058      1068.1525      54963.962     -20594.835      3335.2927     -17259.542      1.0379066    
    581000   305.68033      279.769        54737.25      -20548.6        3419.6398     -17128.96       1.0422054    
    582000   300.76851      650.15028      55279.452     -20435.817      3364.6913     -17071.125      1.0319831    
    583000   295.64288      316.84198      55520.878     -20505.747      3307.351      -17198.396      1.0274956    
    584000   296.71869     -59.74475       55246.985     -20333.676      3319.386      -17014.29       1.0325895    
    585000   293.28245     -270.70787      55316.83      -20396.096      3280.945      -17115.151      1.0312857    
    586000   295.99719      850.28629      54761.896     -20264.673      3311.3147     -16953.358      1.0417363    
    587000   295.89663      701.56219      54928.512     -20482.447      3310.1897     -17172.257      1.0385764    
    588000   306.48338     -365.35706      55371.32      -20456.345      3428.6235     -17027.721      1.0302709    
    589000   298.23762      303.66233      54678.212     -20394.202      3336.3783     -17057.823      1.0433307    
    590000   298.90689     -615.77023      55770.035     -20404.234      3343.8654     -17060.368      1.0229052    
    591000   298.53895     -87.243216      54870.097     -20435.011      3339.7493     -17095.262      1.0396821    
    592000   301.99888     -125.03151      55141.303     -20532.433      3378.4554     -17153.977      1.0345685    
    593000   300.20991      84.821907      54649.068     -20485.723      3358.4423     -17127.281      1.0438871    
    594000   305.64922     -888.06141      55386.297     -20538.39       3419.2918     -17119.098      1.0299923    
    595000   295.6933       230.60742      55445.664     -20501.828      3307.9151     -17193.913      1.0288894    
    596000   302.39169      188.85751      54981.701     -20513.871      3382.8498     -17131.021      1.0375717    
    597000   301.64277     -6.2534855      55123.066     -20541.839      3374.4716     -17167.367      1.0349108    
    598000   301.49157      183.74572      55614.822     -20601.023      3372.7802     -17228.243      1.02576      
    599000   295.80431     -213.60051      55050.253     -20573.705      3309.1569     -17264.548      1.0362797    
    600000   297.5997      -110.79327      54898.893     -20371.342      3329.2419     -17042.1        1.0391368    
    600010   298.16732      348.33297      54898.172     -20382.066      3335.5919     -17046.474      1.0391504    
Loop time of 8508.79 on 4 procs for 300000 steps with 5541 atoms

Performance: 6.093 ns/day, 3.939 hours/ns, 35.258 timesteps/s, 195.363 katom-step/s
309.2% CPU use with 1 MPI tasks x 4 OpenMP threads

MPI task timing breakdown:
Section |  min time  |  avg time  |  max time  |%varavg| %total
---------------------------------------------------------------
Pair    | 193.78     | 193.78     | 193.78     |   0.0 |  2.28
Bond    | 3.0815     | 3.0815     | 3.0815     |   0.0 |  0.04
Kspace  | 3931.5     | 3931.5     | 3931.5     |   0.0 | 46.20
Neigh   | 0.499      | 0.499      | 0.499      |   0.0 |  0.01
Comm    | 90.192     | 90.192     | 90.192     |   0.0 |  1.06
Output  | 1.1123     | 1.1123     | 1.1123     |   0.0 |  0.01
Modify  | 4255.8     | 4255.8     | 4255.8     |   0.0 | 50.02
Other   |            | 32.83      |            |       |  0.39

Nlocal:           5541 ave        5541 max        5541 min
Histogram: 1 0 0 0 0 0 0 0 0 0
Nghost:          35303 ave       35303 max       35303 min
Histogram: 1 0 0 0 0 0 0 0 0 0
Neighs:              0 ave           0 max           0 min
Histogram: 1 0 0 0 0 0 0 0 0 0

Total # of neighbors = 0
Ave neighs/atom = 0
Ave special neighs/atom = 2.4872767
Neighbor list builds = 27919
Dangerous builds = 0

undump npt_traj
undump npt_dcd
unfix mynpt_standard
unfix thermo_avg_npt

write_restart npt_complete.restart
System init for write_restart ...
PPPM initialization ...
  extracting TIP4P info from pair style
  using 12-bit tables for long-range coulomb
  G vector (1/distance) = 0.28812275
  grid = 50 50 50
  stencil order = 5
  estimated absolute RMS force accuracy = 0.00033337803
  estimated relative force accuracy = 1.003958e-06
  using double precision FFTW3
  3d grid and FFT values/proc = 205379 125000
Generated 0 of 3 mixed pair_coeff terms from geometric mixing rule
write_data npt_complete.data
System init for write_data ...
PPPM initialization ...
  extracting TIP4P info from pair style
  using 12-bit tables for long-range coulomb
  G vector (1/distance) = 0.28812275
  grid = 50 50 50
  stencil order = 5
  estimated absolute RMS force accuracy = 0.00033337803
  estimated relative force accuracy = 1.003958e-06
  using double precision FFTW3
  3d grid and FFT values/proc = 205379 125000
Generated 0 of 3 mixed pair_coeff terms from geometric mixing rule
WARNING: Not all mixed pair coeffs generated from mixing. Use write_data with 'pair ij' option to store all pair coeffs. (src/write_data.cpp:364)

# CRITICAL: Save NPT checkpoint for production restart capability
write_restart npt_equilibration_complete.restart
System init for write_restart ...
PPPM initialization ...
  extracting TIP4P info from pair style
  using 12-bit tables for long-range coulomb
  G vector (1/distance) = 0.28812275
  grid = 50 50 50
  stencil order = 5
  estimated absolute RMS force accuracy = 0.00033337803
  estimated relative force accuracy = 1.003958e-06
  using double precision FFTW3
  3d grid and FFT values/proc = 205379 125000
Generated 0 of 3 mixed pair_coeff terms from geometric mixing rule
write_data npt_equilibration_complete.data
System init for write_data ...
PPPM initialization ...
  extracting TIP4P info from pair style
  using 12-bit tables for long-range coulomb
  G vector (1/distance) = 0.28812275
  grid = 50 50 50
  stencil order = 5
  estimated absolute RMS force accuracy = 0.00033337803
  estimated relative force accuracy = 1.003958e-06
  using double precision FFTW3
  3d grid and FFT values/proc = 205379 125000
Generated 0 of 3 mixed pair_coeff terms from geometric mixing rule
WARNING: Not all mixed pair coeffs generated from mixing. Use write_data with 'pair ij' option to store all pair coeffs. (src/write_data.cpp:364)

variable current_dens equal density
variable current_vol equal vol
variable current_press equal press
variable current_temp equal temp
print ""

print "NPT equilibration complete (1000 ps total):"
NPT equilibration complete (1000 ps total):
print "  Temperature: ${current_temp} K"
  Temperature: 298.167320403428 K
print "  Density:     ${current_dens} g/cmÂ³"
  Density:     1.03915041233495 g/cm³
print "  Pressure:    ${current_press} atm"
  Pressure:    348.33297157745 atm
print "  Volume:      ${current_vol} Ã…Â³"
  Volume:      54898.1715630683 …³
print ""

print "âœ… CHECKPOINT: NPT equilibration complete"
œ… CHECKPOINT: NPT equilibration complete
print "   Files saved:"
   Files saved:
print "     - npt_complete.restart (legacy name)"
     - npt_complete.restart (legacy name)
print "     - npt_equilibration_complete.restart (for production restart)"
     - npt_equilibration_complete.restart (for production restart)
print "     - npt_equilibration_complete.data (structure file)"
     - npt_equilibration_complete.data (structure file)
print "     - npt_equilibration_thermo.dat (thermodynamics)"
     - npt_equilibration_thermo.dat (thermodynamics)
print ""


# Checkpoint: Verify density
if "${current_dens} < 0.85 || ${current_dens} > 1.15" then     "print 'ERROR: Density outside expected range (0.85-1.15 g/cmÂ³)'"     "print 'Current density: ${current_dens} g/cmÂ³'"     "quit 1"

print "âœ“ Density validation PASSED: ${current_dens} g/cmÂ³"
œ“ Density validation PASSED: 1.03915041233495 g/cm³

print ""


# ğŸ”§ CHECKPOINT #4: Final validation before production
variable current_dens equal density
variable current_press equal press
variable current_vol equal vol
variable current_boxsize equal vol^(1.0/3.0)

print ""

print "NPT equilibration complete. FINAL VALIDATION:"
NPT equilibration complete. FINAL VALIDATION:
print "  Density:  ${current_dens} g/cmÂ³"
  Density:  1.03915041233495 g/cm³
print "  Pressure: ${current_press} atm"
  Pressure: 348.33297157745 atm
print "  Volume:   ${current_vol} Ã…Â³"
  Volume:   54898.1715630683 …³
print "  Box size: ${current_boxsize} Ã…"
  Box size: 38.0060404901363 …
print ""

print "âœ… CHECKPOINT: NPT equilibration complete (1000 ps)"
œ… CHECKPOINT: NPT equilibration complete (1000 ps)
print "   Creating restart file: npt_equilibration_complete.restart"
   Creating restart file: npt_equilibration_complete.restart
print "   This checkpoint allows restarting from production stage if needed"
   This checkpoint allows restarting from production stage if needed
print ""


# Save NPT checkpoint for production restart capability
write_restart npt_equilibration_complete.restart
System init for write_restart ...
PPPM initialization ...
  extracting TIP4P info from pair style
  using 12-bit tables for long-range coulomb
  G vector (1/distance) = 0.28812275
  grid = 50 50 50
  stencil order = 5
  estimated absolute RMS force accuracy = 0.00033337803
  estimated relative force accuracy = 1.003958e-06
  using double precision FFTW3
  3d grid and FFT values/proc = 205379 125000
Generated 0 of 3 mixed pair_coeff terms from geometric mixing rule
write_data npt_equilibration_complete.data
System init for write_data ...
PPPM initialization ...
  extracting TIP4P info from pair style
  using 12-bit tables for long-range coulomb
  G vector (1/distance) = 0.28812275
  grid = 50 50 50
  stencil order = 5
  estimated absolute RMS force accuracy = 0.00033337803
  estimated relative force accuracy = 1.003958e-06
  using double precision FFTW3
  3d grid and FFT values/proc = 205379 125000
Generated 0 of 3 mixed pair_coeff terms from geometric mixing rule
WARNING: Not all mixed pair coeffs generated from mixing. Use write_data with 'pair ij' option to store all pair coeffs. (src/write_data.cpp:364)

print "âœ… NPT checkpoint saved successfully"
œ… NPT checkpoint saved successfully
print "   Files created:"
   Files created:
print "     - npt_equilibration_complete.restart (for continuation)"
     - npt_equilibration_complete.restart (for continuation)
print "     - npt_equilibration_complete.data (structure file)"
     - npt_equilibration_complete.data (structure file)
print ""


if "${current_dens} < 0.80" then     "print 'ğŸ”´ ERROR: Density ${current_dens} g/cmÂ³ is TOO LOW (gas phase)!'"     "print 'Expected: 0.95-1.05 g/cmÂ³ for liquid water'"     "print ''"     "print 'Possible causes:'"     "print '  1. System escaped to gas phase during equilibration'"     "print '  2. PPPM grid artifacts occurred later in simulation'"     "print '  3. Initial system was not properly solvated'"     "quit 1"

if "${current_dens} > 1.20" then     "print 'ğŸ”´ ERROR: Density ${current_dens} g/cmÂ³ is TOO HIGH (over-compressed)!'"     "print 'Expected: 0.95-1.05 g/cmÂ³ for liquid water'"     "print ''"     "print 'Possible causes:'"     "print '  1. Barostat not converging properly'"     "print '  2. System trapped in metastable compressed state'"     "quit 1"

print "âœ… Density validation PASSED: ${current_dens} g/cmÂ³"
œ… Density validation PASSED: 1.03915041233495 g/cm³
print "Current density: ${current_dens} g/cmÂ³"
Current density: 1.03915041233495 g/cm³

#==============================================================================
# STAGE 4: Production MD (4000 ps = 4 ns)
#==============================================================================
print ""

print "===== STAGE 4: Production MD (4000 ps = 4 ns, GPU) ====="
===== STAGE 4: Production MD (4000 ps = 4 ns, GPU) =====
print "Main data collection phase - RDF, MSD, trajectories"
Main data collection phase - RDF, MSD, trajectories
print ""

print "Pressure control strategy:"
Pressure control strategy:
print "  â€¢ Using MTK barostat for better ensemble accuracy"
  €¢ Using MTK barostat for better ensemble accuracy
print "  â€¢ Tdamp = 100 fs (standard for NosÃ©-Hoover)"
  €¢ Tdamp = 100 fs (standard for Nos©-Hoover)
print "  â€¢ Pdamp = 1000 fs (tighter control for stable production)"
  €¢ Pdamp = 1000 fs (tighter control for stable production)
print ""


# Production NPT with MTK barostat and tighter pressure control
# Using smaller pdamp (1000 fs vs 2000 fs) for more stable pressure
# ğŸ”§ CRITICAL: Using npt/gpu instead of npt for FULL GPU acceleration
fix mynpt all npt/gpu temp 300.0 300.0 100.0 iso 1.0 1.0 1000.0 mtk yes

# Main trajectory dump (every 1 ps for analysis)
# Trajectory output (every 1 ps) - using wrapped coordinates for proper visualization
dump prod_traj all custom 1000 production.lammpstrj id type xu yu zu
dump_modify prod_traj sort id

# DCD dump (every 0.5 ps for smooth visualization)
dump prod_dcd all dcd 500 production.dcd
dump_modify prod_dcd unwrap yes

# Detailed thermodynamics (every 1 ps)
fix thermo_avg all ave/time 100 10 1000 v_epsilon_co v_temp v_press v_pe v_ke v_etotal v_vol v_dens     file production_thermo.dat

# Very detailed thermodynamics (every 0.1 ps for fluctuation analysis)
fix thermo_detailed all ave/time 10 10 100 v_temp v_press v_pe v_ke v_vol v_dens     file production_detailed_thermo.dat

# Compute RDFs on-the-fly (C60-water, C60-C60, water-water)
# Syntax: compute ID group-ID rdf Nbin type1 type2 [cutoff]
# Type 1=C, Type 2=O, Type 3=H
compute rdf_CO all rdf 150 1 2  # C-O pairs (C60-water)
compute rdf_CC all rdf 150 1 1  # C-C pairs (C60-C60)
compute rdf_OO all rdf 150 2 2  # O-O pairs (water-water)

# Average RDFs over production run (every 10 ps)
# FIXED: Explicit column indexing (RDF outputs [1]=r, [2]=g(r), [3]=coordination)
fix rdf_CO_avg all ave/time 1000 10 10000 c_rdf_CO[1] c_rdf_CO[2] c_rdf_CO[3] file rdf_CO.dat mode vector
fix rdf_CC_avg all ave/time 1000 10 10000 c_rdf_CC[1] c_rdf_CC[2] c_rdf_CC[3] file rdf_CC.dat mode vector
fix rdf_OO_avg all ave/time 1000 10 10000 c_rdf_OO[1] c_rdf_OO[2] c_rdf_OO[3] file rdf_OO.dat mode vector

# Compute MSD for water oxygen (diffusion analysis)
# Need to use the oxygen group defined earlier
compute msd_water oxygen msd
# MSD compute outputs: [1]=dxÂ², [2]=dyÂ², [3]=dzÂ², [4]=total rÂ²
fix msd_avg all ave/time 100 10 1000 c_msd_water[1] c_msd_water[2] c_msd_water[3] c_msd_water[4] file msd_water.dat

# Dump images every 20 ps for visualization
dump prod_img all image 10000 production_*.ppm type type     axes yes 0.8 0.02 view 60 30 zoom 1.5     box no 0.01 shiny 0.5
dump_modify prod_img pad 6 backcolor white

run 2000000  # 4000 ps = 4 ns at 2 fs timestep
PPPM initialization ...
  extracting TIP4P info from pair style
  using 12-bit tables for long-range coulomb
  G vector (1/distance) = 0.28812275
  grid = 50 50 50
  stencil order = 5
  estimated absolute RMS force accuracy = 0.00033337803
  estimated relative force accuracy = 1.003958e-06
  using double precision FFTW3
  3d grid and FFT values/proc = 205379 125000
Generated 0 of 3 mixed pair_coeff terms from geometric mixing rule
Neighbor list info ...
  update: every = 1 steps, delay = 5 steps, check = yes
  max neighbors/atom: 2000, page size: 100000
  master list distance cutoff = 14.3092
  ghost atom cutoff = 18
  binsize = 7.1546, bins = 6 6 6
  3 neighbor lists, perpetual/occasional/extra = 0 3 0
  (1) compute rdf, occasional
      attributes: half, newton off
      pair build: half/bin/newtoff
      stencil: full/bin/3d
      bin: standard
  (2) compute rdf, occasional
      attributes: half, newton off
      pair build: half/bin/newtoff
      stencil: full/bin/3d
      bin: standard
  (3) compute rdf, occasional
      attributes: half, newton off
      pair build: half/bin/newtoff
      stencil: full/bin/3d
      bin: standard
Per MPI rank memory allocation (min/avg/max) = 58.91 | 58.91 | 58.91 Mbytes
   Step          Temp          Press          Volume         PotEng         KinEng         TotEng        Density    
    600010   298.16732      348.51846      54898.172     -20382.056      3335.5919     -17046.464      1.0391504    
    601000   299.14201     -604.89597      55169.913     -20575.888      3346.4958     -17229.392      1.034032     
    602000   302.58419     -126.13408      55173.892     -20532.66       3385.0033     -17147.656      1.0339575    
    603000   300.5846      -221.07655      54933.973     -20411.787      3362.6339     -17049.153      1.0384732    
    604000   302.2376       946.7588       54492.288     -20459.417      3381.126      -17078.291      1.0468905    
    605000   301.88476     -360.12888      54674.649     -20405.813      3377.1788     -17028.634      1.0433987    
    606000   307.85356      83.571899      55449.399     -20374.987      3443.9516     -16931.036      1.0288201    
    607000   299.7964       619.01395      54807.136     -20467.946      3353.8163     -17114.13       1.0408765    
    608000   300.73378      327.27659      55141.724     -20561.83       3364.3028     -17197.527      1.0345606    
    609000   303.78669     -175.74829      55223.113     -20560.258      3398.4557     -17161.802      1.0330359    
    610000   299.04715     -75.153876      55684.592     -20523.661      3345.4345     -17178.226      1.0244747    
    611000   301.59239     -116.33216      55480.087     -20532.333      3373.9081     -17158.425      1.0282511    
    612000   302.70384      422.83646      54807.019     -20388.262      3386.3419     -17001.92       1.0408787    
    613000   302.81299      138.18047      55415.967     -20496.728      3387.5628     -17109.165      1.0294408    
    614000   299.62812     -207.02845      55348.576     -20587.924      3351.9338     -17235.99       1.0306942    
    615000   296.85208     -739.76853      54967.822     -20515.946      3320.8783     -17195.068      1.0378337    
    616000   297.42786      705.12011      54613.829     -20575.966      3327.3196     -17248.647      1.0445607    
    617000   299.00511      236.14266      55173.345     -20459.883      3344.9642     -17114.919      1.0339677    
    618000   294.68935     -32.605765      55643.668     -20496.393      3296.6839     -17199.709      1.0252282    
    619000   300.4308      -12.270363      54578.131     -20491.141      3360.9134     -17130.227      1.0452439    
    620000   303.01325      248.59689      54702.918     -20442.136      3389.8032     -17052.333      1.0428595    
    621000   298.33376      353.60909      54907.334     -20518.531      3337.4538     -17181.077      1.038977     
    622000   294.75567      65.039254      54901.215     -20527.154      3297.4259     -17229.728      1.0390928    
    623000   300.70118      301.5293       54952.333     -20506.333      3363.9381     -17142.395      1.0381262    
    624000   302.51302      399.49574      55294.599     -20447.234      3384.2071     -17063.026      1.0317004    
    625000   298.37626     -92.671923      55556.011     -20393.529      3337.9293     -17055.6        1.0268458    
    626000   303.16454     -696.835        55409.64      -20526.826      3391.4957     -17135.33       1.0295584    
    627000   297.08234      119.65748      54311.462     -20472.912      3323.4543     -17149.458      1.050376     
    628000   304.62785      17.809993      55179.464     -20481.837      3407.8657     -17073.972      1.0338531    
    629000   297.42044      779.39174      54597.277     -20437.705      3327.2366     -17110.469      1.0448773    
    630000   294.04831     -349.26347      54916.747     -20386.26       3289.5125     -17096.747      1.0387989    
    631000   300.5119       95.318622      54678.163     -20433.431      3361.8207     -17071.611      1.0433316    
    632000   299.20424     -625.11406      55253.287     -20474.27       3347.1919     -17127.078      1.0324717    
    633000   300.97553      330.77495      55083.991     -20391.192      3367.0073     -17024.185      1.035645     
    634000   293.05778      911.02424      54856.575     -20429.596      3278.4315     -17151.165      1.0399384    
    635000   303.79141      55.782414      55390.663     -20564.333      3398.5084     -17165.825      1.0299111    
    636000   297.00491      171.87673      55524.56      -20530.401      3322.5881     -17207.813      1.0274275    
    637000   305.04863      239.60769      55234.64      -20490.241      3412.573      -17077.668      1.0328203    
    638000   297.7571      -437.90389      54524.622     -20428.158      3331.0028     -17097.155      1.0462697    
    639000   298.30307     -403.87521      55094.851     -20561.143      3337.1106     -17224.033      1.0354408    
    640000   298.60438      25.682082      55254.261     -20481.552      3340.4813     -17141.071      1.0324535    
    641000   301.49862     -563.11486      55136.062     -20494.848      3372.859      -17121.989      1.0346669    
    642000   302.16693     -89.941963      55153.435     -20554.233      3380.3354     -17173.898      1.034341     
    643000   306.04308     -18.68049       55194.727     -20425.246      3423.6979     -17001.548      1.0335672    
    644000   303.92852     -356.5358       54800.1       -20602.457      3400.0423     -17202.415      1.0410101    
    645000   299.30455      249.13272      55000.158     -20391.718      3348.314      -17043.404      1.0372235    
    646000   298.30651      160.7244       54824.941     -20505.469      3337.149      -17168.32       1.0405384    
    647000   302.74053     -107.19841      55191.167     -20455.513      3386.7523     -17068.761      1.0336338    
    648000   302.59359      169.62005      54648.874     -20574.937      3385.1085     -17189.829      1.0438908    
    649000   297.34844      362.19966      54779.981     -20527.821      3326.431      -17201.39       1.0413924    
    650000   306.77724     -946.29242      55908.712     -20507.899      3431.9109     -17075.988      1.020368     
    651000   304.43835      710.36865      54663.752     -20530.958      3405.7458     -17125.212      1.0436067    
    652000   304.88193      324.5801       54757.52      -20466.666      3410.7081     -17055.958      1.0418196    
    653000   305.40979     -300.73489      54602.694     -20519.493      3416.6133     -17102.88       1.0447737    
    654000   300.34835     -355.27525      55446.565     -20451.972      3359.991      -17091.981      1.0288727    
    655000   303.76606      80.629322      55510.517     -20533.329      3398.2249     -17135.104      1.0276874    
    656000   298.03097     -28.670231      55530.035     -20479.055      3334.0666     -17144.989      1.0273262    
    657000   300.54138      441.07057      55326.649     -20488.615      3362.1504     -17126.465      1.0311027    
    658000   302.19116      348.48305      55406.085     -20415.526      3380.6065     -17034.92       1.0296244    
    659000   295.37244     -197.5088       54720.49      -20644.986      3304.3256     -17340.661      1.0425246    
    660000   296.80073      373.91131      54439.133     -20635.654      3320.3038     -17315.35       1.0479127    
    661000   297.228        250.71641      54452.402     -20591.265      3325.0837     -17266.182      1.0476573    
    662000   304.64888     -206.95728      54684.554     -20439.309      3408.101      -17031.208      1.0432097    
    663000   296.28196      961.72017      54826.166     -20528.176      3314.5004     -17213.675      1.0405152    
    664000   297.31381      621.36147      55118.99      -20517.317      3326.0437     -17191.274      1.0349874    
    665000   299.27611      600.83455      54613.796     -20472.919      3347.9959     -17124.923      1.0445613    
    666000   306.75573      383.74151      54797.425     -20490.295      3431.6703     -17058.625      1.0410609    
    667000   302.77571      8.5451355      55428.92      -20388.981      3387.1458     -17001.835      1.0292002    
    668000   300.15405      414.66366      55277.99      -20440.416      3357.8173     -17082.598      1.0320104    
    669000   290.95192     -924.31992      55352.627     -20297.187      3254.8733     -17042.314      1.0306188    
    670000   298.55928     -109.8005       55183.169     -20530.567      3339.9768     -17190.591      1.0337837    
    671000   303.77498      1176.5948      54894.615     -20399.303      3398.3246     -17000.978      1.0392177    
    672000   303.2093       397.42099      55196.439     -20521.108      3391.9964     -17129.112      1.0335351    
    673000   306.86561      35.915646      54896.767     -20525.391      3432.8995     -17092.491      1.039177     
    674000   297.79795      494.12031      54730.679     -20537.393      3331.4597     -17205.934      1.0423305    
    675000   301.0291       317.53885      55579.024     -20552.487      3367.6065     -17184.881      1.0264206    
    676000   300.08562     -848.50156      55616.329     -20392.422      3357.0519     -17035.37       1.0257322    
    677000   303.17708      57.953714      55150.831     -20410.414      3391.636      -17018.778      1.0343898    
    678000   302.04068      455.83094      54724.671     -20445.566      3378.923      -17066.643      1.042445     
    679000   304.63159      531.18268      55441.254     -20537.156      3407.9075     -17129.248      1.0289713    
    680000   300.69707     -37.799905      55180.889     -20558.43       3363.8921     -17194.538      1.0338264    
    681000   297.73625     -192.45243      55596.168     -20406.656      3330.7695     -17075.887      1.0261041    
    682000   307.09598      503.24366      55280.227     -20576.567      3435.4767     -17141.09       1.0319686    
    683000   301.83971     -219.20386      55268.696     -20470.147      3376.6749     -17093.472      1.0321839    
    684000   288.35236     -1254.5725      55468.83      -20594.965      3225.7921     -17369.173      1.0284597    
    685000   294.28088     -99.31806       55530.971     -20451.412      3292.1143     -17159.298      1.0273088    
    686000   291.11462      68.09031       55523         -20440.957      3256.6935     -17184.263      1.0274563    
    687000   300.4785      -210.61782      54791.978     -20420.647      3361.447      -17059.2        1.0411644    
    688000   295.99859     -256.88344      55266.299     -20492.28       3311.3303     -17180.95       1.0322287    
    689000   292.75051     -101.33223      55426.879     -20377.499      3274.9941     -17102.505      1.0292381    
    690000   296.16415      156.76887      54864.47      -20659.119      3313.1825     -17345.937      1.0397887    
    691000   304.15878     -468.52384      55535.236     -20511.367      3402.6182     -17108.748      1.0272299    
    692000   301.60101      69.695073      55233.591     -20476.793      3374.0045     -17102.788      1.0328399    
    693000   303.55595      21.547444      55529.545     -20577.128      3395.8744     -17181.253      1.0273352    
    694000   299.24454      285.02176      55373.387     -20552.635      3347.6427     -17204.992      1.0302324    
    695000   306.45213      774.78785      54990.568     -20531.315      3428.2738     -17103.041      1.0374044    
    696000   301.74113      967.27023      55310.15      -20430.956      3375.572      -17055.384      1.0314103    
    697000   301.36061      208.95751      55793.319     -20361.716      3371.3152     -16990.401      1.0224783    
    698000   305.07757      65.54697       56063.007     -20593.994      3412.8967     -17181.097      1.0175597    
    699000   302.35159     -383.13055      55011.173     -20436.152      3382.4012     -17053.75       1.0370158    
    700000   301.85098     -11.376134      55245.545     -20459.101      3376.8009     -17082.3        1.0326164    
    701000   303.83685     -278.11532      55189.824     -20616.809      3399.0168     -17217.792      1.033659     
    702000   294.06371     -239.78811      55889.653     -20471.517      3289.6849     -17181.832      1.0207159    
    703000   298.85955      717.17366      54884.256     -20567.524      3343.3358     -17224.188      1.0394139    
    704000   294.15294      185.47666      55023.736     -20525.391      3290.6831     -17234.708      1.0367791    
    705000   302.22808      464.7281       55297.399     -20343.771      3381.0195     -16962.751      1.0316481    
    706000   298.84839      13.755608      55608.076     -20487.631      3343.211      -17144.42       1.0258844    
    707000   299.10275     -179.3676       55788.798     -20471.062      3346.0565     -17125.006      1.0225611    
    708000   298.43237      262.04182      55568.639     -20476.489      3338.557      -17137.932      1.0266125    
    709000   297.37854     -628.68529      55636.17      -20473.941      3326.7678     -17147.173      1.0253664    
    710000   301.76916      407.68242      54844.561     -20561.427      3375.8856     -17185.541      1.0401662    
    711000   300.58261     -181.97687      55609.845     -20597.015      3362.6116     -17234.403      1.0258518    
    712000   297.68275      140.91621      55175.317     -20409.258      3330.171      -17079.087      1.0339308    
    713000   294.97257     -989.56953      55261.402     -20451.202      3299.8522     -17151.349      1.0323201    
    714000   297.44433      726.10531      55254.451     -20414.949      3327.5038     -17087.445      1.03245      
    715000   304.51482     -120.18615      55289.229     -20462.176      3406.6012     -17055.574      1.0318006    
    716000   298.53188      289.89818      54607.588     -20518.83       3339.6702     -17179.159      1.0446801    
    717000   296.23907      46.355727      55023.953     -20445.223      3314.0206     -17131.203      1.036775     
    718000   302.7573       316.58936      54753.211     -20466.711      3386.9399     -17079.772      1.0419016    
    719000   301.41416     -387.26618      55307.167     -20370.708      3371.9142     -16998.793      1.0314659    
    720000   305.33769      708.53079      54580.309     -20676.19       3415.8067     -17260.384      1.0452022    
    721000   301.86067      458.74398      54335.848     -20606.039      3376.9093     -17229.13       1.0499046    
    722000   303.6312      -220.13505      55197.775     -20463.164      3396.7162     -17066.448      1.0335101    
    723000   303.05149     -271.4186       55195.787     -20429.411      3390.231      -17039.18       1.0335473    
    724000   299.27886     -280.83177      54458.456     -20523.4        3348.0266     -17175.374      1.0475409    
    725000   304.78095      903.44295      54505.167     -20551.855      3409.5785     -17142.276      1.0466431    
    726000   294.25667      493.77872      54829.312     -20357.129      3291.8435     -17065.286      1.0404555    
    727000   300.09147      290.53866      55129.439     -20523.853      3357.1173     -17166.736      1.0347912    
    728000   304.36806      329.95917      55441.334     -20436.876      3404.9594     -17031.916      1.0289698    
    729000   303.13004      167.44141      55133.266     -20423.406      3391.1098     -17032.296      1.0347194    
    730000   297.69747     -193.48981      55560.422     -20396.056      3330.3357     -17065.72       1.0267643    
    731000   308.545        541.53001      55367.822     -20436.681      3451.6868     -16984.995      1.0303359    
    732000   299.53525      27.094698      55615.989     -20386.573      3350.8949     -17035.678      1.0257384    
    733000   301.03891     -201.34576      55051.843     -20519.859      3367.7163     -17152.143      1.0362497    
    734000   296.48834      245.62035      55208.676     -20457.79       3316.8092     -17140.981      1.033306     
    735000   300.35103      232.28887      55534.135     -20509.098      3360.021      -17149.077      1.0272503    
    736000   300.74901     -275.76153      55179.548     -20472.672      3364.4732     -17108.199      1.0338515    
    737000   294.28816      1137.0055      55230.736     -20488.563      3292.1957     -17196.368      1.0328933    
    738000   310.16295      281.21806      55138.471     -20454.874      3469.7868     -16985.087      1.0346217    
    739000   297.79072     -636.94879      54700.211     -20421.43       3331.3789     -17090.051      1.0429111    
    740000   294.27701      122.46807      55210.949     -20593.497      3292.0711     -17301.426      1.0332635    
    741000   295.84662     -658.78972      55726.42      -20492.408      3309.6303     -17182.778      1.0237058    
    742000   298.78175     -823.79284      55139.899     -20679.919      3342.4655     -17337.453      1.0345949    
    743000   300.65989     -305.82917      54828.465     -20537.256      3363.4762     -17173.78       1.0404715    
    744000   301.7773       380.6791       54615.993     -20539.588      3375.9767     -17163.611      1.0445193    
    745000   303.79851      412.11716      55149.852     -20523.665      3398.5878     -17125.078      1.0344082    
    746000   301.1865      -262.29445      55499.664     -20443.092      3369.3673     -17073.725      1.0278883    
    747000   296.53929     -261.59277      55002.461     -20443.018      3317.3791     -17125.639      1.0371801    
    748000   298.28615      552.8665       54961.732     -20499.201      3336.9213     -17162.28       1.0379487    
    749000   298.71113     -983.0819       55455.297     -20513.027      3341.6755     -17171.351      1.0287107    
    750000   299.17762     -94.451362      55258.262     -20523.027      3346.8941     -17176.133      1.0323788    
    751000   300.71388     -116.13528      55323.514     -20626.455      3364.0801     -17262.375      1.0311611    
    752000   308.70106     -670.76483      55579.22      -20439.391      3453.4327     -16985.958      1.026417     
    753000   304.97861     -119.92306      55958.962     -20580.262      3411.7897     -17168.473      1.0194517    
    754000   302.03442      608.21336      55100.393     -20513.776      3378.8531     -17134.923      1.0353367    
    755000   296.38413      568.51606      54757.169     -20480.166      3315.6434     -17164.523      1.0418263    
    756000   300.54437     -230.60331      55314.422     -20607.059      3362.1839     -17244.875      1.0313306    
    757000   301.82377      292.37446      55273.497     -20459.377      3376.4965     -17082.88       1.0320942    
    758000   295.5938      -593.31808      55269.409     -20444.621      3306.8019     -17137.819      1.0321706    
    759000   296.36012      113.68653      54821.87      -20445.21       3315.3748     -17129.835      1.0405967    
    760000   299.11128      263.04874      54777.398     -20462.921      3346.152      -17116.769      1.0414415    
    761000   309.08673      450.65635      55179.945     -20565.597      3457.7471     -17107.85       1.033844     
    762000   293.60692      444.86026      55342.105     -20502.575      3284.5748     -17218.001      1.0308147    
    763000   307.63732     -123.10171      55037.024     -20510.396      3441.5326     -17068.863      1.0365287    
    764000   300.98889      229.44819      54866.322     -20511.694      3367.1567     -17144.538      1.0397536    
    765000   300.91852     -89.636059      55167.968     -20576.562      3366.3695     -17210.193      1.0340685    
    766000   303.96511     -75.974848      54899.616     -20457.713      3400.4517     -17057.261      1.0391231    
    767000   310.32153     -211.74354      55098.491     -20486.236      3471.5607     -17014.675      1.0353724    
    768000   299.33315     -344.11561      54641.604     -20462.223      3348.634      -17113.589      1.0440297    
    769000   296.4289      -209.00799      55519.181     -20568.36       3316.1442     -17252.215      1.027527     
    770000   298.23708      86.171984      55086.245     -20445.543      3336.3722     -17109.171      1.0356026    
    771000   301.29128     -428.28489      55721.043     -20485.597      3370.5396     -17115.058      1.0238045    
    772000   293.58195      513.16713      55234.4       -20509.543      3284.2955     -17225.248      1.0328248    
    773000   296.2025       462.83766      55274.58      -20404.885      3313.6115     -17091.273      1.032074     
    774000   300.62248     -175.17482      55217.746     -20481.566      3363.0577     -17118.508      1.0331363    
    775000   301.81547      280.66044      55218.397     -20416.891      3376.4037     -17040.487      1.0331241    
    776000   294.63817      336.05933      54893.91      -20613.984      3296.1113     -17317.873      1.0392311    
    777000   307.56157     -84.670258      54995.052     -20570.836      3440.6852     -17130.151      1.0373198    
    778000   302.71204     -226.99691      54827.132     -20476.916      3386.4336     -17090.483      1.0404968    
    779000   299.62402     -74.259568      55435.508     -20425.868      3351.888      -17073.98       1.0290779    
    780000   300.67636      483.51635      55590.869     -20450.449      3363.6604     -17086.789      1.0262019    
    781000   301.2932      -251.85109      55552.147     -20498.233      3370.561      -17127.672      1.0269172    
    782000   295.65165      392.18066      54930.832     -20536.371      3307.4492     -17228.922      1.0385326    
    783000   300.68395     -158.23815      55251.851     -20587.83       3363.7453     -17224.084      1.0324986    
    784000   301.53781     -172.65404      54688.524     -20573.122      3373.2975     -17199.824      1.043134     
    785000   305.25367     -875.86901      55187.269     -20546.525      3414.8667     -17131.658      1.0337068    
    786000   297.06587      809.44743      54999.917     -20484.644      3323.27       -17161.374      1.0372281    
    787000   295.23231     -48.680251      55750.377     -20419.973      3302.758      -17117.215      1.0232659    
    788000   299.57392     -602.57451      55045.013     -20422.75       3351.3275     -17071.422      1.0363783    
    789000   302.89547     -130.19116      54910.182     -20386.587      3388.4856     -16998.101      1.0389231    
    790000   302.52437     -67.329964      54957.926     -20466.653      3384.3341     -17082.319      1.0380206    
    791000   302.25281     -390.58128      55266.457     -20366.448      3381.2962     -16985.152      1.0322257    
    792000   302.99052      337.93586      55145.345     -20517.439      3389.549      -17127.89       1.0344927    
    793000   303.46193     -185.85319      55104.755     -20446.844      3394.8225     -17052.022      1.0352547    
    794000   297.34874     -375.5767       55150.901     -20437.515      3326.4345     -17111.08       1.0343885    
    795000   305.20904      36.881123      55217.953     -20277.237      3414.3674     -16862.869      1.0331324    
    796000   291.34506      238.37686      55016.73      -20559.558      3259.2714     -17300.287      1.0369111    
    797000   306.01737      460.04545      55276.394     -20551.905      3423.4103     -17128.494      1.0320401    
    798000   298.3793       134.07897      55667.842     -20455.957      3337.9633     -17117.994      1.024783     
    799000   297.17377      440.18605      55494.335     -20477.012      3324.477      -17152.535      1.027987     
    800000   298.19457     -807.75179      55312.501     -20432.962      3335.8967     -17097.066      1.0313665    
    801000   302.57356     -796.17784      55528.897     -20483.724      3384.8844     -17098.84       1.0273472    
    802000   299.1681      -39.00923       54710.795     -20475.464      3346.7876     -17128.677      1.0427094    
    803000   302.52324     -42.008921      54585.441     -20481.718      3384.3214     -17097.396      1.0451039    
    804000   300.14851     -6.5666285      54451.285     -20522.277      3357.7554     -17164.522      1.0476788    
    805000   298.30618     -473.35578      54829.68      -20481.473      3337.1453     -17144.327      1.0404485    
    806000   293.56305     -186.71285      55429.462     -20483.424      3284.084      -17199.34       1.0291902    
    807000   301.31291      179.44215      54657.173     -20598.687      3370.7816     -17227.906      1.0437323    
    808000   308.42586     -500.08238      55119.783     -20532.293      3450.354      -17081.939      1.0349725    
    809000   295.04469      148.22859      55011.443     -20528.742      3300.6591     -17228.083      1.0370107    
    810000   300.96701     -235.09624      55260.835     -20453.538      3366.912      -17086.626      1.0323307    
    811000   294.35229     -146.91614      55582.964     -20560.431      3292.9132     -17267.518      1.0263479    
    812000   304.48535      121.72132      55343.11      -20538.963      3406.2716     -17132.692      1.030796     
    813000   299.46094      179.00612      54565.724     -20458.839      3350.0636     -17108.775      1.0454816    
    814000   301.76309     -29.557443      55073.792     -20475.195      3375.8177     -17099.377      1.0358367    
    815000   298.12544      472.77345      54800.268     -20526.266      3335.1234     -17191.142      1.0410069    
    816000   301.59891      930.91928      54438.028     -20431.557      3373.981      -17057.576      1.0479339    
    817000   299.83772      641.0225       54319.376     -20581.193      3354.2786     -17226.915      1.050223     
    818000   300.12857     -791.18701      55350.616     -20468.368      3357.5324     -17110.836      1.0306562    
    819000   298.19716     -127.36919      55534.161     -20483.258      3335.9257     -17147.333      1.0272498    
    820000   306.43655      171.97189      54851.31      -20552.929      3428.0996     -17124.83       1.0400382    
    821000   299.85499     -516.06415      55662.394     -20465.361      3354.4718     -17110.889      1.0248833    
    822000   298.45024     -26.359386      55555.865     -20511.426      3338.7569     -17172.669      1.0268485    
    823000   298.48194     -349.5859       55414.785     -20544.268      3339.1116     -17205.156      1.0294628    
    824000   306.61887      316.09909      54792.461     -20396.567      3430.1392     -16966.428      1.0411552    
    825000   306.48262      516.25906      55046.314     -20463.482      3428.615      -17034.867      1.0363538    
    826000   302.47123      216.91671      55608.132     -20524.025      3383.7397     -17140.286      1.0258834    
    827000   308.19531     -334.73049      55658.233     -20489.64       3447.7748     -17041.865      1.0249599    
    828000   308.45939     -595.54556      54843.775     -20560.74       3450.7291     -17110.011      1.0401811    
    829000   295.76911      555.86148      54960.505     -20356.638      3308.7632     -17047.875      1.0379719    
    830000   303.59031     -377.87409      55257.305     -20400.549      3396.2587     -17004.291      1.0323967    
    831000   303.60049     -448.42578      55120.156     -20417.046      3396.3726     -17020.673      1.0349655    
    832000   305.21845      37.538542      55401.314     -20365.767      3414.4727     -16951.294      1.0297131    
    833000   299.15232     -404.37354      55376.785     -20557.525      3346.6111     -17210.914      1.0301692    
    834000   296.57118     -589.78899      55203.084     -20498.953      3317.7359     -17181.217      1.0334107    
    835000   299.00782      192.2538       54900.12      -20563.855      3344.9946     -17218.861      1.0391135    
    836000   296.46842     -168.53815      55240.4       -20536.839      3316.5863     -17220.253      1.0327126    
    837000   304.91394      1171.0788      54676.186     -20507.545      3411.0662     -17096.479      1.0433694    
    838000   301.70381      38.850597      55463.443     -20500.131      3375.1545     -17124.977      1.0285596    
    839000   302.00936      368.08558      55616.257     -20456.061      3378.5727     -17077.488      1.0257335    
    840000   291.76798     -202.39913      54967.508     -20430.457      3264.0026     -17166.455      1.0378396    
    841000   304.63599     -645.04204      55365.701     -20468.852      3407.9568     -17060.895      1.0303754    
    842000   298.59433      630.15591      54973.398     -20589.509      3340.3688     -17249.14       1.0377284    
    843000   300.12062     -105.30536      55041.691     -20497.22       3357.4434     -17139.776      1.0364409    
    844000   308.27548      60.206632      55427.985     -20401.517      3448.6717     -16952.845      1.0292176    
    845000   303.18101      14.764121      55173.076     -20459.464      3391.6799     -17067.785      1.0339728    
    846000   299.49482      157.85059      55083.404     -20537.222      3350.4425     -17186.779      1.035656     
    847000   296.39043     -881.10816      55380.517     -20628.141      3315.7139     -17312.427      1.0300998    
    848000   301.64913     -511.46705      55245.707     -20536.387      3374.5428     -17161.844      1.0326134    
    849000   301.61456     -108.04353      54823.681     -20468.125      3374.1561     -17093.969      1.0405623    
    850000   297.86312      109.78766      55077.751     -20424.227      3332.1888     -17092.038      1.0357623    
    851000   299.04859     -571.56574      55414.555     -20446.327      3345.4506     -17100.876      1.029467     
    852000   300.89783      366.20822      55401.139     -20470.823      3366.1381     -17104.684      1.0297163    
    853000   304.1839       764.63482      54898.298     -20468.393      3402.8992     -17065.494      1.039148     
    854000   299.40066      378.76644      55376.457     -20586.582      3349.3892     -17237.192      1.0301753    
    855000   294.83486      25.574588      54999.953     -20443.056      3298.3117     -17144.745      1.0372274    
    856000   293.1324      -529.0385       55060.648     -20553.407      3279.2663     -17274.141      1.036084     
    857000   291.42918      135.4915       55115.258     -20512.467      3260.2124     -17252.255      1.0350574    
    858000   293.70869     -85.099727      54961.02      -20520.003      3285.7133     -17234.29       1.0379621    
    859000   300.78647     -257.80955      55486.371     -20449.537      3364.8922     -17084.645      1.0281346    
    860000   299.23709      118.71452      55091.349     -20563.319      3347.5593     -17215.759      1.0355066    
    861000   300.01749     -446.11134      55026.037     -20416.949      3356.2897     -17060.66       1.0367357    
    862000   299.02857     -216.07171      54692.708     -20473.262      3345.2267     -17128.035      1.0430542    
    863000   295.79512     -346.89544      54992.638     -20563.524      3309.0541     -17254.47       1.0373654    
    864000   296.77776     -215.26826      55125.194     -20528.081      3320.0469     -17208.034      1.0348709    
    865000   305.22152     -307.46635      54928.493     -20494.685      3414.5071     -17080.178      1.0385768    
    866000   303.79998      664.32433      54953.524     -20470.856      3398.6043     -17072.252      1.0381037    
    867000   299.91392     -528.31789      55300.175     -20395.762      3355.1311     -17040.631      1.0315963    
    868000   300.23068      877.6311       55111.331     -20476.367      3358.6746     -17117.692      1.0351312    
    869000   293.75054     -512.80222      55781.363     -20426.993      3286.1815     -17140.812      1.0226974    
    870000   290.52777      172.02331      55177.646     -20457.163      3250.1284     -17207.035      1.0338871    
    871000   297.94585     -91.924131      55227.683     -20463.198      3333.1143     -17130.084      1.0329504    
    872000   293.03551     -913.60206      55149.564     -20441.116      3278.1824     -17162.934      1.0344136    
    873000   300.23671     -139.08599      55071.406     -20394.774      3358.7421     -17036.031      1.0358816    
    874000   300.42691     -129.02688      55265.225     -20503.609      3360.8699     -17142.739      1.0322487    
    875000   298.59518     -53.004595      55335.618     -20407.322      3340.3784     -17066.944      1.0309356    
    876000   295.73937     -123.18842      55601.823     -20548.526      3308.4305     -17240.096      1.0259998    
    877000   302.26065     -263.58626      55030.759     -20591.864      3381.3838     -17210.48       1.0366468    
    878000   304.82596      547.87597      54633.057     -20499.389      3410.082      -17089.307      1.044193     
    879000   298.22608     -751.27538      55693.7       -20381.138      3336.2493     -17044.888      1.0243072    
    880000   295.29203      417.71056      55226.733     -20445.372      3303.426      -17141.946      1.0329682    
    881000   296.5755       101.81677      55013.351     -20563.444      3317.7842     -17245.66       1.0369748    
    882000   309.16202      263.48207      55670.005     -20393.929      3458.5893     -16935.34       1.0247432    
    883000   295.26739      287.73638      55531.741     -20526.188      3303.1505     -17223.038      1.0272946    
    884000   302.16628      281.2284       55277.254     -20501.198      3380.3282     -17120.87       1.0320241    
    885000   291.91831      60.619356      55124.291     -20545.521      3265.6844     -17279.837      1.0348878    
    886000   303.28437     -52.42354       54741.067     -20434.603      3392.8362     -17041.767      1.0421327    
    887000   300.85649     -206.4458       55122.969     -20368.115      3365.6756     -17002.439      1.0349126    
    888000   291.89923     -1226.3641      56081.175     -20460.804      3265.4708     -17195.333      1.0172301    
    889000   297.74448     -1741.3559      55545.373     -20353.914      3330.8616     -17023.052      1.0270425    
    890000   299.50056      222.83668      55216.823     -20394.74       3350.5068     -17044.234      1.0331536    
    891000   300.27679      162.7388       55206.055     -20488.406      3359.1905     -17129.215      1.0333551    
    892000   294.02162      697.88233      54591.714     -20450.476      3289.2141     -17161.262      1.0449838    
    893000   295.41396     -20.515268      54925.02      -20479.189      3304.7901     -17174.399      1.0386424    
    894000   298.53921      851.23541      55276.327     -20429.406      3339.7522     -17089.654      1.0320414    
    895000   294.84845     -187.16918      54772.477     -20435.039      3298.4638     -17136.576      1.0415351    
    896000   301.53613     -733.08694      55509.661     -20463.83       3373.2787     -17090.551      1.0277032    
    897000   298.16913     -439.34768      55535.433     -20568.685      3335.6122     -17233.073      1.0272263    
    898000   294.653       -296.53983      55713.152     -20508.416      3296.2772     -17212.138      1.0239496    
    899000   302.44225      157.32158      55402.763     -20395.186      3383.4154     -17011.77       1.0296861    
    900000   300.52553     -437.61892      55504.383     -20575.115      3361.9732     -17213.142      1.0278009    
    901000   303.46295     -902.70287      55127.756     -20447.163      3394.834      -17052.329      1.0348228    
    902000   300.36932     -509.61406      54795.961     -20534.321      3360.2256     -17174.095      1.0410887    
    903000   296.23562     -200.50295      55354.798     -20339.746      3313.982      -17025.764      1.0305784    
    904000   297.21679     -14.246611      55631.024     -20403.738      3324.9584     -17078.78       1.0254612    
    905000   301.90822      380.74556      55117.046     -20440.373      3377.4412     -17062.931      1.0350239    
    906000   293.24759      84.42461       55197.869     -20421.166      3280.5549     -17140.611      1.0335083    
    907000   302.73239     -211.52142      54862.44      -20349.712      3386.6612     -16963.051      1.0398272    
    908000   303.31336     -124.23714      54552.075     -20425.432      3393.1606     -17032.272      1.0457431    
    909000   308.51072      600.59926      55259.808     -20455.465      3451.3033     -17004.162      1.0323499    
    910000   306.8214       168.51525      54627.741     -20519.068      3432.4049     -17086.663      1.0442946    
    911000   301.86252     -458.4232       55822.73      -20439.328      3376.9301     -17062.398      1.0219396    
    912000   299.05606      458.37395      54842.376     -20395.459      3345.5342     -17049.925      1.0402076    
    913000   290.90027      446.57741      54953.255     -20467.533      3254.2955     -17213.237      1.0381088    
    914000   297.42386      1247.1162      54612.284     -20403.245      3327.2748     -17075.97       1.0445902    
    915000   296.90861      674.32734      54685.355     -20598.035      3321.5107     -17276.524      1.0431944    
    916000   297.62221     -43.246072      55652.784     -20524.621      3329.4938     -17195.127      1.0250603    
    917000   303.3083      -825.32364      55295.77      -20548.333      3393.1039     -17155.229      1.0316785    
    918000   306.64172     -149.86691      55702.11      -20503.861      3430.3948     -17073.466      1.0241526    
    919000   299.597       -265.13929      55054.065     -20626.228      3351.5857     -17274.642      1.0362079    
    920000   302.48235     -326.88208      55005.621     -20535.258      3383.864      -17151.393      1.0371205    
    921000   295.08591     -43.443332      55117.799     -20539.989      3301.1202     -17238.868      1.0350097    
    922000   301.72426      308.71278      55324.037     -20399.661      3375.3833     -17024.278      1.0311514    
    923000   304.29531      509.37329      55110.843     -20313.26       3404.1456     -16909.115      1.0351404    
    924000   299.67635     -1059.1091      55482.902     -20327.888      3352.4733     -16975.415      1.0281989    
    925000   297.6362      -280.12812      55405.185     -20458.523      3329.6503     -17128.872      1.0296411    
    926000   306.54765      123.63879      54612.921     -20446.79       3429.3425     -17017.448      1.044578     
    927000   300.0074       49.889301      54862.555     -20480.402      3356.1768     -17124.225      1.039825     
    928000   296.3561      -220.66461      55291.5       -20484.432      3315.3298     -17169.102      1.0317582    
    929000   297.45792     -208.81996      55049.01      -20409.946      3327.6559     -17082.29       1.0363031    
    930000   292.73851      726.28734      54972.288     -20542.121      3274.8599     -17267.261      1.0377494    
    931000   297.25884      390.40115      54886.031     -20513.267      3325.4288     -17187.838      1.0393803    
    932000   303.51652      129.22813      55213.671     -20556.788      3395.4333     -17161.355      1.0332126    
    933000   308.04116      393.98489      55245.305     -20566.154      3446.0503     -17120.103      1.0326209    
    934000   298.00549      957.12146      55352.718     -20418.304      3333.7815     -17084.523      1.0306171    
    935000   296.89396      57.259777      54515.874     -20542.545      3321.3468     -17221.198      1.0464376    
    936000   301.38166      102.99482      54869.889     -20555.083      3371.5507     -17183.532      1.039686     
    937000   303.8377       364.29999      55109.601     -20482.145      3399.0263     -17083.119      1.0351637    
    938000   300.27451      436.68546      55349.896     -20514.382      3359.1649     -17155.217      1.0306696    
    939000   301.30207      34.711577      54975.648     -20367.72       3370.6602     -16997.059      1.0376859    
    940000   298.67043      138.7769       55057.887     -20477.99       3341.2202     -17136.77       1.036136     
    941000   302.55157      303.03485      55112.178     -20374.762      3384.6384     -16990.124      1.0351153    
    942000   308.2415      -58.802514      54910.114     -20551.508      3448.2915     -17103.216      1.0389244    
    943000   297.72923      271.72734      55099.552     -20530.537      3330.691      -17199.846      1.0353525    
    944000   303.98915     -156.4671       55451.25      -20492.449      3400.7206     -17091.729      1.0287858    
    945000   302.7377       12.399709      54920.562     -20666.385      3386.7206     -17279.665      1.0387268    
    946000   304.83193     -427.23617      55108.216     -20508.528      3410.1487     -17098.38       1.0351897    
    947000   297.20857     -429.82653      54763.869     -20528.34       3324.8664     -17203.474      1.0416988    
    948000   301.8742      -324.79217      55690.889     -20457.299      3377.0607     -17080.238      1.0243589    
    949000   297.45388      500.66862      54920.786     -20548.184      3327.6106     -17220.574      1.0387225    
    950000   297.44484     -977.43558      55549.714     -20554.038      3327.5095     -17226.528      1.0269622    
    951000   299.80888     -56.439006      55655.391     -20443.361      3353.956      -17089.405      1.0250123    
    952000   302.73149     -677.47028      55277.276     -20492.316      3386.6512     -17105.665      1.0320237    
    953000   298.93812      275.59453      54673.73      -20482.309      3344.2148     -17138.094      1.0434162    
    954000   301.7673       501.69354      54884.21      -20391.338      3375.8648     -17015.473      1.0394147    
    955000   299.13505      847.72323      54462.554     -20527.805      3346.4179     -17181.388      1.047462     
    956000   297.09544     -107.5509       55362.882     -20458.263      3323.6008     -17134.662      1.0304279    
    957000   298.1885      -424.72695      55017.299     -20496.471      3335.8289     -17160.642      1.0369004    
    958000   308.10257      257.88582      54487.299     -20521.535      3446.7373     -17074.798      1.0469863    
    959000   299.37375     -161.18348      55201.733     -20452.839      3349.0882     -17103.751      1.033436     
    960000   294.54686     -304.65715      55256.527     -20539.302      3295.0898     -17244.212      1.0324112    
    961000   298.85405      523.36926      55408.18      -20522.214      3343.2744     -17178.94       1.0295855    
    962000   303.18935     -313.76903      55070.28      -20472.547      3391.7733     -17080.774      1.0359028    
    963000   301.66999      174.13181      55700.225     -20379.322      3374.7761     -17004.546      1.0241872    
    964000   302.75558     -450.00547      55162.695     -20496.617      3386.9206     -17109.696      1.0341673    
    965000   299.37249      299.46857      54962.373     -20532.51       3349.0741     -17183.436      1.0379366    
    966000   301.91262     -525.28325      55601.106     -20463.695      3377.4905     -17086.205      1.026013     
    967000   298.59533      722.98707      55155.668     -20528.368      3340.38       -17187.988      1.0342991    
    968000   294.85985     -341.35498      55035.484     -20439.807      3298.5913     -17141.216      1.0365578    
    969000   292.64778     -765.14813      55831.423     -20425.761      3273.8448     -17151.916      1.0217805    
    970000   304.06427      134.79926      55422.174     -20494.341      3401.561      -17092.78       1.0293255    
    971000   301.36859      88.062636      55820.682     -20522.492      3371.4044     -17151.087      1.0219771    
    972000   300.80084     -19.089959      55285.801     -20498.175      3365.0531     -17133.122      1.0318645    
    973000   298.57308     -213.94008      55347.188     -20465.876      3340.1311     -17125.745      1.0307201    
    974000   297.12327      170.23413      55070.765     -20447.989      3323.9121     -17124.077      1.0358937    
    975000   304.98112      266.4315       55129.627     -20518.263      3411.8177     -17106.446      1.0347877    
    976000   295.39752      153.15827      54977.557     -20401.118      3304.6062     -17096.512      1.0376499    
    977000   306.15533      293.79807      55076.807     -20509.466      3424.9536     -17084.513      1.03578      
    978000   302.44746     -343.5961       55376.335     -20459.1        3383.4737     -17075.627      1.0301776    
    979000   300.07574     -506.19504      54876.26      -20589.782      3356.9413     -17232.841      1.0395653    
    980000   297.3096       422.29032      55467.111     -20491.677      3325.9965     -17165.68       1.0284916    
    981000   304.23569     -447.85572      55136.169     -20592.624      3403.4787     -17189.146      1.0346649    
    982000   303.51682      334.89692      54963.407     -20474.937      3395.4366     -17079.5        1.0379171    
    983000   296.55309      344.59548      54563.036     -20520.373      3317.5335     -17202.839      1.045533     
    984000   297.79379     -390.25958      54657.088     -20529.665      3331.4132     -17198.252      1.0437339    
    985000   295.56785     -95.65168       55405.419     -20464.664      3306.5117     -17158.152      1.0296368    
    986000   301.07117      1047.3862      54585.552     -20599.467      3368.0771     -17231.39       1.0451018    
    987000   302.67133     -329.8284       55658.656     -20374.748      3385.9782     -16988.77       1.0249521    
    988000   304.29222     -69.089559      55277.021     -20427.633      3404.111      -17023.522      1.0320284    
    989000   302.7982      -100.7781       54916.928     -20537.921      3387.3974     -17150.524      1.0387955    
    990000   303.76192      203.67033      54761.385     -20550.926      3398.1786     -17152.748      1.0417461    
    991000   302.04716      512.63117      55114.576     -20537.353      3378.9956     -17158.357      1.0350702    
    992000   302.50625      58.046348      55152.085     -20413.402      3384.1315     -17029.271      1.0343663    
    993000   301.99512      250.40924      54981.218     -20463.094      3378.4134     -17084.681      1.0375808    
    994000   298.55661     -408.41877      55317.515     -20416.428      3339.9468     -17076.482      1.031273     
    995000   295.32087      242.24847      54474.342     -20430.977      3303.7487     -17127.228      1.0472354    
    996000   300.29334      509.67651      55219.721     -20402.637      3359.3756     -17043.262      1.0330993    
    997000   303.70162      218.53516      54741.756     -20425.305      3397.5039     -17027.801      1.0421196    
    998000   301.73608     -96.79791       55215.854     -20419.075      3375.5155     -17043.559      1.0331717    
    999000   304.69608      393.89118      54702.379     -20589.264      3408.629      -17180.634      1.0428698    
   1000000   302.17523      120.44636      54556.203     -20553.812      3380.4283     -17173.384      1.045664     
   1001000   299.68382      194.60064      55218.817     -20553.565      3352.5569     -17201.009      1.0331163    
   1002000   296.86812      537.90394      55643.316     -20444.844      3321.0578     -17123.786      1.0252347    
   1003000   295.47164      1135.0561      55406.501     -20485.259      3305.4353     -17179.824      1.0296167    
   1004000   298.50724     -643.28967      55295.301     -20525.094      3339.3946     -17185.7        1.0316873    
   1005000   295.78918     -72.760863      55193.205     -20614.509      3308.9877     -17305.521      1.0335957    
   1006000   293.95341     -18.876058      55196.34      -20555.227      3288.451      -17266.776      1.033537     
   1007000   303.44165      777.29524      54987.287     -20459.313      3394.5957     -17064.717      1.0374663    
   1008000   295.18267     -593.16388      55779.762     -20465.857      3302.2026     -17163.654      1.0227268    
   1009000   300.68046     -19.132838      55302.87      -20427.656      3363.7063     -17063.949      1.0315461    
   1010000   302.70321     -521.17122      55277.602     -20546.268      3386.3348     -17159.933      1.0320176    
   1011000   299.5381       382.13587      54958.068     -20524.12       3350.9268     -17173.193      1.0380179    
   1012000   305.30207     -122.72785      55041.124     -20588.29       3415.4082     -17172.882      1.0364515    
   1013000   293.34587     -576.71745      54926.835     -20402.806      3281.6545     -17121.151      1.0386081    
   1014000   299.64033     -123.55935      55254.586     -20479.975      3352.0704     -17127.905      1.0324475    
   1015000   302.25748      271.04667      55026.221     -20431.101      3381.3484     -17049.753      1.0367322    
   1016000   301.58972      971.29995      55074.643     -20418.397      3373.8782     -17044.519      1.0358207    
   1017000   295.88594     -325.59997      55409.966     -20573.356      3310.0701     -17263.286      1.0295523    
   1018000   304.8383      -55.211019      55179.995     -20518.409      3410.22       -17108.189      1.0338431    
   1019000   299.45163      296.74458      55324.875     -20465.642      3349.9595     -17115.683      1.0311358    
   1020000   304.56405      223.10363      54803.253     -20574.412      3407.152      -17167.26       1.0409502    
   1021000   299.63724     -666.42851      55445.476     -20469.941      3352.0359     -17117.905      1.0288929    
   1022000   296.1214      -120.77527      55282.077     -20454.295      3312.7042     -17141.59       1.031934     
   1023000   302.20214      21.562923      55115.352     -20454.906      3380.7293     -17074.177      1.0350557    
   1024000   310.26254      47.490618      55378.236     -20402.982      3470.9009     -16932.081      1.0301422    
   1025000   301.67261     -446.94126      55541.085     -20476.311      3374.8055     -17101.505      1.0271218    
   1026000   303.99052      308.58456      54956.196     -20517.454      3400.7359     -17116.718      1.0380533    
   1027000   298.32177     -245.49585      55581.393     -20407.845      3337.3197     -17070.525      1.0263769    
   1028000   303.11025      190.75172      55078.571     -20511.689      3390.8883     -17120.8        1.0357469    
   1029000   301.47402     -175.80742      55689.151     -20445.949      3372.5838     -17073.365      1.0243909    
   1030000   296.2986       548.1124       55162.849     -20389.005      3314.6865     -17074.318      1.0341645    
   1031000   300.15269      467.74793      55023.071     -20527.733      3357.8021     -17169.93       1.0367916    
   1032000   304.13422     -271.37359      55189.24      -20484.864      3402.3434     -17082.521      1.0336699    
   1033000   301.61527      308.85702      54940.642     -20374.664      3374.1641     -17000.5        1.0383471    
   1034000   292.19196     -698.33208      55588.226     -20593.24       3268.7457     -17324.495      1.0262507    
   1035000   302.19809      792.59311      54892.139     -20494.447      3380.684      -17113.762      1.0392646    
   1036000   293.55549     -182.32513      54926.614     -20487.73       3283.9995     -17203.731      1.0386123    
   1037000   294.71833      53.598942      55248.173     -20463.149      3297.0081     -17166.141      1.0325673    
   1038000   299.56935     -57.430572      54967.663     -20526.218      3351.2764     -17174.942      1.0378367    
   1039000   294.29739     -686.75647      55026.101     -20525.746      3292.299      -17233.446      1.0367345    
   1040000   305.51881      902.29734      54526.744     -20530.823      3417.8328     -17112.991      1.0462289    
   1041000   301.06937      499.64573      54700.517     -20531.255      3368.057      -17163.198      1.0429053    
   1042000   306.63873      1054.2246      54926.228     -20455.344      3430.3614     -17024.983      1.0386196    
   1043000   298.60816     -255.47271      55357.511     -20537.245      3340.5236     -17196.721      1.0305279    
   1044000   300.41011      495.37309      54814.598     -20530.145      3360.6819     -17169.463      1.0407348    
   1045000   306.19681      784.96053      54861.049     -20488.787      3425.4176     -17063.37       1.0398536    
   1046000   304.08126     -895.81629      55353.608     -20412.607      3401.751      -17010.856      1.0306005    
   1047000   295.04644      444.46339      54979.672     -20491.046      3300.6787     -17190.367      1.03761      
   1048000   296.94771      176.16491      54851.747     -20552.954      3321.9481     -17231.006      1.0400299    
   1049000   295.8651       191.72779      55483.453     -20458.06       3309.8369     -17148.223      1.0281887    
   1050000   301.86906      436.69427      54715.088     -20404.153      3377.0031     -17027.15       1.0426275    
   1051000   296.64684     -326.95644      55438.353     -20312.082      3318.5823     -16993.499      1.0290251    
   1052000   300.26636      199.69924      55202.9       -20517.81       3359.0738     -17158.736      1.0334141    
   1053000   300.19023      693.20809      55014.529     -20409.582      3358.2221     -17051.36       1.0369526    
   1054000   309.10352     -404.80828      55028.89      -20430.373      3457.9349     -16972.438      1.036682     
   1055000   308.0766      -275.7389       54749.717     -20564.834      3446.4467     -17118.387      1.0419681    
   1056000   302.41202     -348.14113      54824.436     -20483.147      3383.0772     -17100.069      1.040548     
   1057000   299.19228     -139.84588      55204.107     -20571.156      3347.0581     -17224.098      1.0333916    
   1058000   307.02324      2.3842724      55105.418     -20461.81       3434.6629     -17027.147      1.0352423    
   1059000   303.96541      1323.9462      54846.484     -20475.128      3400.455      -17074.673      1.0401297    
   1060000   297.47188      188.84487      54878.637     -20412.686      3327.8121     -17084.874      1.0395203    
   1061000   299.8475       435.34122      54294.458     -20523.463      3354.3881     -17169.075      1.050705     
   1062000   293.38874      279.32262      54835.098     -20410.987      3282.134      -17128.853      1.0403457    
   1063000   304.13482      465.06459      54901.398     -20456.587      3402.3502     -17054.237      1.0390893    
   1064000   299.85653      138.20139      54275.031     -20489.743      3354.4891     -17135.254      1.0510811    
   1065000   301.51047      54.123426      55114.259     -20382.915      3372.9917     -17009.924      1.0350762    
   1066000   301.34413     -128.46159      54801.944     -20429.021      3371.1308     -17057.89       1.0409751    
   1067000   299.45166      78.609168      55190.501     -20481.304      3349.9598     -17131.344      1.0336463    
   1068000   297.76524      623.52024      55379.684     -20437.788      3331.0939     -17106.694      1.0301153    
   1069000   299.21595     -207.89132      54924.518     -20384.087      3347.3228     -17036.764      1.038652     
   1070000   304.10211     -809.50266      55460.525     -20371.935      3401.9843     -16969.951      1.0286137    
   1071000   304.33917     -26.053266      55184.998     -20455.608      3404.6363     -17050.972      1.0337494    
   1072000   304.84062      336.70563      55173.431     -20382.302      3410.246      -16972.056      1.0339661    
   1073000   299.38329      1073.1072      54921.323     -20550.052      3349.1949     -17200.857      1.0387124    
   1074000   301.1009       52.296793      54825.525     -20501.073      3368.4097     -17132.663      1.0405273    
   1075000   305.41628     -134.38198      55245.978     -20468.987      3416.6858     -17052.301      1.0326083    
   1076000   299.22478      198.47155      55320.724     -20560.141      3347.4217     -17212.719      1.0312131    
   1077000   292.89504     -201.32831      55003.912     -20464.266      3276.611      -17187.655      1.0371527    
   1078000   296.77286     -37.107446      55075.845     -20421.346      3319.9921     -17101.354      1.0357981    
   1079000   292.39822      617.33316      54756.373     -20484.423      3271.0531     -17213.37       1.0418414    
   1080000   300.84892      584.48642      54580.391     -20545.296      3365.5908     -17179.705      1.0452006    
   1081000   298.08844      24.145293      55336.78      -20453.766      3334.7094     -17119.057      1.0309139    
   1082000   297.70787     -300.53885      55370.914     -20371.091      3330.4521     -17040.639      1.0302784    
   1083000   299.34121     -769.23294      55390.677     -20506.501      3348.7241     -17157.777      1.0299108    
   1084000   302.15873      813.09331      55288.867     -20362.239      3380.2437     -16981.995      1.0318073    
   1085000   300.01944     -375.47831      55045.543     -20517.416      3356.3115     -17161.104      1.0363683    
   1086000   300.56843     -45.220131      55082.868     -20423.576      3362.453      -17061.123      1.0356661    
   1087000   307.28277     -163.97205      55234.391     -20448.934      3437.5662     -17011.367      1.032825     
   1088000   303.36049      100.74854      55676.842     -20555.082      3393.6878     -17161.394      1.0246173    
   1089000   296.95829      49.3041        55175.859     -20427.895      3322.0664     -17105.828      1.0339206    
   1090000   292.18615      318.73359      55067.991     -20361.096      3268.6807     -17092.415      1.0359459    
   1091000   309.03265      476.59021      54924.624     -20381.319      3457.1422     -16924.177      1.0386499    
   1092000   294.99794     -225.15006      55353.452     -20331.187      3300.136      -17031.051      1.0306034    
   1093000   305.26475      580.19624      55024.419     -20451.588      3414.9907     -17036.597      1.0367662    
   1094000   293.36414     -505.73133      55710.168     -20498.539      3281.8588     -17216.68       1.0240044    
   1095000   299.27481      63.465421      55616.837     -20314.503      3347.9813     -16966.522      1.0257228    
   1096000   308.18211     -790.54149      55446.98      -20442.169      3447.6272     -16994.542      1.028865     
   1097000   303.4775       607.47264      54520.733     -20502.244      3394.9968     -17107.247      1.0463443    
   1098000   300.33666     -444.94996      55139.514     -20453.022      3359.8602     -17093.162      1.0346021    
   1099000   302.64875     -54.773333      54964.957     -20468.972      3385.7256     -17083.246      1.0378878    
   1100000   306.73349      496.18307      54669.194     -20594.574      3431.4215     -17163.153      1.0435028    
   1101000   302.78727     -700.59899      54852.495     -20597.005      3387.2751     -17209.73       1.0400157    
   1102000   302.26865      640.61362      54344.189     -20649.117      3381.4734     -17267.644      1.0497435    
   1103000   295.5997      -988.89373      54426.217     -20430.859      3306.8679     -17123.991      1.0481614    
   1104000   295.95075      118.34772      55388.915     -20399.983      3310.7951     -17089.188      1.0299436    
   1105000   307.1559       527.93838      54981.701     -20482.27       3436.147      -17046.123      1.0375717    
   1106000   295.97142     -829.52849      55253.48      -20632.479      3311.0264     -17321.453      1.0324681    
   1107000   300.43705     -680.48243      55112.412     -20512.391      3360.9833     -17151.408      1.0351109    
   1108000   305.11451     -140.39589      54823.268     -20428.512      3413.3099     -17015.202      1.0405702    
   1109000   296.08697      143.9262       55148.356     -20600.987      3312.319      -17288.668      1.0344362    
   1110000   299.5064      -215.4838       55774.973     -20488.04       3350.5721     -17137.468      1.0228146    
   1111000   301.95438      359.15785      54673.643     -20484.504      3377.9577     -17106.547      1.0434179    
   1112000   293.74945     -122.19671      55556.3       -20503.308      3286.1693     -17217.138      1.0268405    
   1113000   300.76054      615.0412       55137.655     -20532.069      3364.6021     -17167.467      1.034637     
   1114000   299.34436     -22.301925      55232.075     -20639.445      3348.7593     -17290.686      1.0328683    
   1115000   301.30199     -718.94439      55271.313     -20509.413      3370.6594     -17138.754      1.032135     
   1116000   299.27891     -58.809858      55633.563     -20419.468      3348.0272     -17071.441      1.0254144    
   1117000   307.22627      762.05931      55175.404     -20458.873      3436.9342     -17021.939      1.0339291    
   1118000   305.44305      301.13593      55367.588     -20461.212      3416.9853     -17044.226      1.0303403    
   1119000   294.11589      178.35976      55074.661     -20383.064      3290.2686     -17092.795      1.0358204    
   1120000   293.64714      0.48928777     55230.172     -20487.241      3285.0247     -17202.216      1.0329038    
   1121000   301.20419     -213.67563      54964.523     -20519.74       3369.5653     -17150.175      1.037896     
   1122000   296.64082     -156.5748       55599.592     -20451.216      3318.5149     -17132.701      1.0260409    
   1123000   310.03354      1097.7792      55040.944     -20464.534      3468.339      -16996.195      1.0364549    
   1124000   293.97834      961.49673      55207.862     -20605.282      3288.7298     -17316.552      1.0333213    
   1125000   299.14199     -37.127971      55704.98      -20533.965      3346.4955     -17187.47       1.0240998    
   1126000   305.75311     -218.0082       55432.922     -20517.923      3420.454      -17097.469      1.0291259    
   1127000   297.21979     -9.9279876      55449.098     -20488.485      3324.9919     -17163.493      1.0288257    
   1128000   300.15107      245.53855      55298.318     -20386.563      3357.7841     -17028.779      1.031631     
   1129000   300.81833      18.853982      54826.964     -20416.33       3365.2487     -17051.082      1.0405       
   1130000   298.89429     -26.501982      55307.728     -20601.46       3343.7245     -17257.735      1.0314555    
   1131000   301.30247      558.78866      54795.818     -20435.832      3370.6647     -17065.167      1.0410915    
   1132000   304.77301      61.069012      54870.273     -20490.81       3409.4896     -17081.32       1.0396788    
   1133000   306.93049     -377.88233      55631.765     -20523.726      3433.6253     -17090.101      1.0254476    
   1134000   307.06535     -352.1282       54595.542     -20533.928      3435.134      -17098.794      1.0449105    
   1135000   298.89767     -583.8268       54618.961     -20524.684      3343.7623     -17180.922      1.0444625    
   1136000   300.63258      758.02029      55261.678     -20445.437      3363.1707     -17082.266      1.032315     
   1137000   307.14303     -189.2165       55061.371     -20425.328      3436.0029     -16989.326      1.0360704    
   1138000   298.63638     -31.633465      54941.603     -20575.571      3340.8393     -17234.732      1.038329     
   1139000   293.84313     -549.55787      54703.934     -20609.598      3287.2172     -17322.381      1.0428401    
   1140000   308.40797      188.73164      55264.622     -20360.15       3450.1538     -16909.996      1.03226      
   1141000   304.58961      860.85208      54702.111     -20409.82       3407.4379     -17002.383      1.0428749    
   1142000   297.72459      149.27972      55149.209     -20483.839      3330.6391     -17153.2        1.0344202    
   1143000   307.64232      121.40393      55074.379     -20271.329      3441.5885     -16829.74       1.0358257    
   1144000   294.38621     -6.2258552      54745.389     -20602.496      3293.2927     -17309.203      1.0420505    
   1145000   298.26664     -437.65633      54978.414     -20416.268      3336.703      -17079.565      1.0376337    
   1146000   304.70932      945.03241      55318.257     -20459.462      3408.7771     -17050.685      1.0312591    
   1147000   303.03744     -428.8395       54868.283     -20507.518      3390.0738     -17117.444      1.0397165    
   1148000   293.96669     -267.95028      55169.689     -20493.698      3288.5995     -17205.098      1.0340362    
   1149000   301.45492     -12.670265      55087.462     -20315.827      3372.3702     -16943.457      1.0355797    
   1150000   301.83838     -141.19639      54910.45      -20506.482      3376.6599     -17129.822      1.038918     
   1151000   300.60985      238.48702      54948.819     -20515.788      3362.9165     -17152.872      1.0381926    
   1152000   291.24755      895.55869      54859.84      -20534.843      3258.1806     -17276.663      1.0398765    
   1153000   296.49441      20.994724      55357.797     -20406.156      3316.8771     -17089.279      1.0305225    
   1154000   299.33249      48.266328      54780.242     -20518.554      3348.6266     -17169.928      1.0413875    
   1155000   292.31343     -62.261011      54998.088     -20609.319      3270.1045     -17339.215      1.0372626    
   1156000   301.11368      395.89132      55326.812     -20559.148      3368.5528     -17190.595      1.0310997    
   1157000   296.38416      119.81088      55344.801     -20537.737      3315.6437     -17222.093      1.0307645    
   1158000   301.94987      72.039518      55054.977     -20467.036      3377.9072     -17089.128      1.0361907    
   1159000   298.93791      428.81587      55317.355     -20444.878      3344.2124     -17100.666      1.0312759    
   1160000   302.67662      420.408        54809.76      -20548.332      3386.0374     -17162.294      1.0408266    
   1161000   301.39961     -140.21216      55338.331     -20473.748      3371.7515     -17101.996      1.030885     
   1162000   299.89761     -1011.6444      55424.603     -20398.225      3354.9486     -17043.276      1.0292804    
   1163000   300.86046      79.721139      55298.917     -20407.513      3365.72       -17041.793      1.0316198    
   1164000   292.3835       24.302453      54759.153     -20558.436      3270.8884     -17287.547      1.0417885    
   1165000   300.44633     -511.20925      54877.397     -20567.07       3361.0871     -17205.983      1.0395438    
   1166000   301.82014      344.35253      54829.628     -20541.897      3376.4559     -17165.441      1.0404495    
   1167000   304.88421     -250.61401      55143.015     -20497.046      3410.7336     -17086.313      1.0345364    
   1168000   294.05234      77.243975      54826.093     -20505.582      3289.5577     -17216.024      1.0405166    
   1169000   294.92516      593.10033      55068.823     -20438.208      3299.3219     -17138.886      1.0359302    
   1170000   295.76971      49.809129      55011.338     -20351.132      3308.7699     -17042.363      1.0370127    
   1171000   305.77369     -294.83195      55456.045     -20484.615      3420.6841     -17063.931      1.0286968    
   1172000   299.24994      41.739011      55293.955     -20552.97       3347.7031     -17205.267      1.0317124    
   1173000   302.50153     -414.37163      55281.702     -20408.415      3384.0786     -17024.336      1.031941     
   1174000   301.35411      557.41763      54419.202     -20391.036      3371.2424     -17019.794      1.0482965    
   1175000   300.0751      -368.33098      55648.307     -20494.183      3356.9341     -17137.249      1.0251427    
   1176000   305.27901      406.71589      55308.957     -20500.708      3415.1502     -17085.557      1.0314325    
   1177000   300.52554      1118.6454      55242.637     -20590.763      3361.9733     -17228.789      1.0326708    
   1178000   296.09088      596.19406      55151.275     -20473.103      3312.3628     -17160.74       1.0343815    
   1179000   302.80673      180.79976      55690.135     -20312.736      3387.4928     -16925.243      1.0243728    
   1180000   303.44013      197.81127      55362.99      -20433.634      3394.5787     -17039.055      1.0304259    
   1181000   302.09925     -454.47211      55504.412     -20466.727      3379.5783     -17087.148      1.0278004    
   1182000   294.19173      6.8798319      54844.512     -20507.525      3291.1171     -17216.408      1.0401671    
   1183000   303.76196      349.35977      55285.836     -20484.043      3398.179      -17085.864      1.0318639    
   1184000   299.64639     -341.48918      55348.068     -20519.854      3352.1382     -17167.716      1.0307037    
   1185000   302.15125     -557.96479      55257.108     -20422.352      3380.16       -17042.192      1.0324004    
   1186000   303.31915     -1.0793912      55389.878     -20523.418      3393.2252     -17130.193      1.0299257    
   1187000   305.25761      528.60746      55160.458     -20542.794      3414.9108     -17127.883      1.0342093    
   1188000   296.05393      688.5662       55222.071     -20458.901      3311.9494     -17146.952      1.0330554    
   1189000   296.94219      4.3392209      54659.955     -20428.637      3321.8864     -17106.751      1.0436792    
   1190000   302.99464     -757.99621      54955.765     -20534.647      3389.595      -17145.051      1.0380614    
   1191000   297.69754      238.25274      54753.683     -20476.227      3330.3364     -17145.89       1.0418926    
   1192000   294.89509      91.800018      55363.967     -20548.258      3298.9855     -17249.273      1.0304077    
   1193000   299.59065     -89.49227       55111.025     -20416.24       3351.5146     -17064.725      1.0351369    
   1194000   297.94535     -530.72352      55098.264     -20375.804      3333.1087     -17042.696      1.0353767    
   1195000   303.94463     -450.46568      55289.882     -20348.401      3400.2225     -16948.179      1.0317884    
   1196000   296.32994     -229.87589      55591.101     -20422.565      3315.0372     -17107.528      1.0261977    
   1197000   299.03363      1046.3956      55719.094     -20454.702      3345.2832     -17109.419      1.0238404    
   1198000   302.58104      635.87546      55706.949     -20448.483      3384.968      -17063.515      1.0240636    
   1199000   299.59452     -227.63564      55606.469     -20376.669      3351.5579     -17025.111      1.025914     
   1200000   303.05929      160.29723      55521.642     -20540.654      3390.3182     -17150.335      1.0274815    
   1201000   299.9694      -569.76248      55432.819     -20462.764      3355.7517     -17107.013      1.0291279    
   1202000   298.25642      714.58239      55522.238     -20543.643      3336.5887     -17207.054      1.0274704    
   1203000   295.6494       424.69849      55121.601     -20512.511      3307.4239     -17205.088      1.0349383    
   1204000   299.25639      910.11272      55510.535     -20459.731      3347.7752     -17111.956      1.027687     
   1205000   306.03108      166.43843      54558.479     -20564.012      3423.5636     -17140.448      1.0456204    
   1206000   301.61544     -301.37282      54836.26      -20434.394      3374.166      -17060.228      1.0403236    
   1207000   300.33235      1082.8934      54075.906     -20683.846      3359.812      -17324.034      1.0549515    
   1208000   299.44309     -579.69873      55328.742     -20488.5        3349.8638     -17138.636      1.0310637    
   1209000   296.10654      2.2154456      55008.522     -20504.931      3312.5379     -17192.393      1.0370658    
   1210000   295.28243      396.74506      55152.358     -20515.865      3303.3187     -17212.547      1.0343612    
   1211000   299.73094      183.45018      54887.509     -20485.874      3353.084      -17132.79       1.0393523    
   1212000   298.11416      38.980625      54863.369     -20339.335      3334.9972     -17004.338      1.0398096    
   1213000   305.36015      791.00584      54741.833     -20459.046      3416.058      -17042.988      1.0421181    
   1214000   302.29862     -310.00525      54942.023     -20444.514      3381.8087     -17062.705      1.038321     
   1215000   298.53222     -718.49605      55466.843     -20265.574      3339.674      -16925.9        1.0284966    
   1216000   304.47993     -143.96005      55200.575     -20543.288      3406.2109     -17137.077      1.0334577    
   1217000   301.72763      37.136301      55173.874     -20486.35       3375.4209     -17110.929      1.0339578    
   1218000   297.75443     -739.72926      54713.297     -20588.127      3330.9728     -17257.154      1.0426617    
   1219000   300.30074     -463.97206      54910.151     -20629.519      3359.4584     -17270.061      1.0389237    
   1220000   306.72874      390.41232      55091.809     -20503.025      3431.3683     -17071.657      1.035498     
   1221000   296.17836     -319.21364      54832.289     -20548.268      3313.3414     -17234.927      1.040399     
   1222000   306.18608      28.810625      55085.309     -20552.362      3425.2976     -17127.064      1.0356202    
   1223000   305.48141      53.432205      55223.812     -20595.55       3417.4144     -17178.135      1.0330228    
   1224000   300.52722      404.11966      55090.53      -20471.291      3361.992      -17109.299      1.035522     
   1225000   303.92366      464.06524      55532.195     -20482.922      3399.988      -17082.934      1.0272862    
   1226000   301.93608     -531.39789      55818.272     -20390.922      3377.7529     -17013.169      1.0220212    
   1227000   304.98766      435.80858      54925.248     -20598.24       3411.8908     -17186.35       1.0386381    
   1228000   299.73635      285.40252      55069.594     -20514.714      3353.1446     -17161.57       1.0359157    
   1229000   296.30425      184.30476      55268.487     -20478.08       3314.7497     -17163.331      1.0321878    
   1230000   304.11242     -365.5102       55126.184     -20515.091      3402.0996     -17112.991      1.0348523    
   1231000   296.02379     -779.42132      54909.548     -20470.709      3311.6123     -17159.096      1.0389351    
   1232000   305.51625     -25.254152      55261.29      -20533.234      3417.8042     -17115.43       1.0323222    
   1233000   303.81385     -115.33308      55744.56      -20467.947      3398.7595     -17069.188      1.0233726    
   1234000   304.69841     -520.44381      55050.886     -20449.799      3408.6551     -17041.143      1.0362678    
   1235000   297.49357      41.308643      54932.86      -20451.898      3328.0546     -17123.843      1.0384942    
   1236000   299.0005       219.33737      55194.636     -20635.432      3344.9127     -17290.52       1.0335689    
   1237000   301.28246      1109.9834      54830.387     -20433.141      3370.4409     -17062.7        1.0404351    
   1238000   305.90058     -166.37291      55245.24      -20465.438      3422.1037     -17043.334      1.0326221    
   1239000   296.3212       483.47927      55077.063     -20468.575      3314.9393     -17153.636      1.0357752    
   1240000   303.05172     -623.10062      55370.19      -20512.474      3390.2335     -17122.241      1.0302919    
   1241000   305.24449      452.13571      55223.058     -20413.94       3414.764      -16999.176      1.0330369    
   1242000   296.83129     -590.77059      54962.215     -20617.873      3320.6458     -17297.227      1.0379396    
   1243000   304.36336     -467.02257      54942.668     -20657.495      3404.9069     -17252.588      1.0383088    
   1244000   298.88797     -199.87813      54991.475     -20573.114      3343.6538     -17229.46       1.0373873    
   1245000   304.47754     -337.85459      54822.892     -20544.748      3406.1842     -17138.564      1.0405773    
   1246000   305.4195       68.582135      54892.056     -20448.406      3416.7219     -17031.684      1.0392662    
   1247000   297.96664     -591.01805      55660.315     -20468.785      3333.3469     -17135.438      1.0249216    
   1248000   296.21702      143.39466      55041.846     -20530.513      3313.7739     -17216.74       1.036438     
   1249000   304.27126     -339.8569       55381.939     -20708.127      3403.8765     -17304.25       1.0300733    
   1250000   295.4316      -379.55868      55479.207     -20460.502      3304.9874     -17155.514      1.0282674    
   1251000   304.79207     -344.19812      55646.682     -20657.014      3409.7028     -17247.311      1.0251727    
   1252000   307.03435      281.34637      55029.147     -20468.86       3434.7872     -17034.073      1.0366771    
   1253000   307.69242      83.730249      54942.524     -20306.298      3442.149      -16864.149      1.0383116    
   1254000   301.97855     -898.50384      55326.87      -20432.906      3378.228      -17054.678      1.0310986    
   1255000   300.51545      652.85919      55342.873     -20476.248      3361.8603     -17114.388      1.0308004    
   1256000   299.79554     -227.3336       54893.171     -20582.415      3353.8067     -17228.608      1.0392451    
   1257000   295.10187     -748.51757      55511.559     -20427.602      3301.2987     -17126.303      1.0276681    
   1258000   300.29042     -416.58443      55411.101     -20493.862      3359.343      -17134.519      1.0295312    
   1259000   300.17574      137.58419      55390.137     -20439.292      3358.06       -17081.232      1.0299209    
   1260000   305.90285     -324.72288      54920.262     -20471.458      3422.1291     -17049.329      1.0387324    
   1261000   292.70432     -112.43319      54661.527     -20459.684      3274.4774     -17185.206      1.0436492    
   1262000   297.61114     -259.56661      55670.883     -20407.932      3329.3699     -17078.562      1.024727     
   1263000   300.91789     -585.49814      55497.227     -20570.134      3366.3625     -17203.772      1.0279335    
   1264000   300.54061      737.70437      54463.832     -20480.876      3362.1419     -17118.734      1.0474375    
   1265000   299.01749      444.18562      54860.519     -20433.891      3345.1027     -17088.788      1.0398636    
   1266000   310.33178      241.36141      54994.058     -20481.772      3471.6755     -17010.096      1.0373386    
   1267000   296.30105     -201.1017       55677.838     -20418.067      3314.7139     -17103.353      1.024599     
   1268000   301.79668      144.76169      55195.68      -20477.299      3376.1935     -17101.105      1.0335493    
   1269000   298.02365     -544.47074      55474.311     -20465.929      3333.9847     -17131.944      1.0283581    
   1270000   300.41775     -251.06453      55128.774     -20474.751      3360.7674     -17113.984      1.0348037    
   1271000   303.57993     -182.70629      55662.958     -20513.309      3396.1426     -17117.167      1.0248729    
   1272000   300.94689      474.59054      55071.119     -20483.382      3366.6869     -17116.695      1.035887     
   1273000   297.39256      31.203575      55721.293     -20643.949      3326.9247     -17317.025      1.0238       
   1274000   300.60567      595.85719      55290.977     -20501.143      3362.8696     -17138.274      1.0317679    
   1275000   299.55962      558.19539      55569.019     -20590.598      3351.1675     -17239.43       1.0266054    
   1276000   297.80031      629.49614      54832.332     -20462.806      3331.4862     -17131.32       1.0403982    
   1277000   297.06919      168.98882      54788.697     -20542.305      3323.3072     -17218.998      1.0412268    
   1278000   311.13724      591.93271      55841.568     -20500.821      3480.6861     -17020.135      1.0215948    
   1279000   301.27566      1025.4374      55363.606     -20575.394      3370.3649     -17205.03       1.0304144    
   1280000   297.24245      218.14586      55153.081     -20454.308      3325.2454     -17129.063      1.0343476    
   1281000   296.2354       44.818034      55322.153     -20470.86       3313.9796     -17156.881      1.0311865    
   1282000   309.03509     -220.38667      55244.162     -20531.962      3457.1694     -17074.793      1.0326423    
   1283000   300.72485     -69.238789      55114.301     -20443.142      3364.2029     -17078.939      1.0350754    
   1284000   294.91618     -1115.3587      55102.12      -20594.848      3299.2214     -17295.627      1.0353042    
   1285000   297.75425      102.74808      55171.854     -20611.385      3330.9708     -17280.414      1.0339957    
   1286000   295.39354      35.41307       55044.869     -20607.17       3304.5616     -17302.609      1.036381     
   1287000   295.55585      197.55904      55175.823     -20473.644      3306.3774     -17167.266      1.0339213    
   1288000   300.31275     -840.23739      55088.673     -20505.645      3359.5928     -17146.052      1.0355569    
   1289000   297.51072     -507.71955      55314.178     -20456.368      3328.2465     -17128.121      1.0313352    
   1290000   302.3471      -61.015325      55128.5       -20429.343      3382.351      -17046.992      1.0348088    
   1291000   305.93783      753.45773      54933.983     -20451.254      3422.5204     -17028.734      1.038473     
   1292000   308.052        241.04925      54846.468     -20460.685      3446.1716     -17014.513      1.04013      
   1293000   307.77045      4.5801267      55279.974     -20359.256      3443.0219     -16916.234      1.0319733    
   1294000   295.54423     -328.72603      54928.37      -20560.965      3306.2475     -17254.717      1.0385791    
   1295000   297.39606      114.73382      54990.986     -20595.41       3326.9639     -17268.446      1.0373965    
   1296000   300.55686      819.88091      54922.954     -20586.083      3362.3236     -17223.76       1.0386815    
   1297000   300.61728      626.30093      54829.609     -20526.106      3362.9995     -17163.106      1.0404498    
   1298000   303.51363     -88.115078      55132.115     -20517.697      3395.4009     -17122.296      1.034741     
   1299000   301.54039     -212.99306      54827.977     -20510.473      3373.3264     -17137.147      1.0404808    
   1300000   303.73753      286.089        54921.28      -20535.251      3397.9057     -17137.345      1.0387132    
   1301000   296.71474      658.82282      54459.433     -20555.995      3319.3419     -17236.653      1.0475221    
   1302000   303.98214      298.25361      55225.832     -20477.551      3400.6422     -17076.908      1.032985     
   1303000   295.10714      405.60229      55427.446     -20435.985      3301.3577     -17134.627      1.0292276    
   1304000   302.24032      204.12845      54702.278     -20501.951      3381.1564     -17120.795      1.0428717    
   1305000   298.54616      368.59652      55203.507     -20463.567      3339.83       -17123.737      1.0334028    
   1306000   300.72827      74.166302      54673.847     -20434.448      3364.2411     -17070.207      1.043414     
   1307000   299.90864      137.70161      54849.201     -20573.26       3355.072      -17218.188      1.0400782    
   1308000   304.108        544.79056      55577.273     -20438.63       3402.0502     -17036.58       1.026453     
   1309000   302.81929     -137.08344      55388.009     -20480.211      3387.6334     -17092.578      1.0299604    
   1310000   298.58797      210.6326       55101.956     -20356.015      3340.2977     -17015.717      1.0353073    
   1311000   307.37729      463.65438      55423.949     -20559.399      3438.6237     -17120.776      1.0292925    
   1312000   296.42658      102.10577      55008.586     -20502.091      3316.1183     -17185.972      1.0370646    
   1313000   300.86991     -587.23626      55076.457     -20539.703      3365.8257     -17173.878      1.0357866    
   1314000   301.57651      261.6136       55230.098     -20429.778      3373.7304     -17056.048      1.0329052    
   1315000   303.39593     -51.058207      54928.633     -20461.108      3394.0842     -17067.024      1.0385741    
   1316000   300.34886     -413.48111      55378.968     -20501.51       3359.9967     -17141.514      1.0301286    
   1317000   292.26113     -44.82681       54944.529     -20554.526      3269.5195     -17285.006      1.0382737    
   1318000   296.01435     -562.24478      55487.406     -20526.45       3311.5067     -17214.944      1.0281154    
   1319000   293.35124     -105.22071      55336.443     -20507.713      3281.7145     -17225.999      1.0309202    
   1320000   296.25321      204.29706      54947.948     -20618.378      3314.1788     -17304.2        1.0382091    
   1321000   301.40222     -501.79282      54677.021     -20449.51       3371.7807     -17077.729      1.0433534    
   1322000   299.12063      81.10498       55168.344     -20490.742      3346.2565     -17144.486      1.0340614    
   1323000   301.34173      808.70151      55278.871     -20593.052      3371.1039     -17221.948      1.0319939    
   1324000   303.83823     -468.67894      55445.544     -20444.449      3399.0322     -17045.417      1.0288917    
   1325000   300.48617     -651.01466      55363.973     -20507.14       3361.5328     -17145.607      1.0304076    
   1326000   297.85191     -727.63743      55175.213     -20518.461      3332.0633     -17186.398      1.0339327    
   1327000   295.68699      500.32122      55210.925     -20460.938      3307.8444     -17153.093      1.0332639    
   1328000   302.17917      433.7092       54794.44      -20453.644      3380.4724     -17073.172      1.0411176    
   1329000   304.74963      743.41682      54448.689     -20478.937      3409.228      -17069.709      1.0477288    
   1330000   301.3471      -335.41264      55563.52      -20465.767      3371.1641     -17094.603      1.026707     
   1331000   302.11206     -308.25449      55037.236     -20529.102      3379.7216     -17149.38       1.0365248    
   1332000   296.97999     -488.43893      55100.226     -20457.185      3322.3092     -17134.876      1.0353398    
   1333000   304.25175      1145.7182      55193.722     -20597.739      3403.6583     -17194.081      1.033586     
   1334000   301.68997      159.83866      55011.93      -20453.922      3374.9997     -17078.923      1.0370016    
   1335000   299.67441     -450.11179      55117.291     -20472.462      3352.4516     -17120.011      1.0350193    
   1336000   298.35698      797.96686      54776.068     -20477.438      3337.7136     -17139.724      1.0414668    
   1337000   306.0309      -335.86095      55339.602     -20493.882      3423.5616     -17070.32       1.0308614    
   1338000   302.0308      -101.58658      55014.556     -20439.399      3378.8126     -17060.587      1.0369521    
   1339000   293.04515      209.53511      55275.13      -20366.515      3278.2902     -17088.225      1.0320637    
   1340000   309.54033     -434.91218      55278.266     -20439.493      3462.8215     -16976.672      1.0320052    
   1341000   299.80833      436.33683      54880.023     -20555.215      3353.9499     -17201.265      1.039494     
   1342000   296.93723      431.29978      54680.429     -20528.945      3321.8309     -17207.114      1.0432884    
   1343000   300.18453     -148.06652      54909.786     -20577.344      3358.1584     -17219.185      1.0389306    
   1344000   297.15904      241.48341      54725.443     -20511.39       3324.3122     -17187.078      1.0424303    
   1345000   300.79768      121.19926      54776.902     -20371.829      3365.0176     -17006.812      1.041451     
   1346000   301.69777     -671.97159      55175.688     -20559.689      3375.087      -17184.602      1.0339238    
   1347000   299.69463     -441.21322      54951.14      -20323.424      3352.6779     -16970.746      1.0381488    
   1348000   286.5801       507.14629      54478.936     -20572.607      3205.9659     -17366.641      1.0471471    
   1349000   297.709       -20.24892       55000.993     -20465.18       3330.4646     -17134.716      1.0372078    
   1350000   300.67523     -31.78892       54550.852     -20512.925      3363.6478     -17149.277      1.0457666    
   1351000   301.75316      136.74537      55082.317     -20383.062      3375.7066     -17007.355      1.0356764    
   1352000   305.72523      330.43916      55254.487     -20415.973      3420.1421     -16995.831      1.0324493    
   1353000   298.97402      983.15025      55098.14      -20537.208      3344.6164     -17192.592      1.035379     
   1354000   297.7557      -138.55819      55413.361     -20481.288      3330.9871     -17150.301      1.0294892    
   1355000   302.45534      557.61724      54795.357     -20319.075      3383.5619     -16935.513      1.0411002    
   1356000   294.06318      596.80375      54868.499     -20395.033      3289.6789     -17105.354      1.0397124    
   1357000   308.35338     -699.95487      54932.321     -20510.544      3449.5432     -17061.001      1.0385044    
   1358000   300.81563     -322.25761      55158.662     -20418.984      3365.2185     -17053.765      1.034243     
   1359000   297.36716     -42.257048      54826.808     -20463.888      3326.6406     -17137.247      1.040503     
   1360000   295.9996       1.9032298      54919.078     -20478.452      3311.3416     -17167.111      1.0387548    
   1361000   306.46689      553.28693      55190.801     -20503.683      3428.439      -17075.244      1.0336407    
   1362000   293.99668      71.708863      54733.44      -20496.297      3288.935      -17207.362      1.042278     
   1363000   301.63091      463.43436      54829.063     -20556.536      3374.339      -17182.197      1.0404602    
   1364000   306.9411       504.26592      54525.753     -20484.768      3433.7439     -17051.024      1.046248     
   1365000   297.6915      -584.63239      55041.174     -20497.173      3330.2689     -17166.904      1.0364506    
   1366000   305.9821       340.9328       54861.768     -20374.636      3423.0157     -16951.621      1.0398399    
   1367000   293.36826      114.03562      55130.757     -20513.809      3281.9049     -17231.904      1.0347664    
   1368000   299.80333      27.930845      55807.781     -20489.189      3353.8938     -17135.295      1.0222133    
   1369000   296.89962      148.63709      55082.62      -20414.927      3321.4101     -17093.517      1.0356707    
   1370000   303.57929      82.882479      54729.692     -20402.576      3396.1354     -17006.44       1.0423493    
   1371000   298.0366      -226.4554       54904.532     -20471.127      3334.1295     -17136.998      1.03903      
   1372000   300.29293     -705.57191      54627.148     -20553.258      3359.371      -17193.887      1.044306     
   1373000   295.03522     -575.90472      55191.612     -20366.067      3300.5532     -17065.514      1.0336255    
   1374000   295.36344     -1125.4623      55222.296     -20463.545      3304.2249     -17159.321      1.0330512    
   1375000   301.60252      377.91217      55454.247     -20458.422      3374.0214     -17084.401      1.0287302    
   1376000   299.26517     -283.95107      55421.32      -20362.186      3347.8735     -17014.313      1.0293414    
   1377000   305.98004      210.52056      55294.652     -20348.672      3422.9926     -16925.679      1.0316994    
   1378000   299.48967      69.872514      55260.587     -20470.244      3350.385      -17119.859      1.0323354    
   1379000   307.86227     -111.88186      54992.888     -20503.669      3444.0491     -17059.62       1.0373606    
   1380000   295.39556      246.41215      55243.147     -20471.308      3304.5842     -17166.724      1.0326613    
   1381000   303.88033     -719.60748      55446.849     -20500.348      3399.5032     -17100.845      1.0288674    
   1382000   293.35002      958.33126      55815.184     -20616.905      3281.7008     -17335.204      1.0220777    
   1383000   302.84285     -479.69101      55539.325     -20488.909      3387.8969     -17101.012      1.0271543    
   1384000   297.19666     -989.75445      55319.833     -20472.816      3324.7331     -17148.083      1.0312298    
   1385000   299.49097     -183.90496      55185.918     -20374.452      3350.3995     -17024.053      1.0337321    
   1386000   300.7331       500.61277      54987.441     -20527.225      3364.2952     -17162.93       1.0374634    
   1387000   303.39966     -119.43728      54864.276     -20505.639      3394.126      -17111.513      1.0397924    
   1388000   292.10505      428.42337      54547.161     -20438.028      3267.7734     -17170.255      1.0458373    
   1389000   295.00679      265.47646      55311.798     -20582.254      3300.2351     -17282.019      1.0313796    
   1390000   294.92159     -94.888674      54789.66      -20444.933      3299.2819     -17145.651      1.0412085    
   1391000   302.46583     -166.31353      54834.314     -20437.813      3383.6793     -17054.133      1.0403606    
   1392000   298.70787     -545.65076      54865.958     -20498.961      3341.639      -17157.322      1.0397605    
   1393000   301.53749      237.13526      54603.512     -20507.231      3373.294      -17133.937      1.044758     
   1394000   300.92794      259.25293      55387.024     -20515.446      3366.4749     -17148.971      1.0299788    
   1395000   301.6162      -510.8759       55088.952     -20639.691      3374.1745     -17265.516      1.0355517    
   1396000   294.40343      303.98412      55318.02      -20540.99       3293.4853     -17247.505      1.0312635    
   1397000   306.1987       103.37324      54905.475     -20464.862      3425.4388     -17039.423      1.0390122    
   1398000   304.07435     -718.38921      54993.539     -20482.843      3401.6738     -17081.169      1.0373484    
   1399000   301.78989      432.4663       55018.433     -20542.098      3376.1174     -17165.981      1.036879     
   1400000   293.90365     -418.27068      55242.521     -20479.397      3287.8943     -17191.503      1.032673     
   1401000   297.86446     -844.95763      55323.089     -20422.122      3332.2038     -17089.918      1.0311691    
   1402000   300.03165      287.32393      55080.269     -20566.675      3356.4481     -17210.227      1.0357149    
   1403000   303.41599      422.11369      55236.357     -20599.523      3394.3087     -17205.214      1.0327882    
   1404000   301.87585     -205.81642      55071.913     -20517.933      3377.0791     -17140.854      1.0358721    
   1405000   300.05189     -480.48955      55244.651     -20452.638      3356.6745     -17095.963      1.0326332    
   1406000   305.91777      830.06493      54880.803     -20561.002      3422.296      -17138.706      1.0394793    
   1407000   296.34311      966.20433      54582.649     -20683.91       3315.1845     -17368.725      1.0451574    
   1408000   298.15693      673.61         55177.343     -20461.418      3335.4757     -17125.942      1.0338928    
   1409000   298.87735      524.12659      55142.788     -20458.737      3343.535      -17115.202      1.0345407    
   1410000   297.40658      450.73423      54744.88      -20494.989      3327.0815     -17167.908      1.0420601    
   1411000   302.07403     -139.4042       55451.149     -20470.139      3379.2962     -17090.843      1.0287876    
   1412000   299.15764      498.99155      54875.132     -20628.262      3346.6706     -17281.592      1.0395867    
   1413000   302.33275      80.230939      55030.941     -20424.241      3382.1905     -17042.05       1.0366433    
   1414000   310.77142      539.77032      55178.649     -20391.777      3476.5937     -16915.183      1.0338683    
   1415000   298.21286     -181.02734      55056.689     -20603.36       3336.1014     -17267.259      1.0361585    
   1416000   296.83153     -986.16528      55068.685     -20520.245      3320.6484     -17199.597      1.0359328    
   1417000   296.21203      187.42188      55107.549     -20398.907      3313.7181     -17085.189      1.0352022    
   1418000   298.37889     -485.08227      55296.041     -20427.388      3337.9587     -17089.429      1.0316735    
   1419000   296.31779     -600.22393      55330.271     -20471.731      3314.9013     -17156.83       1.0310352    
   1420000   302.55608     -55.865594      54975.914     -20313.405      3384.6888     -16928.716      1.0376809    
   1421000   295.89969     -39.522062      55186.192     -20627.829      3310.224      -17317.605      1.033727     
   1422000   299.60407      64.893995      55415.643     -20656.976      3351.6647     -17305.311      1.0294468    
   1423000   304.68993      458.3762       55162.03      -20511.212      3408.5602     -17102.652      1.0341798    
   1424000   292.26648     -35.683599      55034.616     -20517.04       3269.5793     -17247.46       1.0365741    
   1425000   294.45171     -553.83191      55467.245     -20434.949      3294.0254     -17140.924      1.0284891    
   1426000   301.30971     -623.20334      55193.093     -20537.767      3370.7457     -17167.021      1.0335978    
   1427000   307.52901      661.58439      55371.481     -20541.94       3440.321      -17101.62       1.0302679    
   1428000   303.18697     -154.02749      55233.585     -20528.405      3391.7466     -17136.659      1.03284      
   1429000   296.48333      359.52085      54778.737     -20517.862      3316.7531     -17201.109      1.0414161    
   1430000   300.52853      311.21994      54900.767     -20456.434      3362.0067     -17094.427      1.0391013    
   1431000   309.00318      100.71774      54761.247     -20452.071      3456.8124     -16995.259      1.0417487    
   1432000   298.49533     -439.1848       55498.861     -20343.369      3339.2614     -17004.108      1.0279032    
   1433000   300.31392      604.71033      55151.063     -20512.952      3359.6058     -17153.346      1.0343855    
   1434000   295.78335      125.58996      55342.259     -20442.434      3308.9224     -17133.512      1.0308119    
   1435000   297.67058     -45.66585       55382.434     -20429.266      3330.0349     -17099.231      1.0300641    
   1436000   302.43019      200.54098      54798.724     -20404.992      3383.2805     -17021.712      1.0410362    
   1437000   303.83388      92.829788      55571.263     -20343.82       3398.9836     -16944.836      1.026564     
   1438000   307.05705      701.46475      55193.745     -20481.704      3435.0411     -17046.663      1.0335855    
   1439000   303.41273     -323.8281       55640.361     -20356.41       3394.2722     -16962.138      1.0252891    
   1440000   302.10404      9.4418263      55325.529     -20544.043      3379.6318     -17164.411      1.0311236    
   1441000   298.94168     -141.41007      55283.594     -20534.868      3344.2546     -17190.614      1.0319057    
   1442000   302.008        875.18103      54989.243     -20375.598      3378.5575     -16997.041      1.0374294    
   1443000   298.00986     -257.6557       54878.521     -20518.384      3333.8303     -17184.553      1.0395225    
   1444000   301.40661      141.11891      54841.321     -20549.441      3371.8298     -17177.611      1.0402276    
   1445000   306.51543     -293.92152      55761.394     -20537.352      3428.9821     -17108.37       1.0230637    
   1446000   290.76288      1132.7376      55213.932     -20438.465      3252.7586     -17185.706      1.0332077    
   1447000   292.11204     -7.1156459      55096.034     -20423.567      3267.8516     -17155.716      1.0354186    
   1448000   292.46844     -560.84012      55043.332     -20377.678      3271.8386     -17105.84       1.03641      
   1449000   298.891       -296.14381      55417.895     -20453.458      3343.6877     -17109.77       1.029405     
   1450000   297.65011      55.225998      55488.192     -20434.937      3329.8059     -17105.131      1.0281008    
   1451000   289.79476      165.01836      55051.33      -20488.295      3241.9282     -17246.367      1.0362594    
   1452000   297.73849      398.26384      54789.751     -20571.557      3330.7946     -17240.763      1.0412067    
   1453000   304.64898     -216.48151      54868.342     -20503.819      3408.1021     -17095.717      1.0397153    
   1454000   296.12292      156.10623      54994.91      -20333.622      3312.7212     -17020.901      1.0373225    
   1455000   303.82709     -640.3412       55126.105     -20522.692      3398.9076     -17123.785      1.0348538    
   1456000   301.93815      589.30034      54996.1       -20434.876      3377.7761     -17057.1        1.0373       
   1457000   295.94486     -280.66094      55454.159     -20443.986      3310.7293     -17133.257      1.0287318    
   1458000   303.16604      560.93905      55471.44      -20442.682      3391.5125     -17051.17       1.0284113    
   1459000   292.92885     -674.50951      55478.899     -20449.67       3276.9892     -17172.681      1.0282731    
   1460000   305.58799      383.14247      54837.777     -20700.1        3418.6068     -17281.493      1.0402949    
   1461000   304.91162     -145.60197      55655.384     -20545.187      3411.0402     -17134.147      1.0250124    
   1462000   303.17336      242.98049      54877.114     -20467.522      3391.5944     -17075.927      1.0395492    
   1463000   301.0205       209.18783      55620.131     -20500.218      3367.5104     -17132.708      1.0256621    
   1464000   300.10795     -242.18245      54944.207     -20381.664      3357.3016     -17024.363      1.0382798    
   1465000   301.68317      308.97101      54804.606     -20419.029      3374.9236     -17044.105      1.0409245    
   1466000   295.50363     -293.42909      55057.163     -20478.241      3305.7933     -17172.448      1.0361496    
   1467000   296.61761     -701.38534      55270.181     -20530.95       3318.2553     -17212.695      1.0321561    
   1468000   305.89743     -640.11384      55298.332     -20348.752      3422.0685     -16926.683      1.0316307    
   1469000   304.63673      356.97843      54763.599     -20443.378      3407.965      -17035.413      1.041704     
   1470000   296.82555     -283.19477      55139.783     -20496.59       3320.5815     -17176.009      1.0345971    
   1471000   307.74966      58.971397      54718.392     -20484.853      3442.7894     -17042.064      1.0425646    
   1472000   294.04204      317.31367      54519.15      -20514.256      3289.4424     -17224.813      1.0463747    
   1473000   300.97539      7.7487661      54619.91      -20517.752      3367.0057     -17150.747      1.0444444    
   1474000   302.3698       108.89459      55229.151     -20339.512      3382.6049     -16956.907      1.032923     
   1475000   298.23545      116.76704      54944.618     -20551.242      3336.354      -17214.888      1.038272     
   1476000   307.29704      243.55363      54753.036     -20521.877      3437.7259     -17084.151      1.0419049    
   1477000   301.26305     -649.4731       54860.295     -20447.872      3370.2238     -17077.648      1.0398679    
   1478000   303.43154     -549.42443      55123.223     -20418.382      3394.4826     -17023.899      1.0349079    
   1479000   294.60115     -683.78619      55789.594     -20304.815      3295.6973     -17009.117      1.0225466    
   1480000   296.11336     -389.44275      55002.962     -20412.345      3312.6143     -17099.731      1.0371707    
   1481000   294.6581       18.964575      55095.052     -20466.816      3296.3343     -17170.482      1.035437     
   1482000   299.71211      284.09044      54730.997     -20592.066      3352.8734     -17239.193      1.0423245    
   1483000   308.348       -640.9057       55728.696     -20444.982      3449.4829     -16995.499      1.023664     
   1484000   305.20343     -317.79731      55755.204     -20510.633      3414.3047     -17096.329      1.0231773    
   1485000   303.9609      -95.675746      55256.643     -20466.372      3400.4045     -17065.968      1.032409     
   1486000   299.44816     -322.88958      55007.452     -20452.011      3349.9206     -17102.091      1.037086     
   1487000   301.48391     -234.07552      55523.8       -20399.301      3372.6945     -17026.607      1.0274415    
   1488000   293.89673      206.01091      55070.591     -20460.256      3287.8168     -17172.439      1.035897     
   1489000   298.58368     -472.77569      55429.867     -20643.376      3340.2497     -17303.126      1.0291827    
   1490000   299.73859      1227.7505      55306.758     -20295.464      3353.1696     -16942.294      1.0314735    
   1491000   296.80317     -566.25371      55213.929     -20509.507      3320.3311     -17189.176      1.0332077    
   1492000   293.48886     -285.86506      55469.92      -20369.625      3283.2541     -17086.371      1.0284395    
   1493000   302.51792      1062.6948      54762.979     -20483.615      3384.262      -17099.353      1.0417157    
   1494000   299.76873     -551.02976      55212.007     -20416.621      3353.5068     -17063.114      1.0332437    
   1495000   302.77268      275.3941       55631.774     -20420.938      3387.112      -17033.827      1.0254474    
   1496000   299.71137     -309.11228      55782.508     -20442.82       3352.8651     -17089.955      1.0226765    
   1497000   302.84966     -602.34215      55938.643     -20543.777      3387.9731     -17155.804      1.019822     
   1498000   305.66191     -363.65829      55015.085     -20520.737      3419.4337     -17101.303      1.0369421    
   1499000   300.52287      380.27815      54416.156     -20498.056      3361.9434     -17136.112      1.0483552    
   1500000   297.2454       185.66256      54826.271     -20528.642      3325.2784     -17203.363      1.0405132    
   1501000   295.43233      108.85697      54605.95      -20563.263      3304.9956     -17258.268      1.0447114    
   1502000   305.82035      340.06369      54774.178     -20432.948      3421.2062     -17011.742      1.0415028    
   1503000   297.7927      -467.59591      55181.907     -20456.06       3331.401      -17124.659      1.0338073    
   1504000   301.34303      406.06459      54820.532     -20459.303      3371.1185     -17088.184      1.0406221    
   1505000   301.84739     -837.12339      55579.886     -20482.545      3376.7607     -17105.784      1.0264047    
   1506000   302.99613      1085.2237      54832.698     -20521.207      3389.6117     -17131.595      1.0403912    
   1507000   290.7188      -624.33814      55001.139     -20490.727      3252.2654     -17238.461      1.037205     
   1508000   303.07253      253.52319      54871.093     -20480.973      3390.4663     -17090.507      1.0396632    
   1509000   298.97814     -19.746499      55470.817     -20410.021      3344.6625     -17065.358      1.0284229    
   1510000   301.97912      316.50078      55155.425     -20419.502      3378.2344     -17041.268      1.0343037    
   1511000   302.29405     -560.47732      54982.47      -20485.324      3381.7576     -17103.566      1.0375572    
   1512000   297.67018      754.98872      54818.642     -20555.894      3330.0304     -17225.863      1.040658     
   1513000   303.95072      104.47622      54940.867     -20470.626      3400.2906     -17070.336      1.0383429    
   1514000   308.19247     -377.4272       55835.361     -20531.424      3447.7431     -17083.68       1.0217084    
   1515000   299.7447       421.59494      54943.47      -20369.991      3353.238      -17016.753      1.0382937    
   1516000   302.98042      482.57315      54732.042     -20459.345      3389.4359     -17069.909      1.0423046    
   1517000   305.05363     -465.92202      55278.076     -20581.389      3412.6289     -17168.76       1.0320087    
   1518000   301.09454     -403.29942      55111.514     -20384.135      3368.3386     -17015.796      1.0351278    
   1519000   305.059       -74.871202      54902.075     -20479.792      3412.689      -17067.103      1.0390765    
   1520000   301.44274     -21.676002      55156.682     -20425.029      3372.234      -17052.795      1.0342801    
   1521000   300.80026      86.598972      54823.264     -20548.427      3365.0465     -17183.381      1.0405703    
   1522000   298.22484     -63.612897      55244.124     -20461.551      3336.2353     -17125.315      1.032643     
   1523000   302.98129     -598.71009      55280.494     -20421.228      3389.4456     -17031.783      1.0319636    
   1524000   302.66671      803.3037       54830.013     -20506.737      3385.9264     -17120.81       1.0404422    
   1525000   298.86996     -609.71692      55374.759     -20503.231      3343.4523     -17159.779      1.0302069    
   1526000   294.48432     -135.01151      55749.978     -20460.169      3294.3902     -17165.779      1.0232732    
   1527000   303.02953      62.727111      55291.127     -20568.774      3389.9853     -17178.788      1.0317651    
   1528000   301.73704      265.33844      55038.672     -20477.706      3375.5263     -17102.18       1.0364977    
   1529000   301.66016      356.41816      55246.131     -20480.128      3374.6662     -17105.462      1.0326055    
   1530000   302.82369      843.90265      54875.338     -20468.658      3387.6826     -17080.975      1.0395828    
   1531000   308.22655     -195.19139      55221.065     -20474.869      3448.1243     -17026.745      1.0330742    
   1532000   300.26609      200.1065       54440.339     -20470.902      3359.0708     -17111.832      1.0478895    
   1533000   298.23503      258.59765      54804.573     -20513.444      3336.3493     -17177.094      1.0409251    
   1534000   298.92751     -123.76917      55457.151     -20463.764      3344.0961     -17119.668      1.0286763    
   1535000   303.84798     -641.47967      55190.471     -20341.406      3399.1413     -16942.265      1.0336469    
   1536000   292.38829      153.27636      55336.345     -20416.917      3270.942      -17145.975      1.030922     
   1537000   308.69186      435.8018       54892.453     -20482.197      3453.3297     -17028.868      1.0392587    
   1538000   300.07065     -86.2225        54660.079     -20537.016      3356.8843     -17180.132      1.0436768    
   1539000   303.49632     -192.85548      55140.877     -20512.479      3395.2073     -17117.271      1.0345765    
   1540000   304.92527     -367.84348      55052.078     -20431.303      3411.193      -17020.11       1.0362453    
   1541000   295.64509     -500.51201      55262.783     -20500.648      3307.3757     -17193.272      1.0322943    
   1542000   295.35502      231.03312      55495.188     -20383.532      3304.1308     -17079.401      1.0279713    
   1543000   304.9818      -731.78731      55473.278     -20636.027      3411.8254     -17224.202      1.0283773    
   1544000   303.31783     -608.30129      55344.599     -20530.615      3393.2105     -17137.404      1.0307683    
   1545000   300.87165      261.26774      55094.717     -20561.973      3365.8451     -17196.128      1.0354433    
   1546000   303.23907      656.46943      55182.729     -20469.858      3392.3295     -17077.528      1.0337919    
   1547000   303.086        101.67369      54776.498     -20525.645      3390.617      -17135.028      1.0414586    
   1548000   294.18334      308.12744      54799.556     -20528.279      3291.0232     -17237.256      1.0410204    
   1549000   307.61795      375.38827      54400.144     -20553.915      3441.3159     -17112.599      1.0486637    
   1550000   304.12486      553.49851      55060.359     -20529.601      3402.2388     -17127.362      1.0360895    
   1551000   293.60743      259.16727      55290.971     -20498.078      3284.5805     -17213.498      1.031768     
   1552000   297.56799      258.81404      55530.123     -20410.861      3328.8872     -17081.974      1.0273245    
   1553000   294.78418      192.40323      54821.755     -20594.414      3297.7448     -17296.669      1.0405989    
   1554000   293.52901      324.93373      54553.652     -20471.284      3283.7031     -17187.581      1.0457129    
   1555000   302.02774      253.58723      54953.442     -20495.436      3378.7783     -17116.658      1.0381053    
   1556000   304.49885      1148.9492      54625.29      -20528.94       3406.4226     -17122.517      1.0443415    
   1557000   302.6667       250.71756      55069.706     -20477.643      3385.9263     -17091.717      1.0359136    
   1558000   299.32702      441.45851      55163.18      -20374.484      3348.5654     -17025.918      1.0341582    
   1559000   300.25323      528.35942      55167.005     -20578.008      3358.9269     -17219.081      1.0340865    
   1560000   291.80537     -32.085158      54960.301     -20569.855      3264.4209     -17305.434      1.0379757    
   1561000   302.18477     -210.31892      55366.754     -20510.332      3380.5351     -17129.797      1.0303558    
   1562000   296.19308     -102.75726      55364.505     -20428.96       3313.5061     -17115.454      1.0303977    
   1563000   296.48739     -622.03935      54675.63      -20552.328      3316.7985     -17235.53       1.04338      
   1564000   302.44382      490.17828      55338.473     -20495.77       3383.433      -17112.337      1.0308824    
   1565000   296.95288      753.89708      54899.11      -20423.475      3322.006      -17101.469      1.0391326    
   1566000   303.80143     -176.52085      55136.644     -20503.044      3398.6206     -17104.424      1.034656     
   1567000   301.06126      156.75943      55039.635     -20432.471      3367.9664     -17064.505      1.0364796    
   1568000   305.12504     -881.85513      54583.491     -20483.978      3413.4277     -17070.55       1.0451412    
   1569000   301.71303      30.905667      54534.874     -20498.475      3375.2577     -17123.218      1.046073     
   1570000   306.75022     -212.63742      55539.638     -20571.983      3431.6087     -17140.375      1.0271485    
   1571000   300.97772      169.64514      54718.285     -20497.936      3367.0317     -17130.905      1.0425666    
   1572000   294.154        1015.583       54367.021     -20596.389      3290.6949     -17305.694      1.0493026    
   1573000   303.04162     -283.48719      55485.721     -20555.625      3390.1206     -17165.504      1.0281466    
   1574000   307.46089      819.40006      55231.343     -20354.073      3439.5589     -16914.514      1.032882     
   1575000   302.99636     -596.67708      54862.393     -20641.69       3389.6143     -17252.076      1.0398281    
   1576000   297.39424     -487.58539      56068.414     -20494.695      3326.9434     -17167.752      1.0174616    
   1577000   304.36837     -488.41998      55291.323     -20511.912      3404.963      -17106.949      1.0317615    
   1578000   300.3043       315.2121       55237.93      -20551.802      3359.4983     -17192.304      1.0327588    
   1579000   298.73493      128.29991      55026.59      -20599.979      3341.9418     -17258.037      1.0367253    
   1580000   294.01269      198.76404      55408.676     -20628.887      3289.1141     -17339.773      1.0295763    
   1581000   300.3652       579.51668      55351.771     -20615.788      3360.1795     -17255.608      1.0306347    
   1582000   298.93385      283.36391      54949.721     -20555.099      3344.167      -17210.932      1.0381756    
   1583000   302.35075      380.90918      55375.472     -20448.106      3382.3919     -17065.714      1.0301936    
   1584000   301.50111      620.00871      55087.27      -20495.956      3372.8869     -17123.069      1.0355833    
   1585000   296.73723     -91.339764      54896.823     -20592.364      3319.5935     -17272.771      1.0391759    
   1586000   297.57674      365.91301      54588.85      -20501.155      3328.985      -17172.17       1.0450386    
   1587000   297.67506     -234.53585      54919.35      -20560.284      3330.085      -17230.199      1.0387497    
   1588000   293.20951     -67.7167        55271.324     -20459.304      3280.1289     -17179.175      1.0321348    
   1589000   301.58976      611.96644      54988.32      -20634.849      3373.8786     -17260.97       1.0374468    
   1590000   301.37454     -355.28563      55540.619     -20563.634      3371.471      -17192.163      1.0271304    
   1591000   301.19061     -372.05885      55528.871     -20354.078      3369.4133     -16984.665      1.0273477    
   1592000   297.06737     -494.2659       55262.365     -20419.765      3323.2868     -17096.478      1.0323021    
   1593000   299.82687      200.75722      55458.611     -20531.597      3354.1572     -17177.44       1.0286492    
   1594000   296.68885     -324.14139      55200.554     -20594.566      3319.0523     -17275.514      1.0334581    
   1595000   296.66567     -444.88295      55289.613     -20563.79       3318.793      -17244.997      1.0317934    
   1596000   300.12196     -483.70319      55310.8       -20390.67       3357.4583     -17033.212      1.0313982    
   1597000   299.12348     -243.75439      55111.169     -20489.355      3346.2884     -17143.067      1.0351342    
   1598000   304.99531     -38.242918      55063.578     -20537.979      3411.9765     -17126.003      1.0360289    
   1599000   299.84465     -120.9825       54835.212     -20487.497      3354.3561     -17133.141      1.0403435    
   1600000   300.05977      396.95051      54649.781     -20566.879      3356.7627     -17210.116      1.0438735    
   1601000   294.66627      112.20779      54876.931     -20508.629      3296.4257     -17212.203      1.0395526    
   1602000   298.96783      306.05431      55022.254     -20438.089      3344.5471     -17093.542      1.036807     
   1603000   297.41648     -457.03496      55036.129     -20495.493      3327.1922     -17168.301      1.0365456    
   1604000   307.51246     -0.04098016     54896.021     -20492.908      3440.1358     -17052.772      1.0391911    
   1605000   301.91314     -235.00331      55540.007     -20480.566      3377.4963     -17103.07       1.0271417    
   1606000   298.17925     -186.58604      55302.743     -20468.262      3335.7253     -17132.537      1.0315484    
   1607000   291.50928     -535.46521      55052.008     -20647.065      3261.1085     -17385.957      1.0362466    
   1608000   300.19282      269.08511      54918.727     -20498.549      3358.2511     -17140.298      1.0387615    
   1609000   296.5473       265.84225      54987.949     -20500.629      3317.4687     -17183.161      1.0374538    
   1610000   302.88977     -57.959197      55332.621     -20345.288      3388.4218     -16956.866      1.0309914    
   1611000   293.1727       42.541199      54407.823     -20478.767      3279.7172     -17199.05       1.0485157    
   1612000   300.08935      586.69192      54472.661     -20506.869      3357.0936     -17149.776      1.0472677    
   1613000   304.85064     -102.16681      55283.835     -20456.478      3410.358      -17046.12       1.0319012    
   1614000   295.84715     -184.6067       54601.684     -20575.285      3309.6362     -17265.649      1.044793     
   1615000   298.43222      48.815206      54981.832     -20518.11       3338.5553     -17179.555      1.0375692    
   1616000   300.4008       135.2945       55013.41      -20511.519      3360.5777     -17150.941      1.0369737    
   1617000   294.12736      36.037565      54990.998     -20440.897      3290.397      -17150.5        1.0373963    
   1618000   296.42805      756.47739      54367.367     -20599.18       3316.1347     -17283.045      1.0492959    
   1619000   302.26537     -270.73488      55120.343     -20509.661      3381.4367     -17128.225      1.0349619    
   1620000   301.03956     -334.00584      55194.345     -20467.984      3367.7236     -17100.261      1.0335743    
   1621000   297.44762     -43.74349       54614.229     -20440.601      3327.5406     -17113.061      1.044553     
   1622000   299.83834      334.66938      54878.92      -20508.769      3354.2855     -17154.483      1.0395149    
   1623000   298.60821     -597.53809      54753.032     -20547.364      3340.5241     -17206.84       1.041905     
   1624000   300.66324      114.21695      54960.59      -20495.966      3363.5137     -17132.452      1.0379702    
   1625000   303.72953      315.83736      54786.818     -20573.227      3397.8163     -17175.411      1.0412625    
   1626000   302.45398      777.96825      54648.405     -20468.893      3383.5467     -17085.347      1.0438998    
   1627000   300.33392      589.75381      55100.497     -20463.199      3359.8296     -17103.369      1.0353347    
   1628000   298.49193      576.33672      54782.941     -20530.483      3339.2233     -17191.26       1.0413362    
   1629000   307.41284      633.46822      54859.972     -20632.357      3439.0213     -17193.336      1.039874     
   1630000   297.86914     -418.53754      55145.171     -20545.453      3332.2562     -17213.196      1.034496     
   1631000   304.79279     -276.73047      55418.155     -20501.089      3409.7109     -17091.379      1.0294002    
   1632000   297.19519     -40.734691      55299.709     -20437.927      3324.7166     -17113.21       1.031605     
   1633000   300.53829     -535.02608      55170.301     -20435.129      3362.1159     -17073.013      1.0340248    
   1634000   300.31901     -191.19439      55090.459     -20436.984      3359.6628     -17077.321      1.0355234    
   1635000   296.23591      882.29867      55095.339     -20389.201      3313.9852     -17075.216      1.0354317    
   1636000   297.33549      320.08778      55444.382     -20433.374      3326.2862     -17107.087      1.0289132    
   1637000   301.65735     -105.91639      54865.42      -20587.91       3374.6348     -17213.276      1.0397707    
   1638000   303.85794     -521.63649      55058.37      -20478.261      3399.2527     -17079.008      1.0361269    
   1639000   298.34675     -928.89286      55691.367     -20458.537      3337.5992     -17120.938      1.0243501    
   1640000   295.46102      495.79212      55050.372     -20410.569      3305.3166     -17105.253      1.0362774    
   1641000   303.01704      375.82176      54835.38      -20451.55       3389.8456     -17061.704      1.0403403    
   1642000   300.1884      -52.621581      55391.101     -20516.236      3358.2017     -17158.034      1.0299029    
   1643000   297.49174      474.74043      55100.936     -20587.467      3328.0342     -17259.433      1.0353265    
   1644000   294.59341     -255.26367      55325.034     -20420.338      3295.6106     -17124.728      1.0311328    
   1645000   294.28456      374.85787      55432.554     -20455.722      3292.1555     -17163.566      1.0291328    
   1646000   300.58364      24.810923      55363.336     -20391.86       3362.6232     -17029.237      1.0304194    
   1647000   299.20362      809.30857      55121.962     -20474.492      3347.185      -17127.307      1.0349315    
   1648000   300.33617     -101.97955      55293.714     -20496.625      3359.8547     -17136.77       1.0317169    
   1649000   299.28989      374.46464      55054.746     -20561.293      3348.15       -17213.143      1.0361951    
   1650000   300.57824     -773.18673      55327.138     -20450.38       3362.5628     -17087.817      1.0310936    
   1651000   299.35024     -217.70304      54944.553     -20462.567      3348.8252     -17113.741      1.0382732    
   1652000   291.48843      339.97115      54491.078     -20559.616      3260.8753     -17298.741      1.0469137    
   1653000   295.44226      70.09975       55338.712     -20277.985      3305.1067     -16972.878      1.0308779    
   1654000   300.5525      -528.98159      55406.13      -20554.579      3362.2749     -17192.304      1.0296236    
   1655000   303.89045      572.90582      54770.718     -20534.934      3399.6164     -17135.318      1.0415685    
   1656000   300.55116     -32.946418      55399.694     -20452.234      3362.2599     -17089.974      1.0297432    
   1657000   301.27465     -341.22792      54408.432     -20425.252      3370.3536     -17054.899      1.048504     
   1658000   298.07269      462.75867      54524.6       -20528.404      3334.5332     -17193.871      1.0462701    
   1659000   303.11668     -174.01455      54833.589     -20466.057      3390.9603     -17075.097      1.0403743    
   1660000   302.23463      91.946889      54694.658     -20446.175      3381.0928     -17065.082      1.043017     
   1661000   292.61681     -9.7416978      55667.54      -20312.761      3273.4984     -17039.263      1.0247885    
   1662000   290.27627     -92.044763      55434.551     -20470.111      3247.3149     -17222.796      1.0290957    
   1663000   301.51653      208.9182       55011.184     -20395.248      3373.0595     -17022.188      1.0370156    
   1664000   305.04565      317.1208       55089.955     -20503.753      3412.5396     -17091.214      1.0355328    
   1665000   296.85546      399.86193      54711.759     -20622.085      3320.9161     -17301.169      1.042691     
   1666000   297.57672     -476.28867      55266.018     -20523.19       3328.9848     -17194.205      1.0322339    
   1667000   296.14442     -692.2422       54700.052     -20519.755      3312.9618     -17206.793      1.0429141    
   1668000   298.52247      71.541711      54877.157     -20377.451      3339.565      -17037.886      1.0395483    
   1669000   302.09947     -147.17144      55062.144     -20464.899      3379.5808     -17085.318      1.0360559    
   1670000   301.83253     -539.91115      55549.002     -20402.181      3376.5945     -17025.587      1.0269754    
   1671000   301.59666     -153.52289      55329.928     -20554.179      3373.9559     -17180.223      1.0310416    
   1672000   289.39307     -326.90413      55324.321     -20447.603      3237.4345     -17210.168      1.0311461    
   1673000   295.47216      552.17727      55213.453     -20315.31       3305.4412     -17009.868      1.0332166    
   1674000   295.99424     -321.35534      55458.268     -20517.827      3311.2817     -17206.545      1.0286556    
   1675000   298.93438      306.86214      54874.269     -20474.715      3344.173      -17130.542      1.039603     
   1676000   295.57093      84.998737      54750.185     -20481          3306.5461     -17174.454      1.0419592    
   1677000   304.15429     -772.44716      55911.56      -20443.301      3402.568      -17040.732      1.020316     
   1678000   294.75161     -532.13221      55460.077     -20465.155      3297.3804     -17167.774      1.028622     
   1679000   302.24956      717.90327      55315.377     -20446.557      3381.2599     -17065.297      1.0313128    
   1680000   293.76359      208.63536      54996.046     -20437.553      3286.3275     -17151.226      1.0373011    
   1681000   302.68893     -772.98833      55272.333     -20397.879      3386.175      -17011.704      1.032116     
   1682000   301.70564      731.8742       54930.629     -20474.625      3375.175      -17099.45       1.0385364    
   1683000   300.37711      186.6883       54667.798     -20570.298      3360.3128     -17209.985      1.0435295    
   1684000   298.72881     -160.05741      54997.584     -20463.655      3341.8732     -17121.782      1.0372721    
   1685000   303.98935     -585.26806      54774.032     -20545.328      3400.7229     -17144.605      1.0415055    
   1686000   298.89182     -371.83354      55341.13      -20478.249      3343.6968     -17134.552      1.0308329    
   1687000   298.62388      643.11681      55480.403     -20368.784      3340.6994     -17028.085      1.0282452    
   1688000   304.08247     -216.74043      55223.333     -20543.301      3401.7645     -17141.536      1.0330318    
   1689000   296.67063     -864.18009      55390.773     -20457.63       3318.8485     -17138.782      1.029909     
   1690000   303.01046     -192.24789      55280.472     -20346.79       3389.772      -16957.018      1.031964     
   1691000   300.36596      2.5812587      54661.664     -20552.249      3360.188      -17192.061      1.0436466    
   1692000   304.24616     -626.15924      55007.511     -20402.2        3403.5957     -16998.604      1.0370849    
   1693000   296.44471      446.55721      55280.144     -20374.292      3316.3211     -17057.971      1.0319701    
   1694000   301.99367     -25.629399      55511.247     -20456.077      3378.3972     -17077.68       1.0276739    
   1695000   304.09839     -650.06295      54647.66      -20382.222      3401.9426     -16980.28       1.043914     
   1696000   302.91595      509.89878      55245.889     -20339.452      3388.7147     -16950.737      1.03261      
   1697000   299.78879     -131.91947      55110.091     -20437.275      3353.7312     -17083.543      1.0351545    
   1698000   297.48221      836.02948      55304.154     -20472.093      3327.9276     -17144.165      1.0315221    
   1699000   305.21042     -14.127234      55094.295     -20481.596      3414.3829     -17067.214      1.0354513    
   1700000   298.70677      724.66534      54998.066     -20410.398      3341.6267     -17068.771      1.037263     
   1701000   295.13538     -404.9071       55296.657     -20389.749      3301.6736     -17088.076      1.031662     
   1702000   299.27021     -272.77041      55069.585     -20506.315      3347.9299     -17158.385      1.0359159    
   1703000   292.54442     -5.3705056      54970.588     -20452.928      3272.6887     -17180.239      1.0377815    
   1704000   299.59531     -387.79157      55540.254     -20488.371      3351.5668     -17136.804      1.0271371    
   1705000   301.45861     -674.61564      55158.171     -20591.304      3372.4114     -17218.893      1.0342522    
   1706000   303.84227      184.07049      54690.79      -20593.573      3399.0774     -17194.496      1.0430908    
   1707000   305.52465     -457.02882      55496.588     -20382.92       3417.8982     -16965.021      1.0279453    
   1708000   294.73699     -175.49545      55050.394     -20527.407      3297.2169     -17230.19       1.036277     
   1709000   309.18187      2.056698       55307.532     -20537.122      3458.8114     -17078.31       1.0314591    
   1710000   296.31792     -190.71722      54550.203     -20598.497      3314.9027     -17283.594      1.045779     
   1711000   299.98229      216.27251      55158.045     -20443.858      3355.8959     -17087.963      1.0342545    
   1712000   297.2828       1262.2649      54561.066     -20500.383      3325.6968     -17174.687      1.0455708    
   1713000   305.30924     -262.06263      55645.426     -20589.112      3415.4884     -17173.623      1.0251958    
   1714000   303.89787      658.25511      55370.376     -20576.123      3399.6994     -17176.423      1.0302884    
   1715000   302.00183     -71.759619      55153.563     -20531.819      3378.4885     -17153.331      1.0343386    
   1716000   304.34574     -54.047693      54556.098     -20475.926      3404.7097     -17071.216      1.045666     
   1717000   298.33503      27.508181      55033.848     -20528.536      3337.4681     -17191.068      1.0365886    
   1718000   292.5023       87.323908      55321.598     -20389.997      3272.2174     -17117.779      1.0311969    
   1719000   303.60227      259.93682      55594.865     -20510.068      3396.3925     -17113.676      1.0261282    
   1720000   296.31401     -420.42939      55010.38      -20480.901      3314.859      -17166.042      1.0370308    
   1721000   301.24206      1368.2768      55271.091     -20468.835      3369.9889     -17098.846      1.0321392    
   1722000   298.94814      690.82611      55200.524     -20573.67       3344.3269     -17229.343      1.0334586    
   1723000   299.71159     -643.4901       55214.305     -20546.924      3352.8676     -17194.056      1.0332007    
   1724000   294.75452     -185.79131      55256.97      -20472.772      3297.413      -17175.359      1.0324029    
   1725000   298.64328      81.237292      55378.492     -20487.107      3340.9164     -17146.19       1.0301374    
   1726000   300.10669      659.18126      54364.031     -20548.821      3357.2876     -17191.533      1.0493603    
   1727000   302.42251     -39.654098      54614.275     -20380.075      3383.1946     -16996.88       1.0445521    
   1728000   304.39612      487.04503      54988.035     -20563.768      3405.2733     -17158.494      1.0374522    
   1729000   298.32723      64.501365      55048.646     -20407.44       3337.3808     -17070.059      1.0363099    
   1730000   301.99284      132.37903      55376.78      -20554.371      3378.3879     -17175.983      1.0301693    
   1731000   301.27664      704.61475      54861.084     -20498.095      3370.3758     -17127.72       1.0398529    
   1732000   295.37897     -47.126363      54901.332     -20389.427      3304.3987     -17085.029      1.0390906    
   1733000   301.25907      86.367393      54668.038     -20510.771      3370.1792     -17140.592      1.0435249    
   1734000   300.08077     -807.42834      55456.286     -20432.543      3356.9976     -17075.545      1.0286924    
   1735000   301.18474      515.94761      55058.308     -20554.968      3369.3477     -17185.62       1.0361281    
   1736000   301.12654      168.3374       55209.339     -20591.365      3368.6967     -17222.668      1.0332936    
   1737000   300.40037      298.46268      54927.052     -20642.114      3360.573      -17281.541      1.038604     
   1738000   299.22633      223.12772      54991.611     -20623.203      3347.439      -17275.764      1.0373847    
   1739000   304.62571     -140.09995      55235.844     -20478.839      3407.8418     -17070.997      1.0327978    
   1740000   303.64174      663.08503      54699.772     -20553.4        3396.8341     -17156.566      1.0429195    
   1741000   297.89347      173.74201      55888.364     -20599.956      3332.5283     -17267.427      1.0207394    
   1742000   301.2624      -11.236579      55733.388     -20518.37       3370.2165     -17148.154      1.0235778    
   1743000   296.82654      385.65659      55033.023     -20502.577      3320.5926     -17181.985      1.0366041    
   1744000   300.96731     -751.9742       55304.029     -20570.966      3366.9153     -17204.051      1.0315244    
   1745000   305.63111     -304.78518      55495.718     -20508.733      3419.0891     -17089.644      1.0279614    
   1746000   301.06404     -829.18693      55228.906     -20379.933      3367.9975     -17011.936      1.0329275    
   1747000   300.44863      900.20474      54422.184     -20603.195      3361.1129     -17242.082      1.048239     
   1748000   296.94492      391.63195      54869.279     -20579.334      3321.9169     -17257.417      1.0396976    
   1749000   301.92729     -73.493503      55083.21      -20528.522      3377.6546     -17150.867      1.0356596    
   1750000   298.98234      83.99202       55480.516     -20484.837      3344.7095     -17140.128      1.0282431    
   1751000   300.21935     -342.67371      55437.586     -20401.704      3358.5479     -17043.156      1.0290393    
   1752000   300.7771      -609.45052      55444.466     -20423.262      3364.7874     -17058.475      1.0289117    
   1753000   307.49672     -668.75915      55503.596     -20457.462      3439.9597     -17017.503      1.0278155    
   1754000   294.44906      158.34021      54959.655     -20614.364      3293.9958     -17320.368      1.0379879    
   1755000   301.08343     -273.32664      54485.437     -20479.658      3368.2143     -17111.444      1.0470221    
   1756000   299.64567     -488.36943      54758.517     -20440.824      3352.1302     -17088.694      1.0418006    
   1757000   300.73663      505.75765      55792.379     -20421.538      3364.3347     -17057.204      1.0224955    
   1758000   307.28618      381.95522      55439.596     -20593.763      3437.6044     -17156.159      1.029002     
   1759000   296.73156      191.27572      55163.969     -20482.06       3319.5301     -17162.53       1.0341434    
   1760000   298.813       -404.65129      55102.363     -20502.229      3342.8151     -17159.414      1.0352996    
   1761000   308.54625     -412.55292      55193.561     -20518.88       3451.7008     -17067.18       1.033589     
   1762000   303.39009      648.09839      55111.37      -20634.68       3394.0189     -17240.661      1.0351305    
   1763000   296.13589      230.00077      55428.536     -20465.07       3312.8663     -17152.203      1.0292074    
   1764000   295.1783      -131.83649      55453.134     -20426.213      3302.1538     -17124.06       1.0287508    
   1765000   299.69666     -705.90875      55207.043     -20447.049      3352.7006     -17094.349      1.0333366    
   1766000   296.82778     -672.5165       55437.763     -20362.73       3320.6065     -17042.124      1.0290361    
   1767000   303.80458      210.83923      55478.626     -20595.293      3398.6558     -17196.637      1.0282781    
   1768000   297.11561      309.16044      55334.962     -20512.079      3323.8265     -17188.252      1.0309478    
   1769000   297.90744     -700.89512      55927.911     -20443.821      3332.6846     -17111.136      1.0200177    
   1770000   299.17938     -514.32842      55497.971     -20543.568      3346.9138     -17196.654      1.0279197    
   1771000   301.86613     -533.47052      55019.803     -20570.273      3376.9704     -17193.303      1.0368532    
   1772000   302.83362     -33.750151      55033.487     -20500.291      3387.7937     -17112.497      1.0365954    
   1773000   301.24243     -489.52335      54988.267     -20518.44       3369.993      -17148.447      1.0374478    
   1774000   299.95534     -214.37121      54735.686     -20597.451      3355.5944     -17241.857      1.0422352    
   1775000   297.71366      193.37883      54980.566     -20549.249      3330.5168     -17218.732      1.0375931    
   1776000   293.8753      -900.57296      55636.511     -20495.032      3287.5771     -17207.455      1.0253601    
   1777000   298.17177     -181.46555      55106.92      -20323.534      3335.6417     -16987.892      1.035214     
   1778000   301.6436       1097.1976      54484.256     -20485.524      3374.4809     -17111.043      1.0470448    
   1779000   301.26755     -704.19275      55684.815     -20479.182      3370.2741     -17108.908      1.0244706    
   1780000   300.66502      621.06541      55205.59      -20542.495      3363.5335     -17178.961      1.0333638    
   1781000   292.33801      96.575265      55115.77      -20474.922      3270.3795     -17204.542      1.0350478    
   1782000   303.21188     -689.82461      55635.044     -20468.783      3392.0252     -17076.757      1.0253871    
   1783000   302.03932     -239.45558      55521.475     -20479.364      3378.9079     -17100.456      1.0274846    
   1784000   304.75891      354.85973      55441.279     -20537.31       3409.3319     -17127.978      1.0289708    
   1785000   304.11979     -85.632685      55405.22      -20479.205      3402.1821     -17077.023      1.0296405    
   1786000   304.28899      726.00704      55117.347     -20431.15       3404.0749     -17027.075      1.0350182    
   1787000   301.14531     -471.85859      55129.881     -20511.733      3368.9066     -17142.827      1.0347829    
   1788000   294.88183     -715.44101      55245.038     -20511.382      3298.8372     -17212.545      1.0326259    
   1789000   306.70405      449.49727      54721.077     -20548.441      3431.0921     -17117.349      1.0425134    
   1790000   290.79307      477.92691      55072.219     -20542.218      3253.0963     -17289.122      1.0358663    
   1791000   294.92315     -295.33448      55098.461     -20514.162      3299.2994     -17214.863      1.035373     
   1792000   294.6775       237.02582      55018.187     -20514.73       3296.5513     -17218.178      1.0368836    
   1793000   305.26062     -207.6363       54540.26      -20594.092      3414.9445     -17179.147      1.0459697    
   1794000   302.76727      354.84054      55546.353     -20458.072      3387.0515     -17071.02       1.0270244    
   1795000   294.89924      526.91705      55188.775     -20531.129      3299.032      -17232.097      1.0336786    
   1796000   297.60818      137.776        55451.157     -20435.343      3329.3368     -17106.006      1.0287875    
   1797000   303.3971       850.94436      54886.358     -20464.1        3394.0974     -17070.002      1.0393741    
   1798000   292.45193     -412.79257      54960.494     -20547.062      3271.6539     -17275.408      1.0379721    
   1799000   299.6788       341.49468      55239.266     -20457.754      3352.5008     -17105.253      1.0327338    
   1800000   302.52135     -458.48672      55333.176     -20340.576      3384.3003     -16956.276      1.0309811    
   1801000   301.3189      -342.5677       55171.542     -20363.709      3370.8486     -16992.861      1.0340015    
   1802000   298.72495     -481.8368       55059.013     -20498.509      3341.8301     -17156.679      1.0361148    
   1803000   294.39157      561.19916      55139.03      -20375.523      3293.3526     -17082.17       1.0346112    
   1804000   299.04101     -791.59837      55523.579     -20356.089      3345.3658     -17010.723      1.0274456    
   1805000   304.86054     -115.27256      55056.923     -20531.097      3410.4688     -17120.628      1.0361541    
   1806000   303.4952      -81.202685      55068.29      -20509.207      3395.1947     -17114.012      1.0359402    
   1807000   293.79634      27.762852      55118.215     -20412.663      3286.6938     -17125.969      1.0350019    
   1808000   298.3302      -345.7195       54944.427     -20580.295      3337.414      -17242.881      1.0382756    
   1809000   291.26566      755.27765      55087.574     -20544.993      3258.3832     -17286.61       1.0355776    
   1810000   300.38964     -206.42368      54844.254     -20548.884      3360.453      -17188.431      1.040172     
   1811000   296.40646     -899.12181      55077.784     -20608.936      3315.8932     -17293.042      1.0357617    
   1812000   295.34946      189.99236      55637.558     -20450.931      3304.0685     -17146.863      1.0253408    
   1813000   294.54011      154.35559      55515.272     -20530.49       3295.0144     -17235.476      1.0275994    
   1814000   297.58705      33.527725      55740.62      -20696.062      3329.1004     -17366.961      1.023445     
   1815000   298.65074      284.78119      55090.597     -20581.244      3340.9999     -17240.244      1.0355208    
   1816000   297.58398      181.41745      55254.737     -20572.002      3329.066      -17242.936      1.0324447    
   1817000   290.38135      226.18974      55505.194     -20522.153      3248.4904     -17273.663      1.0277859    
   1818000   301.26733     -132.39024      55976.7       -20488.297      3370.2716     -17118.026      1.0191286    
   1819000   298.95475     -59.872611      55159.657     -20537.895      3344.4008     -17193.494      1.0342243    
   1820000   297.7387      -374.75533      55171.903     -20504.327      3330.7969     -17173.53       1.0339947    
   1821000   295.37052      231.45249      55185.275     -20609.527      3304.3041     -17305.222      1.0337442    
   1822000   297.04394      346.75024      55166.24      -20486.774      3323.0246     -17163.75       1.0341009    
   1823000   296.65657     -290.44019      55613.387     -20474.909      3318.6912     -17156.218      1.0257864    
   1824000   293.34622      828.33938      55173.745     -20582.95       3281.6583     -17301.292      1.0339602    
   1825000   299.69851     -313.49508      55579.735     -20452.126      3352.7212     -17099.405      1.0264075    
   1826000   303.14848     -275.71147      55121.622     -20470.743      3391.316      -17079.427      1.0349379    
   1827000   294.97549      1198.986       55348.766     -20548.267      3299.885      -17248.382      1.0306907    
   1828000   300.69137     -249.51306      55606.114     -20515.938      3363.8284     -17152.109      1.0259206    
   1829000   300.2628       190.03068      55766.831     -20618.732      3359.034      -17259.698      1.022964     
   1830000   294.78193     -358.70673      55739.724     -20345.76       3297.7196     -17048.04       1.0234614    
   1831000   301.63924     -76.909026      54978.431     -20556.93       3374.4322     -17182.498      1.0376334    
   1832000   292.81456      7.6467426      55899.971     -20491.954      3275.7106     -17216.243      1.0205275    
   1833000   295.99299     -130.86979      55089.434     -20428.243      3311.2677     -17116.975      1.0355426    
   1834000   301.43535      632.82285      54802.153     -20527.61       3372.1513     -17155.459      1.0409711    
   1835000   298.93591     -285.45477      55268.447     -20445.553      3344.1901     -17101.363      1.0321885    
   1836000   299.55029      240.62324      54845.45      -20479.859      3351.0631     -17128.795      1.0401493    
   1837000   306.35006      352.6475       54768.093     -20607.64       3427.1321     -17180.508      1.0416185    
   1838000   296.89804     -471.09066      55047.432     -20418.617      3321.3924     -17097.225      1.0363328    
   1839000   301.67295      1.3541414      55038.919     -20410.546      3374.8093     -17035.737      1.0364931    
   1840000   296.33188     -65.845936      55507.071     -20463.919      3315.0589     -17148.86       1.0277512    
   1841000   301.10001      265.22203      54834.849     -20507.265      3368.3998     -17138.865      1.0403504    
   1842000   310.23811     -55.303151      54869.052     -20536.46       3470.6276     -17065.832      1.0397019    
   1843000   296.69214     -634.22057      55186.297     -20534.968      3319.089      -17215.878      1.0337251    
   1844000   304.91608     -621.44453      55424.335     -20461.978      3411.0901     -17050.888      1.0292854    
   1845000   299.4218      -32.050857      54580.824     -20497.176      3349.6257     -17147.55       1.0451923    
   1846000   301.12769      39.518026      54978.899     -20524.417      3368.7095     -17155.707      1.0376246    
   1847000   293.80882      238.50711      55158.632     -20370.15       3286.8334     -17083.317      1.0342435    
   1848000   300.62903     -100.68743      55365.391     -20459.202      3363.131      -17096.071      1.0303812    
   1849000   300.53324      1061.0433      55182.957     -20506.287      3362.0594     -17144.227      1.0337876    
   1850000   303.17911     -379.19983      55553.037     -20516.868      3391.6586     -17125.209      1.0269008    
   1851000   288.21756      713.28121      55061.367     -20561.174      3224.2842     -17336.89       1.0360705    
   1852000   304.22371     -200.73034      55372.096     -20397.254      3403.3446     -16993.909      1.0302564    
   1853000   305.47011     -159.33949      55266.943     -20523.895      3417.2881     -17106.607      1.0322166    
   1854000   304.18701      49.175349      54657.125     -20483.314      3402.934      -17080.38       1.0437332    
   1855000   303.74581     -128.15149      55148.112     -20496.81       3397.9984     -17098.811      1.0344408    
   1856000   296.00713      262.04813      55303.547     -20494.29       3311.4259     -17182.864      1.0315334    
   1857000   297.68582      384.33865      55110.916     -20480.844      3330.2053     -17150.638      1.035139     
   1858000   294.30034     -464.74549      55358.554     -20368.132      3292.332      -17075.8        1.0305085    
   1859000   300.65449      328.29327      54978.634     -20467.713      3363.4158     -17104.297      1.0376296    
   1860000   295.03519      210.02742      54561.555     -20640.422      3300.5528     -17339.869      1.0455614    
   1861000   296.30735      344.48424      55653.347     -20458.912      3314.7844     -17144.128      1.0250499    
   1862000   303.40922     -179.25179      55581.853     -20463.842      3394.2329     -17069.609      1.0263684    
   1863000   305.5839      -769.79027      55500.601     -20469.009      3418.561      -17050.448      1.027871     
   1864000   306.51118     -37.647181      55398.926     -20375.075      3428.9345     -16946.14       1.0297575    
   1865000   299.11644      4.7076072      55683.525     -20567.276      3346.2097     -17221.067      1.0244944    
   1866000   294.98593      735.96079      55320.765     -20302.237      3300.0018     -17002.236      1.0312124    
   1867000   300.80748      793.71585      54783.887     -20359.904      3365.1273     -16994.776      1.0413182    
   1868000   302.5244      -408.85341      55757.681     -20507.409      3384.3344     -17123.075      1.0231318    
   1869000   295.75603      0.70702981     55330.579     -20444.11       3308.6169     -17135.493      1.0310295    
   1870000   308.49451     -174.04802      55903.017     -20273.108      3451.1219     -16821.986      1.0204719    
   1871000   296.25766     -151.64696      54807.274     -20473.626      3314.2285     -17159.398      1.0408738    
   1872000   296.81991     -97.779664      55508.037     -20415.576      3320.5184     -17095.058      1.0277333    
   1873000   300.69059      246.46742      55301.622     -20413.494      3363.8196     -17049.675      1.0315693    
   1874000   303.0491      -793.88691      55339.023     -20493.133      3390.2043     -17102.929      1.0308721    
   1875000   300.02037      98.142213      54952.293     -20445.345      3356.322      -17089.023      1.038127     
   1876000   304.80919     -96.321842      55000.231     -20555.08       3409.8944     -17145.185      1.0372222    
   1877000   303.61185     -192.37603      55017.274     -20499.386      3396.4998     -17102.887      1.0369008    
   1878000   295.94753      676.39496      54889.887     -20560.072      3310.7591     -17249.313      1.0393072    
   1879000   305.79387     -95.888027      54939.104     -20435.551      3420.91       -17014.641      1.0383762    
   1880000   300.4315       316.14461      55285.835     -20578.983      3360.9212     -17218.061      1.0318639    
   1881000   305.18576      630.3388       55124.057     -20369.203      3414.107      -16955.096      1.0348922    
   1882000   303.84812     -303.4342       55057.536     -20500.206      3399.1429     -17101.063      1.0361426    
   1883000   290.56762     -18.812298      54565.436     -20550.142      3250.5742     -17299.568      1.0454871    
   1884000   293.25905     -357.49456      55240.633     -20443.421      3280.6831     -17162.738      1.0327082    
   1885000   298.73062      563.34991      54775.581     -20424.783      3341.8935     -17082.89       1.0414761    
   1886000   304.55166     -802.01915      55402.771     -20467.313      3407.0134     -17060.3        1.029686     
   1887000   296.57208     -438.25847      55408.969     -20516.399      3317.746      -17198.653      1.0295708    
   1888000   302.67762     -635.84562      55701.413     -20455.914      3386.0485     -17069.866      1.0241654    
   1889000   302.64841      535.85458      54759.931     -20401.52       3385.7218     -17015.798      1.0417737    
   1890000   299.27173     -215.25397      55409.982     -20532.248      3347.9469     -17184.302      1.029552     
   1891000   298.94008      154.86375      55085.943     -20489.856      3344.2368     -17145.619      1.0356083    
   1892000   300.38795      132.35817      54678.073     -20386.814      3360.4341     -17026.38       1.0433334    
   1893000   296.44553      138.14207      55130.492     -20425.935      3316.3302     -17109.604      1.0347714    
   1894000   299.48838      458.6963       55212.58      -20420.485      3350.3706     -17070.114      1.033233     
   1895000   298.23798      327.51227      55035.437     -20555.097      3336.3824     -17218.715      1.0365586    
   1896000   295.77603      677.84835      55338.552     -20350.344      3308.8406     -17041.503      1.0308809    
   1897000   296.70715      285.86766      54510.562     -20419.945      3319.257      -17100.688      1.0465395    
   1898000   297.49654     -239.77217      55351.69      -20436.915      3328.0879     -17108.827      1.0306362    
   1899000   306.99363     -262.68687      55152.318     -20431.418      3434.3316     -16997.087      1.0343619    
   1900000   296.06228     -75.936579      55075.361     -20551.813      3312.0429     -17239.77       1.0358072    
   1901000   299.84799      677.55424      54978.883     -20441.215      3354.3935     -17086.822      1.0376249    
   1902000   300.72918     -513.93346      54802.798     -20545.319      3364.2514     -17181.068      1.0409589    
   1903000   305.17553     -1018.0232      55165.725     -20501.983      3413.9926     -17087.991      1.0341105    
   1904000   291.97554      27.607715      54792.659     -20568.579      3266.3246     -17302.254      1.0411515    
   1905000   297.57486     -473.12495      55392.74      -20526.294      3328.964      -17197.33       1.0298725    
   1906000   300.65251      672.24304      55017.832     -20602.083      3363.3936     -17238.689      1.0368903    
   1907000   302.04465     -608.66124      55286.642     -20455.017      3378.9675     -17076.049      1.0318488    
   1908000   293.64134      46.19897       55148.447     -20429.843      3284.9598     -17144.884      1.0344345    
   1909000   296.79186     -589.20268      55113.918     -20543.826      3320.2046     -17223.621      1.0350826    
   1910000   291.48469     -426.3328       54802.039     -20638.782      3260.8334     -17377.948      1.0409733    
   1911000   301.33512      314.83055      54791.686     -20361.275      3371.03       -16990.245      1.04117      
   1912000   297.83477     -241.74134      54899.561     -20564.768      3331.8716     -17232.896      1.0391241    
   1913000   294.51386      482.60269      54388.949     -20410.504      3294.7207     -17115.783      1.0488796    
   1914000   295.89886     -726.49525      55122.121     -20540.76       3310.2147     -17230.546      1.0349286    
   1915000   300.42889     -136.08301      54547.973     -20522.815      3360.8921     -17161.923      1.0458218    
   1916000   305.60776     -435.99183      55089.223     -20625.178      3418.828      -17206.35       1.0355466    
   1917000   289.59101     -340.07402      55189.67      -20623.098      3239.6488     -17383.449      1.0336619    
   1918000   300.40772     -317.36714      55516.958     -20447.982      3360.6551     -17087.327      1.0275682    
   1919000   293.97098     -452.20804      55284.854     -20398.717      3288.6475     -17110.069      1.0318822    
   1920000   298.47671      83.271535      55213.721     -20407.584      3339.0531     -17068.53       1.0332116    
   1921000   302.35549      276.06417      54767.663     -20539.016      3382.4449     -17156.572      1.0416266    
   1922000   305.89853      542.77039      55360.664     -20495.987      3422.0808     -17073.906      1.0304692    
   1923000   300.59843     -391.81805      54870.522     -20375.279      3362.7887     -17012.49       1.039674     
   1924000   294.53219      844.49152      54795.883     -20469.342      3294.9257     -17174.417      1.0410902    
   1925000   301.60495      184.03394      55060.11      -20568.164      3374.0485     -17194.116      1.0360941    
   1926000   301.12141     -369.09768      55518.192     -20357.866      3368.6392     -16989.226      1.0275453    
   1927000   303.5257      -151.85161      54777.159     -20463.649      3395.536      -17068.113      1.0414461    
   1928000   299.29397     -666.3863       54875.072     -20636.728      3348.1956     -17288.532      1.0395878    
   1929000   293.33806     -273.15841      55680.821     -20380.669      3281.5671     -17099.102      1.0245441    
   1930000   305.83982      165.59357      55300.604     -20385.922      3421.424      -16964.498      1.0315883    
   1931000   290.91295      628.30549      54786.335     -20525.825      3254.4374     -17271.387      1.0412717    
   1932000   297.25238      640.15405      55280.371     -20373.096      3325.3565     -17047.74       1.0319659    
   1933000   300.61263     -423.52923      55824.029     -20351.573      3362.9475     -16988.625      1.0219158    
   1934000   303.00847     -2.3774525      54895.654     -20593.44       3389.7497     -17203.69       1.0391981    
   1935000   305.39497      1161.9585      54983.563     -20510.3        3416.4475     -17093.852      1.0375366    
   1936000   300.33255      230.08091      54674.391     -20427.787      3359.8143     -17067.973      1.0434036    
   1937000   308.59372      34.028467      54765.267     -20468.6        3452.2319     -17016.369      1.0416722    
   1938000   299.32675     -137.02865      54729.358     -20566.218      3348.5625     -17217.656      1.0423557    
   1939000   295.70271     -774.53247      55197.489     -20459.028      3308.0203     -17151.008      1.0335154    
   1940000   299.29995      226.55242      54946.943     -20488.702      3348.2626     -17140.439      1.038228     
   1941000   297.0281       223.13469      55370.233     -20484.01       3322.8474     -17161.163      1.0302911    
   1942000   305.61163      47.920155      55551.543     -20554.512      3418.8712     -17135.641      1.0269284    
   1943000   294.8926       74.938479      55253.556     -20496.533      3298.9576     -17197.576      1.0324667    
   1944000   302.655        52.489429      55472.775     -20473.517      3385.7954     -17087.721      1.0283866    
   1945000   296.75909      85.228669      55027.848     -20537.55       3319.8381     -17217.712      1.0367016    
   1946000   298.45693     -131.19138      55528.538     -20514.153      3338.8317     -17175.321      1.0273539    
   1947000   295.1862      -653.96221      55451.896     -20428.003      3302.2421     -17125.761      1.0287738    
   1948000   298.84013      242.99172      54965.654     -20569.955      3343.1186     -17226.836      1.0378746    
   1949000   291.88379      643.30272      55298.362     -20624.338      3265.2982     -17359.04       1.0316302    
   1950000   296.76292      1289.0448      54732.038     -20581.206      3319.8809     -17261.325      1.0423046    
   1951000   301.57059      290.45417      54828.006     -20497.632      3373.6642     -17123.968      1.0404803    
   1952000   298.46084     -35.815546      55668.678     -20374.578      3338.8755     -17035.702      1.0247676    
   1953000   295.04997     -446.90799      55165.216     -20564.265      3300.7181     -17263.547      1.0341201    
   1954000   303.63248     -344.8699       55429.608     -20412.19       3396.7305     -17015.459      1.0291875    
   1955000   302.7963      -569.37846      54662.035     -20448.597      3387.3762     -17061.221      1.0436395    
   1956000   305.48636     -783.93222      55335.661     -20488.921      3417.4698     -17071.451      1.0309348    
   1957000   295.13901      338.83781      54652.999     -20581.381      3301.7142     -17279.666      1.043812     
   1958000   297.46132      131.02167      54894.878     -20556.793      3327.6939     -17229.099      1.0392128    
   1959000   296.70238     -1030.2597      55170.449     -20462.181      3319.2036     -17142.978      1.034022     
   1960000   307.48559      286.62373      55106.859     -20422.224      3439.8352     -16982.389      1.0352152    
   1961000   292.0302      -28.747797      54989.314     -20536.849      3266.936      -17269.913      1.0374281    
   1962000   306.22803     -142.15662      54999.118     -20450.099      3425.7669     -17024.332      1.0372431    
   1963000   296.61769      582.53934      54802.974     -20386.358      3318.2562     -17068.102      1.0409555    
   1964000   295.77604      74.741153      55143.235     -20411.296      3308.8407     -17102.456      1.0345323    
   1965000   300.62811      189.5566       55385.12      -20459.953      3363.1207     -17096.833      1.0300142    
   1966000   296.65741     -106.40429      55277.151     -20553.422      3318.7005     -17234.722      1.032026     
   1967000   299.0156      -17.65034       55020.298     -20584.78       3345.0816     -17239.698      1.0368438    
   1968000   303.67122     -209.76372      55573.026     -20470.944      3397.1639     -17073.78       1.0265314    
   1969000   301.36465      166.55495      54986.482     -20472.894      3371.3603     -17101.534      1.0374815    
   1970000   296.56996      354.6462       54791.883     -20439.473      3317.7223     -17121.751      1.0411662    
   1971000   299.13322     -734.83034      55617.636     -20434.305      3346.3974     -17087.908      1.0257081    
   1972000   295.67245      353.01183      55148.313     -20648.676      3307.6818     -17340.994      1.034437     
   1973000   297.49096     -843.54594      55449.099     -20448.841      3328.0255     -17120.815      1.0288257    
   1974000   295.99743     -903.83471      55323.326     -20504.357      3311.3174     -17193.04       1.0311646    
   1975000   297.2543       154.46488      55145.593     -20477.609      3325.3779     -17152.231      1.0344881    
   1976000   299.08922     -159.33855      55040.164     -20529.946      3345.9051     -17184.041      1.0364696    
   1977000   297.09076      520.50888      54742.775     -20456.266      3323.5485     -17132.717      1.0421002    
   1978000   300.77719     -190.2852       55521.985     -20462.662      3364.7884     -17097.873      1.0274751    
   1979000   302.00094      463.7304       55313.651     -20437.966      3378.4785     -17059.488      1.031345     
   1980000   302.4925       1054.6001      54438.626     -20447.884      3383.9776     -17063.906      1.0479224    
   1981000   304.28678     -381.25726      55526.172     -20453.419      3404.0501     -17049.369      1.0273976    
   1982000   297.34664     -425.69835      54887.381     -20497.196      3326.4109     -17170.785      1.0393547    
   1983000   302.93066     -269.91529      55119.052     -20531.071      3388.8793     -17142.192      1.0349862    
   1984000   298.71986      374.57812      55883.25      -20466.392      3341.7731     -17124.619      1.0208329    
   1985000   300.28772      37.107453      55444.728     -20668.468      3359.3128     -17309.156      1.0289068    
   1986000   297.64564      269.71373      55260.721     -20425.387      3329.7559     -17095.631      1.0323328    
   1987000   297.68388      158.36784      55297.453     -20509.086      3330.1837     -17178.902      1.0316471    
   1988000   300.78583     -1058.7142      55021.443     -20397.096      3364.8851     -17032.211      1.0368223    
   1989000   297.74146     -159.80192      55046.721     -20291.138      3330.8278     -16960.311      1.0363462    
   1990000   300.56458     -984.14295      55292.512     -20478.148      3362.4099     -17115.738      1.0317393    
   1991000   290.86524      144.84353      54777.972     -20430.917      3253.9037     -17177.013      1.0414306    
   1992000   291.63347     -114.8422       55410.653     -20596.634      3262.4978     -17334.136      1.0295395    
   1993000   291.09855      212.94245      54868.124     -20541.143      3256.5137     -17284.629      1.0397195    
   1994000   302.77662     -154.9151       55161.546     -20453.848      3387.1561     -17066.692      1.0341889    
   1995000   299.64468      143.19033      55208.985     -20406.057      3352.119      -17053.938      1.0333002    
   1996000   295.92837      371.8762       55173.85      -20437.9        3310.5448     -17127.355      1.0339583    
   1997000   300.42707     -306.50675      54622.926     -20453.316      3360.8717     -17092.444      1.0443867    
   1998000   302.16239      200.42607      55157.09      -20434.913      3380.2846     -17054.629      1.0342724    
   1999000   297.8201       589.50201      54739.918     -20513.057      3331.7076     -17181.35       1.0421546    
   2000000   297.54604      681.01093      55325.016     -20445.058      3328.6416     -17116.416      1.0311331    
   2001000   294.44067     -28.607228      55564.292     -20441.358      3293.9019     -17147.456      1.0266928    
   2002000   299.87353      523.57946      55364.58      -20454.714      3354.6792     -17100.034      1.0303963    
   2003000   299.18103     -214.78743      54978.156     -20480.314      3346.9322     -17133.381      1.0376386    
   2004000   303.73631      174.98913      55467.452     -20500.447      3397.892      -17102.555      1.0284853    
   2005000   296.60807     -209.34701      54767.805     -20386.669      3318.1486     -17068.52       1.0416239    
   2006000   302.31833      10.131812      54984.871     -20440.404      3382.0291     -17058.375      1.0375119    
   2007000   301.84671      497.5243       55065.732     -20531.664      3376.7531     -17154.911      1.0359884    
   2008000   305.36727      478.34711      54653.932     -20539.31       3416.1375     -17123.173      1.0437942    
   2009000   295.17701      195.61034      55497.547     -20503.294      3302.1393     -17201.155      1.0279275    
   2010000   304.12902     -508.13277      54854.339     -20507.191      3402.2853     -17104.906      1.0399808    
   2011000   295.66571      567.69139      55024.846     -20463.808      3307.6064     -17156.202      1.0367581    
   2012000   298.15025      124.55472      54912.248     -20576.58       3335.401      -17241.179      1.038884     
   2013000   298.18987      109.19306      55577.619     -20491.718      3335.8441     -17155.874      1.0264466    
   2014000   299.44776     -390.82776      55136.398     -20625.536      3349.9161     -17275.62       1.0346606    
   2015000   302.46559      84.679661      55360.231     -20488.082      3383.6766     -17104.406      1.0304772    
   2016000   298.63863      74.400467      55275.495     -20560.531      3340.8644     -17219.666      1.0320569    
   2017000   295.47401     -139.43363      55294.609     -20476.605      3305.4619     -17171.143      1.0317002    
   2018000   303.69881     -363.2014       55155.082     -20503.151      3397.4725     -17105.678      1.0343101    
   2019000   297.22383      371.12167      55284.692     -20579.787      3325.0371     -17254.75       1.0318852    
   2020000   302.77853     -615.32952      55879.959     -20477.088      3387.1774     -17089.911      1.020893     
   2021000   303.93872     -471.26038      55841.225     -20502.248      3400.1564     -17102.092      1.0216011    
   2022000   292.03795     -241.47183      55246.733     -20475.442      3267.0227     -17208.42       1.0325942    
   2023000   301.85419     -158.74447      55105.178     -20535.9        3376.8369     -17159.064      1.0352468    
   2024000   302.47059      152.75851      55175.067     -20571.346      3383.7325     -17187.613      1.0339354    
   2025000   298.0069      -92.956256      55279.293     -20386.286      3333.7973     -17052.489      1.031986     
   2026000   298.9523      -747.80752      55282.286     -20704.012      3344.3734     -17359.638      1.0319302    
   2027000   291.65165     -3.672569       54468.256     -20598.529      3262.7012     -17335.828      1.0473524    
   2028000   295.96088      258.04023      54583.133     -20541.364      3310.9085     -17230.455      1.0451481    
   2029000   305.47251      54.977176      55106.911     -20396.71       3417.3149     -16979.395      1.0352142    
   2030000   306.68057     -581.73036      55262.644     -20505.536      3430.8294     -17074.707      1.0322969    
   2031000   294.75795      704.18058      54861.903     -20500.718      3297.4513     -17203.267      1.0398374    
   2032000   297.88872      604.63745      54742.48      -20470.806      3332.4752     -17138.331      1.0421058    
   2033000   304.91322     -347.39718      55223.493     -20542.849      3411.0582     -17131.791      1.0330288    
   2034000   301.03251     -169.30162      55265.782     -20501.133      3367.6447     -17133.488      1.0322383    
   2035000   302.84998     -264.72841      55335.12      -20637.734      3387.9767     -17249.757      1.0309449    
   2036000   298.04119     -359.78785      55249.023     -20462.989      3334.1808     -17128.808      1.0325514    
   2037000   301.54645     -189.79218      54561.922     -20534.505      3373.3941     -17161.11       1.0455544    
   2038000   298.99408      14.823119      54887.123     -20486.853      3344.8408     -17142.012      1.0393596    
   2039000   303.64138      248.06921      55291.152     -20525.282      3396.8301     -17128.452      1.0317647    
   2040000   296.42304     -732.14227      55243.369     -20436.929      3316.0786     -17120.85       1.0326571    
   2041000   301.2608       40.508834      54641.445     -20477.577      3370.1986     -17107.379      1.0440327    
   2042000   307.77906      712.6608       54897.758     -20535.886      3443.1182     -17092.768      1.0391582    
   2043000   296.38982      522.69064      54637.824     -20547.679      3315.7071     -17231.972      1.0441019    
   2044000   303.24495     -826.87966      55180.329     -20468.787      3392.3952     -17076.392      1.0338369    
   2045000   311.69391      859.54984      55309.595     -20495.868      3486.9136     -17008.954      1.0314206    
   2046000   297.90279     -158.37522      55382.855     -20553.17       3332.6326     -17220.538      1.0300563    
   2047000   301.89878     -103.31424      54859.573     -20512.011      3377.3356     -17134.675      1.0398816    
   2048000   302.11123      38.091826      55550.65      -20587.831      3379.7123     -17208.119      1.0269449    
   2049000   300.39965      76.9217        55241.283     -20430.7        3360.5649     -17070.135      1.0326961    
   2050000   299.09061     -519.17756      55453.987     -20456.999      3345.9207     -17111.078      1.028735     
   2051000   302.48873     -240.33047      55201.044     -20485.811      3383.9354     -17101.876      1.0334489    
   2052000   306.21402      171.27526      55265.978     -20469.015      3425.6101     -17043.405      1.0322347    
   2053000   297.77026      148.76096      55187.094     -20437.829      3331.15       -17106.679      1.0337101    
   2054000   302.30929      376.0105       55285.515     -20507.716      3381.928      -17125.788      1.0318699    
   2055000   296.02299      793.46549      54682.749     -20487.73       3311.6033     -17176.126      1.0432441    
   2056000   301.57111     -438.40954      54718.348     -20544.783      3373.67       -17171.113      1.0425654    
   2057000   297.28602     -467.25216      55316.167     -20543.133      3325.7328     -17217.4        1.0312981    
   2058000   296.42833      53.075089      55272.029     -20554.37       3316.1378     -17238.232      1.0321216    
   2059000   301.24976      292.49934      54706.093     -20566.641      3370.0751     -17196.566      1.042799     
   2060000   303.96862     -832.29957      55587.843     -20564.779      3400.4909     -17164.288      1.0262578    
   2061000   303.76858     -401.2212       55803.762     -20381.712      3398.253      -16983.459      1.0222869    
   2062000   299.56138     -1170.1693      55525.072     -20353.312      3351.1872     -17002.125      1.027418     
   2063000   295.24516      2.0568178      55142.391     -20510.351      3302.9017     -17207.449      1.0345481    
   2064000   292.79625     -573.52257      55234.023     -20558.142      3275.5059     -17282.636      1.0328318    
   2065000   300.09328      93.50163       55598.923     -20512.971      3357.1375     -17155.833      1.0260533    
   2066000   302.2751       1094.491       54511.208     -20527.511      3381.5455     -17145.966      1.0465271    
   2067000   301.45878     -358.54345      55124.37      -20438.32       3372.4134     -17065.907      1.0348863    
   2068000   294.91971      13.975541      55243.582     -20541.419      3299.261      -17242.158      1.0326531    
   2069000   304.36663      47.801282      55449.954     -20531.118      3404.9435     -17126.174      1.0288098    
   2070000   302.21533     -457.88763      54477.994     -20484.207      3380.8769     -17103.331      1.0471652    
   2071000   302.06689     -463.63272      54983.734     -20579.732      3379.2162     -17200.516      1.0375333    
   2072000   300.99136     -433.6534       55097.766     -20538.334      3367.1844     -17171.15       1.035386     
   2073000   298.09452      170.76443      55369.492     -20577.741      3334.7774     -17242.964      1.0303049    
   2074000   295.80536      333.5322       55166.519     -20471.814      3309.1686     -17162.645      1.0340957    
   2075000   294.32918     -522.04122      55242.444     -20471.477      3292.6547     -17178.823      1.0326744    
   2076000   306.39402     -200.47246      54836.698     -20403.176      3427.6238     -16975.552      1.0403153    
   2077000   305.03299     -370.77953      55099.228     -20519.418      3412.398      -17107.02       1.0353586    
   2078000   301.79267      978.23237      54904.756     -20533.501      3376.1485     -17157.352      1.0390258    
   2079000   300.06726      16.952588      55395.435     -20515.757      3356.8465     -17158.911      1.0298224    
   2080000   299.8545       59.967153      54643.132     -20550.954      3354.4663     -17196.488      1.0440005    
   2081000   295.24368      639.21061      55339.401     -20567.004      3302.8851     -17264.119      1.0308651    
   2082000   299.96398      263.45384      55682.413     -20481.972      3355.6911     -17126.281      1.0245148    
   2083000   305.57164      76.421639      55190.238     -20494.812      3418.4239     -17076.389      1.0336512    
   2084000   296.90467      595.85993      55025.267     -20448.581      3321.4667     -17127.114      1.0367502    
   2085000   307.78347      190.36727      55282.802     -20348.619      3443.1676     -16905.451      1.0319205    
   2086000   297.59199     -156.04512      55546.295     -20524.111      3329.1557     -17194.955      1.0270254    
   2087000   297.61678     -347.487        55596.786     -20568.188      3329.4329     -17238.755      1.0260927    
   2088000   296.93999      344.54786      55502.56      -20516.973      3321.8617     -17195.111      1.0278347    
   2089000   302.70145      274.60044      54799.003     -20547.581      3386.3151     -17161.266      1.0410309    
   2090000   304.96004      109.1958       55050.516     -20484.801      3411.5819     -17073.22       1.0362747    
   2091000   295.96283     -756.11545      55839.933     -20510.288      3310.9302     -17199.358      1.0216248    
   2092000   298.0742       941.52611      55189.214     -20437.123      3334.5502     -17102.572      1.0336704    
   2093000   302.93425      869.67132      54768.69      -20505.129      3388.9195     -17116.21       1.0416071    
   2094000   300.47013      64.139889      55003.112     -20557.864      3361.3534     -17196.511      1.0371678    
   2095000   306.71938     -132.21079      55177.052     -20413.749      3431.2636     -16982.485      1.0338983    
   2096000   299.45863     -501.66905      55164.105     -20480.947      3350.0378     -17130.909      1.0341409    
   2097000   306.03409      200.56586      55247.981     -20430.515      3423.5973     -17006.918      1.0325709    
   2098000   295.0831       520.67157      54958.578     -20596.772      3301.0888     -17295.684      1.0380083    
   2099000   294.95425     -249.58943      55021.897     -20397.974      3299.6474     -17098.327      1.0368137    
   2100000   294.04895      339.08783      55295.751     -20467.402      3289.5197     -17177.883      1.0316789    
   2101000   306.95469     -289.18015      55077.001     -20473.502      3433.896      -17039.606      1.0357764    
   2102000   296.41881     -159.27064      55306.311     -20442.332      3316.0313     -17126.3        1.0314819    
   2103000   295.97815      109.69989      54981.812     -20469.304      3311.1016     -17158.202      1.0375696    
   2104000   301.73371      87.163599      55338.782     -20419.986      3375.489      -17044.497      1.0308766    
   2105000   301.82733     -1110.8793      55495.245     -20461.387      3376.5363     -17084.851      1.0279702    
   2106000   301.49871      296.45151      55472.788     -20480.093      3372.86       -17107.233      1.0283863    
   2107000   299.00642     -190.72066      55122.193     -20451.796      3344.9788     -17106.817      1.0349272    
   2108000   296.62664      227.88984      55395.195     -20421.277      3318.3564     -17102.921      1.0298268    
   2109000   298.92209      433.05691      55092.313     -20561.454      3344.0355     -17217.418      1.0354885    
   2110000   298.6344      -732.43126      55281.094     -20466.794      3340.8171     -17125.977      1.0319524    
   2111000   297.12242      149.7081       55580.417     -20443.007      3323.9026     -17119.104      1.0263949    
   2112000   296.81188      163.86432      55442.588     -20432.273      3320.4286     -17111.845      1.0289465    
   2113000   302.35889     -498.48371      55296.988     -20459.124      3382.4829     -17076.641      1.0316558    
   2114000   302.09367     -138.35323      55253.168     -20472.46       3379.5159     -17092.944      1.032474     
   2115000   300.64386      566.19349      55174.543     -20475.703      3363.2969     -17112.406      1.0339453    
   2116000   294.87378     -80.29787       55024.691     -20448.95       3298.7471     -17150.203      1.0367611    
   2117000   302.45235     -323.78115      54854.776     -20484.438      3383.5284     -17100.91       1.0399725    
   2118000   307.30324      777.23892      54841.409     -20495.357      3437.7953     -17057.562      1.040226     
   2119000   303.64701      196.80351      55189.618     -20407.467      3396.893      -17010.574      1.0336629    
   2120000   297.19927     -848.86933      55184.844     -20492.92       3324.7623     -17168.157      1.0337523    
   2121000   302.94852      130.95205      54715.978     -20477.02       3389.079      -17087.941      1.0426106    
   2122000   300.84773      31.005763      55144.094     -20545.979      3365.5776     -17180.401      1.0345162    
   2123000   298.13461     -604.65295      54936.599     -20565.281      3335.2259     -17230.055      1.0384235    
   2124000   304.73235     -50.953436      55150.402     -20431.127      3409.0348     -17022.092      1.0343979    
   2125000   297.70358     -416.64934      54779.067     -20537.892      3330.404      -17207.488      1.0414098    
   2126000   306.2971      -127.73928      54663.093     -20508.79       3426.5396     -17082.251      1.0436193    
   2127000   295.87783     -27.437653      54054.948     -20442.188      3309.9794     -17132.208      1.0553605    
   2128000   297.67274     -148.0964       55170.895     -20508.694      3330.059      -17178.635      1.0340136    
   2129000   302.70723      230.30379      55355.681     -20562.714      3386.3798     -17176.335      1.0305619    
   2130000   301.58649     -490.84164      55351.438     -20404.86       3373.8421     -17031.018      1.0306409    
   2131000   298.77982     -135.53011      54602.859     -20494.724      3342.4439     -17152.28       1.0447705    
   2132000   299.38567      123.98353      55402.506     -20371.28       3349.2215     -17022.058      1.0296909    
   2133000   302.51884      118.08184      54890.355     -20489.023      3384.2723     -17104.751      1.0392984    
   2134000   298.9762       194.10429      55118.133     -20477.374      3344.6408     -17132.733      1.0350035    
   2135000   297.6809      -47.574964      54854.633     -20522.248      3330.1503     -17192.098      1.0399752    
   2136000   302.13439     -83.319927      54691.747     -20547.794      3379.9714     -17167.823      1.0430725    
   2137000   302.48788      79.387595      55010.235     -20511.08       3383.9259     -17127.155      1.0370335    
   2138000   300.75667      425.51628      55046.502     -20510.133      3364.5588     -17145.574      1.0363503    
   2139000   295.51013     -32.20682       55103.887     -20608.323      3305.8659     -17302.457      1.035271     
   2140000   305.57359     -470.74307      55492.813     -20365.093      3418.4457     -16946.647      1.0280152    
   2141000   302.55832     -414.15296      55434.876     -20527.882      3384.7139     -17143.168      1.0290897    
   2142000   306.79084      593.47866      55693.084     -20623.227      3432.063      -17191.164      1.0243185    
   2143000   293.51523      1018.8941      54825.879     -20433.249      3283.549      -17149.7        1.0405206    
   2144000   303.8618       688.12544      55137.567     -20503.701      3399.2959     -17104.405      1.0346386    
   2145000   298.09865     -53.01572       54608.209     -20507.044      3334.8237     -17172.22       1.0446682    
   2146000   295.11731     -802.19344      54965.51      -20591.029      3301.4715     -17289.557      1.0378773    
   2147000   298.96695     -370.44272      54758.038     -20414.261      3344.5373     -17069.723      1.0418097    
   2148000   295.08253      382.20833      55106.404     -20499.465      3301.0824     -17198.382      1.0352237    
   2149000   303.46325      530.87381      55198.981     -20454.425      3394.8374     -17059.588      1.0334875    
   2150000   293.1018      -1171.9089      55540.036     -20563.331      3278.924      -17284.407      1.0271412    
   2151000   299.96485      519.7893       53998.326     -20538.539      3355.7008     -17182.838      1.0564672    
   2152000   292.76713      477.02997      55430.943     -20515.446      3275.18       -17240.266      1.0291627    
   2153000   302.19815     -477.70032      55261.085     -20555.768      3380.6847     -17175.084      1.0323261    
   2154000   295.30381     -34.602969      54885.16      -20607.842      3303.5578     -17304.284      1.0393968    
   2155000   300.84036     -19.131969      55420.584     -20424.465      3365.4951     -17058.97       1.029355     
   2156000   296.58081     -891.34031      55225.475     -20544.265      3317.8436     -17226.422      1.0329917    
   2157000   298.24371     -449.94609      55097.947     -20605.351      3336.4465     -17268.904      1.0353826    
   2158000   296.987        172.79         55193.439     -20460.411      3322.3877     -17138.023      1.0335913    
   2159000   304.7322      -533.79596      55130.009     -20479.121      3409.033      -17070.087      1.0347805    
   2160000   305.13395      47.327108      54768.353     -20473.899      3413.5274     -17060.371      1.0416135    
   2161000   294.0336       702.05272      55115.04      -20581.205      3289.348      -17291.857      1.0350615    
   2162000   303.94714      324.68254      55094.648     -20611.113      3400.2506     -17210.863      1.0354446    
   2163000   297.70044      289.5577       55411.395     -20630.094      3330.369      -17299.725      1.0295257    
   2164000   296.63327     -19.608572      55327.24      -20453.47       3318.4304     -17135.039      1.0310917    
   2165000   299.24274     -44.750396      55030.899     -20537.252      3347.6226     -17189.63       1.0366441    
   2166000   299.00735      266.01889      54299.684     -20682.253      3344.9893     -17337.264      1.0506039    
   2167000   298.55295     -255.6392       55203.026     -20611.717      3339.9059     -17271.811      1.0334118    
   2168000   301.83344     -253.22973      54652.153     -20452.888      3376.6047     -17076.283      1.0438282    
   2169000   305.38973      340.81821      55102.459     -20433.499      3416.3889     -17017.11       1.0352979    
   2170000   299.89874     -145.64616      55253.331     -20445.749      3354.9613     -17090.788      1.0324709    
   2171000   297.55866     -362.43061      55107.499     -20533.992      3328.7828     -17205.209      1.0352032    
   2172000   301.42447     -349.40687      54961.658     -20530.388      3372.0295     -17158.359      1.0379501    
   2173000   297.73124     -393.59056      55165.594     -20509.051      3330.7134     -17178.337      1.034113     
   2174000   302.70247      553.65679      54679.179     -20496.996      3386.3265     -17110.669      1.0433123    
   2175000   303.31776     -1021.8409      54835.072     -20504.805      3393.2097     -17111.595      1.0403462    
   2176000   289.72287     -585.07343      55383.766     -20561.906      3241.1239     -17320.782      1.0300393    
   2177000   294.54835     -299.9403       55329.72      -20484.304      3295.1065     -17189.198      1.0310455    
   2178000   303.28191      173.11527      54993.393     -20577.78       3392.8087     -17184.971      1.0373511    
   2179000   295.45481      284.22963      54954.2       -20458.569      3305.247      -17153.322      1.038091     
   2180000   296.90438     -57.693866      55692.854     -20498.245      3321.4633     -17176.782      1.0243227    
   2181000   290.05456     -33.695576      55498.545     -20444.812      3244.8345     -17199.977      1.0279091    
   2182000   294.95996      175.61653      54697.552     -20507.606      3299.7112     -17207.895      1.0429618    
   2183000   295.71894      230.92803      54995.609     -20413.716      3308.2019     -17105.514      1.0373093    
   2184000   300.63701     -377.83505      55241.662     -20441.865      3363.2203     -17078.644      1.032689     
   2185000   296.47116      489.8536       55056.919     -20490.274      3316.617      -17173.657      1.0361542    
   2186000   299.08462      194.1138       55047.416     -20429.022      3345.8537     -17083.169      1.0363331    
   2187000   301.60955      56.810976      55065.715     -20509.88       3374.1        -17135.78       1.0359887    
   2188000   305.21897     -81.060258      55676.906     -20385.429      3414.4785     -16970.95       1.0246162    
   2189000   305.58        -588.43088      55427.293     -20304.543      3418.5174     -16886.026      1.0292304    
   2190000   299.13394      62.922908      55304.594     -20486.048      3346.4055     -17139.642      1.0315139    
   2191000   296.89323      218.4994       55213.775     -20554.843      3321.3387     -17233.505      1.0332106    
   2192000   300.01148      526.60362      54971.229     -20511.848      3356.2224     -17155.626      1.0377694    
   2193000   300.47712     -303.30669      54972.19      -20502.937      3361.4316     -17141.506      1.0377512    
   2194000   298.70075     -186.22475      55211.257     -20447.83       3341.5593     -17106.271      1.0332577    
   2195000   301.27875     -450.1539       55363.167     -20545.675      3370.3994     -17175.276      1.0304226    
   2196000   295.15027      103.14106      55315.827     -20537.411      3301.8402     -17235.571      1.0313044    
   2197000   301.42101     -334.93327      55172.386     -20525.331      3371.9908     -17153.34       1.0339857    
   2198000   295.36953     -67.033713      55357.982     -20504.238      3304.2931     -17199.945      1.0305191    
   2199000   294.2331      -487.9359       55526.881     -20479.355      3291.5799     -17187.775      1.0273845    
   2200000   311.59374      203.1089       55065.186     -20525.845      3485.7929     -17040.052      1.0359986    
   2201000   296.45307      105.63605      55537.847     -20594.757      3316.4146     -17278.342      1.0271816    
   2202000   297.98317     -141.06895      55315.077     -20526.689      3333.5318     -17193.157      1.0313184    
   2203000   306.36665      300.66675      54889.438     -20545.343      3427.3176     -17118.025      1.0393158    
   2204000   299.95927      1089.5376      55079.553     -20429.394      3355.6384     -17073.755      1.0357284    
   2205000   301.29242     -209.4552       55279.228     -20473.884      3370.5523     -17103.332      1.0319872    
   2206000   298.05701      190.49543      55142.337     -20592.084      3334.3578     -17257.727      1.0345492    
   2207000   297.57642      546.80761      55220.356     -20585.874      3328.9815     -17256.893      1.0330875    
   2208000   303.60148      506.94577      55297.305     -20372.756      3396.3837     -16976.372      1.0316499    
   2209000   299.88817     -673.78213      55239.569     -20501.126      3354.843      -17146.283      1.0327281    
   2210000   300.99466     -25.13356       55071.201     -20494.202      3367.2212     -17126.98       1.0358855    
   2211000   297.37715     -113.6908       54951.49      -20374.168      3326.7522     -17047.416      1.0381421    
   2212000   295.66994      208.0986       54635.046     -20451.973      3307.6537     -17144.319      1.044155     
   2213000   300.53008     -925.98098      55772.54      -20596.349      3362.024      -17234.325      1.0228592    
   2214000   309.86207     -448.61457      54669.858     -20454.203      3466.4208     -16987.782      1.0434901    
   2215000   305.58268      667.65236      55024.708     -20466.278      3418.5473     -17047.73       1.0367608    
   2216000   300.35554      386.76465      55285.815     -20500.887      3360.0714     -17140.816      1.0318643    
   2217000   300.2006      -102.84632      54951.925     -20588.554      3358.3381     -17230.216      1.0381339    
   2218000   304.82883     -514.93154      55164.195     -20413.027      3410.1141     -17002.912      1.0341392    
   2219000   305.21414     -93.781499      55187.614     -20547.785      3414.4245     -17133.361      1.0337004    
   2220000   301.44131     -111.34638      54719.37      -20440.262      3372.2179     -17068.044      1.0425459    
   2221000   300.40233     -452.91795      54839.686     -20563.923      3360.5949     -17203.328      1.0402586    
   2222000   298.09037      372.01138      54887.759     -20444.247      3334.731      -17109.516      1.0393475    
   2223000   301.03189     -337.50889      55486.254     -20499.783      3367.6378     -17132.145      1.0281368    
   2224000   295.47844      245.75101      54874.917     -20534.957      3305.5115     -17229.445      1.0395908    
   2225000   303.5214       922.79094      54832.1       -20495.92       3395.4879     -17100.432      1.0404026    
   2226000   298.49598     -428.2244       54888.301     -20542.648      3339.2686     -17203.379      1.0393373    
   2227000   299.37563     -52.67562       54925.439     -20531.407      3349.1092     -17182.298      1.0386345    
   2228000   305.20228      82.999568      54872.708     -20591.272      3414.2919     -17176.981      1.0396326    
   2229000   297.56932     -355.86124      55543.148     -20512.872      3328.902      -17183.97       1.0270836    
   2230000   304.97646      658.15512      54729.327     -20414.268      3411.7656     -17002.502      1.0423563    
   2231000   298.5467      -334.98779      54782.172     -20529.379      3339.836      -17189.543      1.0413508    
   2232000   294.19181     -157.48734      55162.444     -20425.971      3291.1179     -17134.853      1.034172     
   2233000   301.96004      185.88642      54927.234     -20588.521      3378.0209     -17210.5        1.0386006    
   2234000   295.03508     -146.10212      55305.397     -20475.939      3300.5516     -17175.387      1.0314989    
   2235000   299.8608       260.42487      54904.601     -20489.937      3354.5368     -17135.401      1.0390287    
   2236000   298.5614       561.83639      55105.591     -20450.882      3340.0004     -17110.882      1.035239     
   2237000   300.75739     -446.49088      55240.033     -20486.86       3364.5669     -17122.293      1.0327195    
   2238000   302.53618      815.64009      54991.401     -20575.918      3384.4662     -17191.452      1.0373887    
   2239000   295.75894      372.33655      55208.48      -20564.677      3308.6494     -17256.027      1.0333097    
   2240000   298.24606      556.1448       55016.677     -20512.855      3336.4727     -17176.382      1.0369121    
   2241000   301.11184      118.10254      55479.529     -20383.131      3368.5322     -17014.599      1.0282614    
   2242000   301.63608      72.266918      54817.054     -20428.191      3374.3968     -17053.794      1.0406881    
   2243000   304.05328     -606.84057      55001.059     -20523.507      3401.438      -17122.069      1.0372065    
   2244000   305.36015      32.284516      55175.299     -20478.498      3416.0579     -17062.44       1.0339311    
   2245000   293.98004     -1092.1093      55433.025     -20417.605      3288.7489     -17128.856      1.029124     
   2246000   297.69259     -728.19         55444.714     -20438.708      3330.2811     -17108.427      1.0289071    
   2247000   302.80908      542.47751      54551.199     -20652.94       3387.5191     -17265.421      1.0457599    
   2248000   295.13466     -32.257413      55240.591     -20534.058      3301.6656     -17232.393      1.032709     
   2249000   294.16297      256.70119      54730.736     -20574.138      3290.7953     -17283.343      1.0423294    
   2250000   307.99956     -432.86943      55142.096     -20463.557      3445.585      -17017.972      1.0345537    
   2251000   292.25353      188.16973      54960.598     -20347.938      3269.4345     -17078.504      1.0379701    
   2252000   300.17731      658.72606      55259.149     -20649.857      3358.0776     -17291.779      1.0323622    
   2253000   300.2155      -983.17163      55268.851     -20526.328      3358.5049     -17167.823      1.032181     
   2254000   292.91706     -69.986543      54748.439     -20518.831      3276.8573     -17241.973      1.0419924    
   2255000   299.63246     -906.62896      55121.052     -20469.244      3351.9823     -17117.262      1.0349486    
   2256000   302.49249      298.16227      54961.464     -20318.202      3383.9775     -16934.224      1.0379538    
   2257000   294.32771     -397.12143      55265.271     -20603.169      3292.6382     -17310.531      1.0322478    
   2258000   307.08756      219.40239      55196.973     -20446.65       3435.3824     -17011.267      1.0335251    
   2259000   295.35072      256.68924      55203.653     -20425.981      3304.0827     -17121.898      1.0334       
   2260000   300.44732     -344.3004       55276.678     -20456.948      3361.0982     -17095.85       1.0320348    
   2261000   307.74957     -416.28076      55760.879     -20455.662      3442.7883     -17012.873      1.0230731    
   2262000   301.04449     -410.79356      55348.876     -20516.813      3367.7788     -17149.034      1.0306886    
   2263000   300.83832      91.91682       54935.895     -20650.206      3365.4723     -17284.734      1.0384369    
   2264000   291.02821      313.94345      54633.577     -20339.994      3255.7268     -17084.267      1.0441831    
   2265000   306.37096     -218.40436      55183.521     -20465.317      3427.3658     -17037.951      1.0337771    
   2266000   296.35334      137.62024      55171.806     -20469.551      3315.2989     -17154.252      1.0339966    
   2267000   300.25542      457.55638      55322.08      -20371.047      3358.9514     -17012.096      1.0311879    
   2268000   297.95613     -446.96039      55370.936     -20506.291      3333.2293     -17173.062      1.030278     
   2269000   304.03103     -453.93102      55430.659     -20573.403      3401.1891     -17172.214      1.0291679    
   2270000   298.00746      67.666746      56060.646     -20413.183      3333.8036     -17079.38       1.0176026    
   2271000   296.70215     -143.38873      55164.942     -20435.022      3319.2011     -17115.821      1.0341252    
   2272000   307.58737     -31.812053      55018.414     -20564.821      3440.9738     -17123.847      1.0368794    
   2273000   300.77557      141.52177      55364.152     -20651.11       3364.7703     -17286.339      1.0304042    
   2274000   304.2776      -478.46271      55115.943     -20486.575      3403.9475     -17082.628      1.0350446    
   2275000   296.62677     -144.02016      55141.827     -20413.04       3318.3578     -17094.682      1.0345587    
   2276000   302.72403      631.40932      55141.759     -20486.037      3386.5677     -17099.469      1.03456      
   2277000   297.30088      535.3028       55391.979     -20486.989      3325.8991     -17161.09       1.0298866    
   2278000   305.95755      320.7562       54958.956     -20430.177      3422.741      -17007.436      1.0380011    
   2279000   298.34263     -288.81412      55055.013     -20559.256      3337.5531     -17221.703      1.0361901    
   2280000   303.91464      333.02335      54823.128     -20554.961      3399.8871     -17155.074      1.0405728    
   2281000   305.1779       734.59204      54789.06      -20453.896      3414.0191     -17039.877      1.0412199    
   2282000   298.16174      294.89882      55346.244     -20448.935      3335.5294     -17113.406      1.0307377    
   2283000   297.89584      382.1818       54558.007     -20618.932      3332.5548     -17286.377      1.0456294    
   2284000   297.49734     -492.36525      55015.972     -20643.479      3328.0968     -17315.382      1.0369254    
   2285000   296.38413      63.003672      55335.696     -20501.725      3315.6433     -17186.082      1.0309341    
   2286000   300.42813      78.112087      55356.052     -20447.112      3360.8836     -17086.229      1.030555     
   2287000   307.16471      106.71991      55208.91      -20499.793      3436.2455     -17063.547      1.0333017    
   2288000   304.02879     -167.65171      55223.034     -20501.302      3401.1641     -17100.138      1.0330374    
   2289000   297.81611     -86.083935      55425.727     -20429.608      3331.6629     -17097.945      1.0292595    
   2290000   301.86701     -415.3149       55333.299     -20355.046      3376.9802     -16978.065      1.0309788    
   2291000   298.95778     -928.91995      54921.63      -20481.78       3344.4347     -17137.346      1.0387066    
   2292000   306.24269     -299.47368      54814.908     -20451.787      3425.9309     -17025.856      1.0407289    
   2293000   310.16143     -419.81317      54811.068     -20411.351      3469.7697     -16941.581      1.0408018    
   2294000   306.1935      -77.388588      55001.599     -20485.108      3425.3806     -17059.727      1.0371963    
   2295000   299.64336     -172.34888      55233.178     -20387.234      3352.1043     -17035.129      1.0328476    
   2296000   304.39704      163.29985      55544.827     -20361.841      3405.2837     -16956.558      1.0270526    
   2297000   297.40701      25.099664      54845.587     -20497.995      3327.0863     -17170.909      1.0401467    
   2298000   299.97138      56.109573      54989.684     -20460.453      3355.7738     -17104.679      1.0374211    
   2299000   299.55418      524.32436      54517.666     -20511.854      3351.1067     -17160.747      1.0464031    
   2300000   296.92275     -1062.9545      55088.227     -20480.839      3321.6689     -17159.17       1.0355653    
   2301000   296.24331     -107.41261      55350.071     -20420.116      3314.068      -17106.048      1.0306664    
   2302000   301.38607     -277.46526      55131.247     -20290.927      3371.6        -16919.327      1.0347573    
   2303000   299.90904      1636.6901      55032.951     -20532.682      3355.0764     -17177.605      1.0366055    
   2304000   304.8535      -734.24026      55977.327     -20399.132      3410.3901     -16988.742      1.0191172    
   2305000   308.89273     -199.20058      54814.381     -20593.177      3455.5769     -17137.6        1.0407389    
   2306000   298.7879      -501.86228      55680.695     -20434.549      3342.5343     -17092.015      1.0245464    
   2307000   293.16074     -241.30901      55145.469     -20425.895      3279.5833     -17146.312      1.0344904    
   2308000   294.40878     -261.89187      54950.529     -20589.361      3293.5451     -17295.816      1.0381603    
   2309000   305.74137     -312.9599       55373.101     -20580.085      3420.3226     -17159.762      1.0302377    
   2310000   307.89832      370.83376      54591.237     -20497.93       3444.4524     -17053.477      1.0449929    
   2311000   304.0768       248.73656      55241.358     -20469.218      3401.7011     -17067.517      1.0326947    
   2312000   296.15205     -1032.5461      55545.644     -20478.827      3313.0471     -17165.78       1.0270375    
   2313000   298.49418     -273.93064      55440.436     -20487.605      3339.2484     -17148.356      1.0289865    
   2314000   298.92939      524.86843      55091.486     -20460.445      3344.1171     -17116.328      1.0355041    
   2315000   303.48142     -660.56669      55627.53      -20548.222      3395.0406     -17153.181      1.0255256    
   2316000   301.01118     -34.103794      55436.723     -20525.397      3367.4061     -17157.991      1.0290554    
   2317000   297.99751     -266.98633      55216.852     -20368.585      3333.6922     -17034.892      1.033153     
   2318000   299.3887       136.33182      54788.776     -20465.883      3349.2555     -17116.627      1.0412253    
   2319000   301.76495      553.61889      54356.414     -20567.292      3375.8385     -17191.454      1.0495074    
   2320000   297.81875      225.32103      55218.213     -20400.931      3331.6924     -17069.239      1.0331276    
   2321000   292.76549     -434.04877      55244.944     -20497.042      3275.1617     -17221.88       1.0326277    
   2322000   301.95632      9.0256458      55146.66      -20384.332      3377.9794     -17006.352      1.034468     
   2323000   299.96356      87.458677      54691.829     -20527.601      3355.6863     -17171.914      1.0430709    
   2324000   295.72195      321.10018      54591.561     -20487.564      3308.2356     -17179.328      1.0449867    
   2325000   302.50908      169.72874      55132.598     -20465.808      3384.1631     -17081.645      1.0347319    
   2326000   294.46616      262.79191      54851.215     -20345.418      3294.187      -17051.231      1.04004      
   2327000   297.85983     -519.14915      55119.381     -20461.251      3332.152      -17129.099      1.03498      
   2328000   301.60876      266.41936      54826.365     -20531.799      3374.0912     -17157.708      1.0405114    
   2329000   302.93273     -159.5897       55489.256     -20495.987      3388.9025     -17107.085      1.0280811    
   2330000   300.2284      -1215.6698      55135.383     -20575.542      3358.6491     -17216.893      1.0346796    
   2331000   302.31516      107.99536      55225.878     -20602.637      3381.9937     -17220.643      1.0329842    
   2332000   298.05682     -772.44168      55090.193     -20572.066      3334.3557     -17237.711      1.0355284    
   2333000   295.64759     -170.53792      55136.308     -20461.102      3307.4037     -17153.698      1.0346623    
   2334000   298.95205      315.39453      55039.108     -20474.556      3344.3706     -17130.185      1.0364895    
   2335000   298.43166     -102.05064      54911.5       -20439.134      3338.549      -17100.585      1.0388982    
   2336000   307.40523      350.75515      55049.316     -20496.978      3438.9362     -17058.041      1.0362973    
   2337000   301.86055      70.449929      54755.214     -20525.704      3376.908      -17148.796      1.0418635    
   2338000   297.42638      557.00158      54737.194     -20600.405      3327.303      -17273.102      1.0422065    
   2339000   301.57361      298.74508      54725.971     -20557.353      3373.698      -17183.655      1.0424202    
   2340000   308.73357      1003.6372      55044.066     -20646.929      3453.7963     -17193.133      1.0363961    
   2341000   304.28046      558.57858      54955.226     -20421.914      3403.9794     -17017.934      1.0380716    
   2342000   301.47129     -465.00457      55194.29      -20484.092      3372.5533     -17111.538      1.0335753    
   2343000   300.49578      1084.959       55271.858     -20568.908      3361.6403     -17207.268      1.0321248    
   2344000   311.23998     -452.5284       55456.087     -20441.712      3481.8355     -16959.876      1.0286961    
   2345000   301.15011      60.022341      55041.497     -20420.889      3368.9603     -17051.929      1.0364445    
   2346000   301.6415      -81.837756      55415.641     -20556.756      3374.4574     -17182.299      1.0294469    
   2347000   293.92622      122.97733      54646.128     -20511.493      3288.1468     -17223.346      1.0439433    
   2348000   294.69289     -548.97837      55468.651     -20441.064      3296.7234     -17144.341      1.028463     
   2349000   304.76045     -624.38159      54753.931     -20522.368      3409.3491     -17113.018      1.0418879    
   2350000   302.9478      -260.52542      55432.238     -20529.759      3389.071      -17140.688      1.0291386    
   2351000   299.68638     -190.10829      55467.666     -20446.815      3352.5856     -17094.229      1.0284813    
   2352000   301.24897      714.77687      55036.615     -20467.824      3370.0663     -17097.758      1.0365365    
   2353000   305.16282      479.2356       55534.469     -20498.783      3413.8505     -17084.933      1.0272441    
   2354000   303.61128      78.309404      54543.619     -20508.532      3396.4933     -17112.039      1.0459053    
   2355000   296.62913     -116.65622      55166.05      -20393.175      3318.3841     -17074.791      1.0341044    
   2356000   293.27552     -373.96477      55657.802     -20347.388      3280.8674     -17066.52       1.0249678    
   2357000   297.58503      133.3308       54868.256     -20448.07       3329.0778     -17118.992      1.039717     
   2358000   303.03741      153.9633       55064.636     -20416.395      3390.0735     -17026.321      1.036009     
   2359000   297.65466     -61.376787      55004.465     -20413.097      3329.8568     -17083.24       1.0371423    
   2360000   301.35811     -145.91005      55353.675     -20457.626      3371.2872     -17086.339      1.0305993    
   2361000   297.18671      726.00851      55012.588     -20425.815      3324.6218     -17101.193      1.0369892    
   2362000   300.06174      512.26258      54875.785     -20400.682      3356.7847     -17043.897      1.0395743    
   2363000   309.1878       438.11145      54717.333     -20487.264      3458.8778     -17028.386      1.0425848    
   2364000   292.19264     -270.29602      55269.459     -20487.254      3268.7533     -17218.501      1.0321696    
   2365000   303.41392     -253.51181      55920.595     -20550.08       3394.2855     -17155.794      1.0201511    
   2366000   294.5936       174.53389      55096.29      -20454.717      3295.6127     -17159.105      1.0354138    
   2367000   300.76867      638.15479      55018.244     -20374.345      3364.6931     -17009.651      1.0368826    
   2368000   296.24662      653.15324      55402.599     -20524.366      3314.1051     -17210.261      1.0296892    
   2369000   304.82907     -131.12068      55235.936     -20412.49       3410.1167     -17002.373      1.0327961    
   2370000   304.54149     -215.46693      55615.883     -20444.789      3406.8996     -17037.89       1.0257404    
   2371000   305.09091     -155.68561      55002.478     -20372.406      3413.0459     -16959.36       1.0371798    
   2372000   295.05754      159.741        54532.548     -20503.374      3300.8028     -17202.571      1.0461176    
   2373000   301.23651      185.58409      55479.764     -20419.114      3369.9268     -17049.187      1.028257     
   2374000   305.25591     -180.67025      54958.186     -20550.6        3414.8918     -17135.709      1.0380156    
   2375000   299.95796     -412.84577      55527.11      -20578.564      3355.6238     -17222.94       1.0273803    
   2376000   297.34514      211.84408      55018.925     -20470.299      3326.3941     -17143.905      1.0368697    
   2377000   299.03709     -18.74947       55379.028     -20419.075      3345.322      -17073.753      1.0301275    
   2378000   296.97231     -95.369478      55137.007     -20617.009      3322.2234     -17294.786      1.0346491    
   2379000   305.17811      454.90539      54842.246     -20457.939      3414.0215     -17043.917      1.0402101    
   2380000   300.47881      375.92111      54933.336     -20433.532      3361.4505     -17072.081      1.0384852    
   2381000   304.33589     -440.73749      55270.731     -20532.261      3404.5996     -17127.661      1.0321459    
   2382000   293.41493     -971.7971       55779.818     -20312.668      3282.427      -17030.241      1.0227258    
   2383000   302.50176     -607.60848      54901.993     -20494.52       3384.0812     -17110.439      1.0390781    
   2384000   293.49407     -323.5867       55093.104     -20450.428      3283.3124     -17167.116      1.0354736    
   2385000   305.91256     -212.46504      54936.947     -20514.697      3422.2378     -17092.46       1.038417     
   2386000   291.55557      79.470797      55031.28      -20612.014      3261.6264     -17350.388      1.0366369    
   2387000   298.02155      417.45453      54683.882     -20486.328      3333.9612     -17152.367      1.0432225    
   2388000   302.20979     -219.38943      55317.95      -20370.323      3380.8149     -16989.508      1.0312648    
   2389000   293.76517      575.69289      55333.766     -20438.904      3286.3451     -17152.559      1.0309701    
   2390000   300.67249      482.47579      55730.02      -20411.603      3363.6172     -17047.986      1.0236396    
   2391000   300.4355      -654.72697      55001.61      -20658.658      3360.966      -17297.692      1.0371961    
   2392000   299.52859      83.239386      55030.103     -20350.346      3350.8204     -16999.526      1.0366591    
   2393000   299.40914     -375.3904       54696.977     -20427.742      3349.4841     -17078.258      1.0429728    
   2394000   302.0106      -508.23935      55026.071     -20556.756      3378.5866     -17178.169      1.0367351    
   2395000   301.94638     -529.21294      55222.349     -20420.315      3377.8682     -17042.447      1.0330502    
   2396000   297.96941      80.504191      55558.602     -20405.759      3333.3778     -17072.381      1.0267979    
   2397000   299.50195      544.15962      54766.712     -20550.261      3350.5224     -17199.739      1.0416447    
   2398000   293.17465     -367.14773      55215.746     -20445.694      3279.739      -17165.955      1.0331737    
   2399000   296.18384     -258.45454      54919.532     -20458.29       3313.4028     -17144.887      1.0387462    
   2400000   304.61449     -281.82953      55051.461     -20479.308      3407.7163     -17071.592      1.0362569    
   2401000   301.18883     -339.33748      55282.849     -20486.606      3369.3934     -17117.213      1.0319196    
   2402000   296.37879     -42.145373      55405.936     -20498.125      3315.5837     -17182.541      1.0296272    
   2403000   299.95251      76.758676      55461.463     -20570.984      3355.5627     -17215.421      1.0285963    
   2404000   294.1748      -192.60116      54591.933     -20622.838      3290.9277     -17331.911      1.0449796    
   2405000   300.32403      390.40907      54943.055     -20439.475      3359.7189     -17079.756      1.0383015    
   2406000   308.82812     -111.60948      55035.881     -20422.28       3454.8541     -16967.426      1.0365503    
   2407000   304.3325      -157.28508      55048.69      -20490.122      3404.5616     -17085.56       1.0363091    
   2408000   304.76143     -262.46647      55555.93      -20521.48       3409.3601     -17112.12       1.0268473    
   2409000   297.6018       555.06642      55270.236     -20538.702      3329.2654     -17209.436      1.0321551    
   2410000   303.18272     -186.44743      54996.576     -20407.92       3391.6991     -17016.221      1.0372911    
   2411000   302.51405      4.9348578      55151.999     -20264.696      3384.2187     -16880.478      1.0343679    
   2412000   302.33653      99.13826       55250.853     -20455.34       3382.2327     -17073.108      1.0325172    
   2413000   299.76389      471.54519      55141.355     -20421.796      3353.4526     -17068.343      1.0345676    
   2414000   299.0894      -98.824793      55133.602     -20425.047      3345.9071     -17079.14       1.034713     
   2415000   293.65283     -1381.1862      55509.646     -20475.958      3285.0884     -17190.87       1.0277035    
   2416000   298.10413     -312.05412      55078.084     -20563.865      3334.885      -17228.98       1.035756     
   2417000   309.3423      -389.01533      55676.583     -20452.268      3460.6062     -16991.662      1.0246221    
   2418000   300.37953     -526.40253      54775.672     -20487.151      3360.3399     -17126.811      1.0414743    
   2419000   297.1366      -21.14754       54885.322     -20371.061      3324.0612     -17047          1.0393937    
   2420000   310.81966     -138.62037      55026.655     -20514.851      3477.1334     -17037.718      1.0367241    
   2421000   298.79011      96.444243      55039.606     -20600.513      3342.559      -17257.954      1.0364801    
   2422000   295.51896      91.807223      54818.58      -20563.505      3305.9648     -17257.541      1.0406592    
   2423000   305.37923     -688.21233      55746.066     -20472.057      3416.2713     -17055.785      1.023345     
   2424000   295.07044     -439.4722       55143.657     -20530.305      3300.9472     -17229.358      1.0345244    
   2425000   302.46418      526.7111       54838.655     -20471.78       3383.6608     -17088.12       1.0402782    
   2426000   294.1887       606.30832      55172.58      -20570.33       3291.0831     -17279.247      1.033982     
   2427000   294.17772     -167.58069      54935.275     -20539.642      3290.9603     -17248.682      1.0384486    
   2428000   296.84341     -747.26995      55068.625     -20386.968      3320.7814     -17066.186      1.0359339    
   2429000   305.45146      596.19707      55065.503     -20417.615      3417.0794     -17000.536      1.0359927    
   2430000   299.41332     -309.10086      55543.271     -20452.319      3349.5309     -17102.789      1.0270814    
   2431000   300.09047     -1324.2095      55089.584     -20520.731      3357.1061     -17163.625      1.0355398    
   2432000   299.32129      83.911203      55339.185     -20421.563      3348.5014     -17073.062      1.0308691    
   2433000   301.16135     -792.05794      55089.71      -20425.417      3369.086      -17056.331      1.0355374    
   2434000   296.37842     -24.855531      55076.371     -20488.277      3315.5795     -17172.698      1.0357883    
   2435000   300.28821     -418.87728      55076.686     -20322.119      3359.3182     -16962.801      1.0357823    
   2436000   301.02247      159.25641      55273.255     -20515.648      3367.5323     -17148.115      1.0320987    
   2437000   290.00506     -11.904153      54864.038     -20533.217      3244.2809     -17288.937      1.0397969    
   2438000   301.91048      139.03703      55469.522     -20457.331      3377.4665     -17079.865      1.0284469    
   2439000   299.46655      341.06276      55243.898     -20435.807      3350.1263     -17085.68       1.0326472    
   2440000   299.58741     -224.30332      55060.677     -20439.191      3351.4784     -17087.712      1.0360835    
   2441000   301.98579     -798.48337      55193.006     -20475.646      3378.309      -17097.337      1.0335994    
   2442000   300.16748     -222.42662      54695.035     -20534.775      3357.9676     -17176.808      1.0430098    
   2443000   298.88164     -80.880221      54924.827     -20447.898      3343.583      -17104.315      1.0386461    
   2444000   296.74339      369.2895       55013.553     -20416.297      3319.6624     -17096.635      1.036971     
   2445000   302.93578     -352.93729      55448.007     -20442.337      3388.9366     -17053.4        1.0288459    
   2446000   301.09345     -128.52077      55678.084     -20483.291      3368.3264     -17114.965      1.0245945    
   2447000   292.6663       378.70306      55062.5       -20443.5        3274.0521     -17169.448      1.0360492    
   2448000   303.92661      422.33748      54385.838     -20541.617      3400.0209     -17141.596      1.0489396    
   2449000   299.34056     -110.84946      54749.2       -20643.464      3348.7169     -17294.747      1.0419779    
   2450000   293.97798      148.42908      54712.472     -20527.53       3288.7258     -17238.805      1.0426774    
   2451000   299.53458      226.90067      54764.546     -20487.578      3350.8874     -17136.691      1.0416859    
   2452000   304.69131     -423.67535      54498.006     -20626.198      3408.5757     -17217.623      1.0467806    
   2453000   289.59862      69.81867       54925.314     -20588.093      3239.7339     -17348.359      1.0386369    
   2454000   297.02745      32.013004      55843.683     -20465.013      3322.8402     -17142.173      1.0215561    
   2455000   301.5108      -251.17017      55756.609     -20546.688      3372.9953     -17173.693      1.0231515    
   2456000   302.21729      589.8483       54799.8       -20540.501      3380.8988     -17159.602      1.0410158    
   2457000   302.76189     -837.98028      54979.621     -20547.855      3386.9913     -17160.864      1.037611     
   2458000   303.58664      288.1294       55118.382     -20536.51       3396.2177     -17140.292      1.0349988    
   2459000   297.10239      160.03534      55082.151     -20483.419      3323.6785     -17159.741      1.0356796    
   2460000   300.57127     -55.237424      55146.483     -20438.536      3362.4848     -17076.051      1.0344714    
   2461000   296.27918      810.94187      54814.072     -20437.275      3314.4693     -17122.806      1.0407447    
   2462000   306.27334     -277.43598      54983.556     -20488.526      3426.2737     -17062.252      1.0375367    
   2463000   295.52977     -130.19479      54933.539     -20601.083      3306.0857     -17294.997      1.0384814    
   2464000   304.6297       599.04252      54958.351     -20506.852      3407.8864     -17098.965      1.0380125    
   2465000   304.55412      71.766643      54999.391     -20502.414      3407.0408     -17095.373      1.037238     
   2466000   304.26379      349.32462      55122.662     -20457.191      3403.7929     -17053.398      1.0349184    
   2467000   299.60459      138.50014      54967.64      -20502.208      3351.6705     -17150.537      1.0378371    
   2468000   299.07188      136.91324      55081.735     -20597.821      3345.7111     -17252.11       1.0356874    
   2469000   300.90238      547.95446      55165.754     -20568.412      3366.189      -17202.223      1.03411      
   2470000   296.00358     -643.31493      54635.122     -20394.932      3311.3862     -17083.546      1.0441536    
   2471000   302.34527     -32.88408       54987.278     -20545.221      3382.3305     -17162.89       1.0374665    
   2472000   295.49916      164.94435      54796.837     -20563.901      3305.7432     -17258.158      1.0410721    
   2473000   295.17874     -801.30913      54942.682     -20477.54       3302.1587     -17175.382      1.0383086    
   2474000   304.27536     -372.1164       54965.837     -20451.967      3403.9224     -17048.044      1.0378712    
   2475000   300.27435     -55.365343      55185.803     -20534.872      3359.1632     -17175.709      1.0337343    
   2476000   302.5307       259.59523      55416.36      -20414.187      3384.4049     -17029.782      1.0294335    
   2477000   300.28218     -313.85988      55367.149     -20605.532      3359.2507     -17246.281      1.0303485    
   2478000   302.93744     -83.452035      55328.689     -20444.181      3388.9551     -17055.226      1.0310647    
   2479000   302.39476     -690.4993       55752.497     -20483.268      3382.8842     -17100.384      1.023227     
   2480000   294.50059     -34.496707      55335.989     -20460.253      3294.5722     -17165.681      1.0309287    
   2481000   298.52372      368.30541      54953.855     -20533.429      3339.579      -17193.85       1.0380975    
   2482000   296.73077      458.91646      55161.069     -20608.552      3319.5212     -17289.03       1.0341978    
   2483000   299.72965     -123.32961      54873.463     -20712.772      3353.0697     -17359.703      1.0396183    
   2484000   296.76464     -154.88898      55062.048     -20483.835      3319.9001     -17163.935      1.0360577    
   2485000   299.24323      47.46396       55433.496     -20479.177      3347.628      -17131.549      1.0291153    
   2486000   296.28381      1039.3302      54677.454     -20431.377      3314.5211     -17116.856      1.0433452    
   2487000   295.34997      234.65509      55750.586     -20576.68       3304.0742     -17272.605      1.023262     
   2488000   306.45422     -4.9837212      55075.336     -20514.128      3428.2973     -17085.831      1.0358077    
   2489000   304.80312      637.90144      55605.322     -20459.165      3409.8265     -17049.339      1.0259352    
   2490000   298.24858     -223.84872      55517.018     -20455.254      3336.5009     -17118.753      1.027567     
   2491000   298.63977      498.01937      55008.069     -20377.192      3340.8772     -17036.315      1.0370744    
   2492000   303.69082     -331.86197      55062.627     -20499.04       3397.3832     -17101.657      1.0360468    
   2493000   298.69567      344.61416      55157.668     -20534.67       3341.5025     -17193.167      1.0342616    
   2494000   295.09797     -19.509239      55650.482     -20482.575      3301.2551     -17181.32       1.0251027    
   2495000   301.43537     -796.08121      55252.149     -20463.491      3372.1515     -17091.339      1.032493     
   2496000   302.7985      -253.06977      55202.68      -20504.18       3387.4008     -17116.779      1.0334183    
   2497000   303.66135      36.624479      55577.432     -20502.161      3397.0535     -17105.108      1.0264501    
   2498000   296.1392       227.01507      55285.396     -20493.167      3312.9034     -17180.263      1.0318721    
   2499000   302.69837      58.9612        54734.897     -20397.336      3386.2806     -17011.055      1.0422502    
   2500000   301.58507     -464.17462      55280.918     -20394.63       3373.8261     -17020.804      1.0319557    
   2501000   301.56539      500.93328      55066.92      -20476.203      3373.606      -17102.597      1.035966     
   2502000   298.0855      -187.30216      55208.444     -20441.669      3334.6765     -17106.992      1.0333104    
   2503000   294.34062      358.88941      55118.314     -20571.16       3292.7827     -17278.377      1.035        
   2504000   296.59981     -58.603769      55085.673     -20606.153      3318.0561     -17288.097      1.0356133    
   2505000   301.60532      1255.839       55244.886     -20593.379      3374.0527     -17219.326      1.0326287    
   2506000   301.20979      176.62073      55740.736     -20539.154      3369.6279     -17169.526      1.0234428    
   2507000   301.14026      385.50564      55566.935     -20475.959      3368.8501     -17107.109      1.026644     
   2508000   307.93521      191.98374      55085.699     -20494.545      3444.865      -17049.68       1.0356129    
   2509000   298.57512     -399.35406      54972.464     -20503.347      3340.1539     -17163.193      1.0377461    
   2510000   297.61193      73.880978      55354.5       -20428.065      3329.3787     -17098.686      1.0305839    
   2511000   296.59161      269.21905      55054.834     -20530.28       3317.9645     -17212.316      1.0361934    
   2512000   312.84169     -222.95118      55197.562     -20513.199      3499.7538     -17013.445      1.0335141    
   2513000   304.13396      347.35465      55138.296     -20509.058      3402.3405     -17106.717      1.034625     
   2514000   291.94827      464.70353      55233.062     -20517.879      3266.0195     -17251.859      1.0328498    
   2515000   306.38092     -215.0447       55555.857     -20515.671      3427.4773     -17088.194      1.0268487    
   2516000   299.06282     -263.50709      55077.036     -20437.512      3345.6098     -17091.903      1.0357757    
   2517000   298.17656      441.25306      54824.32      -20598.018      3335.6953     -17262.323      1.0405502    
   2518000   298.19054      129.37467      54902.314     -20479.626      3335.8516     -17143.774      1.039072     
   2519000   296.43388      428.75516      55230.293     -20490.608      3316.1999     -17174.408      1.0329016    
   2520000   297.69117      793.98334      54882.415     -20496.778      3330.2652     -17166.513      1.0394487    
   2521000   297.88198      38.019963      55459.779     -20528.341      3332.3998     -17195.941      1.0286276    
   2522000   296.06104      413.96259      55325.331     -20527.846      3312.029      -17215.817      1.0311273    
   2523000   311.25043     -201.41689      55000.187     -20403.122      3481.9523     -16921.169      1.037223     
   2524000   301.18748      412.29407      54446.921     -20613.833      3369.3783     -17244.455      1.0477628    
   2525000   302.01021     -680.26223      55284.997     -20467.231      3378.5823     -17088.648      1.0318796    
   2526000   302.20283      474.41546      54996.504     -20518.996      3380.7371     -17138.258      1.0372924    
   2527000   298.89291      188.24336      55079.651     -20407.26       3343.709      -17063.551      1.0357266    
   2528000   304.90892      40.515684      54708.155     -20412.288      3411.0101     -17001.278      1.0427597    
   2529000   299.71885     -187.9843       54616.844     -20499.006      3352.9488     -17146.057      1.044503     
   2530000   298.71423     -54.854517      55457.303     -20436.478      3341.7101     -17094.768      1.0286735    
   2531000   293.57289     -401.32586      55235.273     -20482.491      3284.1941     -17198.297      1.0328085    
   2532000   301.67974      283.1371       55278.299     -20488.734      3374.8852     -17113.849      1.0320046    
   2533000   300.97374      202.77486      55178.134     -20461.32       3366.9872     -17094.333      1.033878     
   2534000   300.22823      1245.3711      55134.744     -20548.985      3358.6473     -17190.338      1.0346916    
   2535000   305.71399      93.272213      55231.972     -20557.269      3420.0163     -17137.253      1.0328702    
   2536000   302.86955     -563.57045      55319.064     -20545.097      3388.1956     -17156.901      1.0312441    
   2537000   305.15746      2.0724429      54974.314     -20687.007      3413.7905     -17273.216      1.0377111    
   2538000   296.88908      569.20148      54550.328     -20477.072      3321.2923     -17155.78       1.0457766    
   2539000   293.696       -137.76333      55291.14      -20419.112      3285.5714     -17133.541      1.0317649    
   2540000   296.33178     -655.26786      55490.756     -20525.509      3315.0577     -17210.451      1.0280534    
   2541000   306.90631     -307.42586      54761.639     -20530.074      3433.3547     -17096.719      1.0417412    
   2542000   301.94041     -145.24088      55072.628     -20484.825      3377.8013     -17107.023      1.0358586    
   2543000   299.92215      40.208741      54829.868     -20522.962      3355.2231     -17167.739      1.0404449    
   2544000   306.26254     -225.61176      55153.044     -20566.665      3426.1529     -17140.512      1.0343483    
   2545000   296.01713      195.4993       54673.308     -20623.486      3311.5377     -17311.948      1.0434243    
   2546000   293.87546      212.21826      54368.289     -20493.007      3287.579      -17205.429      1.0492782    
   2547000   296.86836      585.35218      54615.709     -20470.671      3321.0604     -17149.61       1.0445247    
   2548000   310.0008       278.3485       55002.949     -20436.428      3467.9727     -16968.455      1.0371709    
   2549000   300.89851      103.05659      55087.292     -20403.334      3366.1457     -17037.189      1.0355829    
   2550000   300.41608     -213.86918      55188.304     -20420.348      3360.7487     -17059.599      1.0336874    
   2551000   299.75123     -799.61485      55365.88      -20445.922      3353.311      -17092.611      1.0303721    
   2552000   302.50449      259.9918       54552.001     -20447.513      3384.1117     -17063.401      1.0457446    
   2553000   299.60836     -454.31449      55364.093     -20431.949      3351.7127     -17080.237      1.0304054    
   2554000   302.32721     -606.19816      55008.872     -20480.964      3382.1285     -17098.836      1.0370592    
   2555000   296.17787      328.62085      54885.158     -20573.254      3313.3359     -17259.918      1.0393968    
   2556000   295.73922      466.79967      55363.16      -20547.092      3308.4287     -17238.664      1.0304227    
   2557000   303.14903      451.08074      54839.982     -20537.453      3391.3222     -17146.131      1.040253     
   2558000   303.78982     -116.37937      55636.444     -20395.61       3398.4906     -16997.119      1.0253613    
   2559000   302.54578      342.66581      55718.692     -20378.176      3384.5736     -16993.602      1.0238478    
   2560000   298.4581       492.01097      55069.813     -20514.547      3338.8448     -17175.702      1.0359116    
   2561000   299.9056      -207.24497      54964.344     -20404.162      3355.038      -17049.124      1.0378994    
   2562000   303.43182      253.47794      55581.502     -20472.164      3394.4858     -17077.678      1.0263749    
   2563000   302.57758     -102.84515      55143.459     -20483.053      3384.9294     -17098.124      1.0345281    
   2564000   302.33886      314.21009      55256.826     -20315.529      3382.2588     -16933.27       1.0324056    
   2565000   306.36284      731.1087       55125.535     -20343.092      3427.275      -16915.817      1.0348645    
   2566000   294.72333      2.6456637      55251.218     -20447.996      3297.064      -17150.932      1.0325104    
   2567000   298.87804      164.50174      55205.873     -20516.859      3343.5427     -17173.316      1.0333585    
   2568000   298.52253      355.65276      55448.008     -20479.484      3339.5656     -17139.919      1.0288459    
   2569000   305.91549      150.7793       54792.284     -20530.458      3422.2705     -17108.187      1.0411586    
   2570000   297.81189     -471.31436      54932.903     -20605.293      3331.6157     -17273.677      1.0384934    
   2571000   305.90175     -269.54039      54971.445     -20500.524      3422.1168     -17078.407      1.0377653    
   2572000   301.81102     -181.37062      54861.332     -20370.332      3376.3538     -16993.978      1.0398482    
   2573000   298.14302     -365.58637      55274.856     -20593.737      3335.32       -17258.417      1.0320689    
   2574000   295.42877     -509.39656      55673.807     -20526.27       3304.9558     -17221.314      1.0246732    
   2575000   298.84893      558.81173      54881.289     -20463.059      3343.2171     -17119.842      1.0394701    
   2576000   305.46402     -236.12504      55302.466     -20386.854      3417.22       -16969.634      1.0315536    
   2577000   300.21793      60.710892      55036.462     -20610.02       3358.532      -17251.488      1.0365393    
   2578000   296.54547      211.82667      54490.008     -20565.394      3317.4483     -17247.946      1.0469343    
   2579000   292.29902     -31.495982      54850.36      -20603.952      3269.9433     -17334.009      1.0400562    
   2580000   292.24032     -185.615        55065.7       -20492.477      3269.2867     -17223.19       1.035989     
   2581000   308.23902      128.50768      54767.684     -20585          3448.2638     -17136.736      1.0416263    
   2582000   295.89192     -281.45598      55704.049     -20469.544      3310.1371     -17159.407      1.0241169    
   2583000   312.63934      322.88899      54954.835     -20538.637      3497.4901     -17041.147      1.038079     
   2584000   297.71129      18.150641      55375.942     -20490.563      3330.4903     -17160.073      1.0301849    
   2585000   303.85155      271.73428      54747.213     -20461.437      3399.1812     -17062.255      1.0420157    
   2586000   305.67227     -140.88082      54649.396     -20479.321      3419.5496     -17059.772      1.0438808    
   2587000   306.10344      853.43397      54685.712     -20467.431      3424.3731     -17043.058      1.0431876    
   2588000   294.38178     -550.10014      55558.712     -20551.121      3293.2431     -17257.878      1.0267959    
   2589000   298.85976     -47.714601      55635.24      -20484.548      3343.3382     -17141.209      1.0253835    
   2590000   301.0015      -147.3659       55555.616     -20520.374      3367.2978     -17153.077      1.0268531    
   2591000   303.87148      17.532597      55127.289     -20474.679      3399.4042     -17075.275      1.0348315    
   2592000   301.66309      186.5144       55545.124     -20573.913      3374.699      -17199.214      1.0270471    
   2593000   293.73077     -914.1003       55245.143     -20489.701      3285.9603     -17203.741      1.0326239    
   2594000   299.72352     -0.99676141     54733.888     -20568.633      3353.0011     -17215.632      1.0422694    
   2595000   294.99037      204.82246      54915.393     -20482.315      3300.0514     -17182.263      1.0388245    
   2596000   297.96307      632.18827      54709.585     -20555.659      3333.3069     -17222.352      1.0427324    
   2597000   290.15989     -180.43832      55020.43      -20382.234      3246.013      -17136.221      1.0368414    
   2598000   299.87946     -290.13803      55131.134     -20461.547      3354.7455     -17106.801      1.0347594    
   2599000   296.80791     -517.78572      55116.423     -20490.975      3320.3842     -17170.591      1.0350356    
   2600000   304.70558      79.085925      54510.338     -20472.577      3408.7353     -17063.842      1.0465438    
   2600010   299.521        248.38816      54495.702     -20445.945      3350.7355     -17095.209      1.0468249    
Loop time of 57544.5 on 4 procs for 2000000 steps with 5541 atoms

Performance: 6.006 ns/day, 3.996 hours/ns, 34.756 timesteps/s, 192.581 katom-step/s
305.6% CPU use with 1 MPI tasks x 4 OpenMP threads

MPI task timing breakdown:
Section |  min time  |  avg time  |  max time  |%varavg| %total
---------------------------------------------------------------
Pair    | 1253.9     | 1253.9     | 1253.9     |   0.0 |  2.18
Bond    | 20.905     | 20.905     | 20.905     |   0.0 |  0.04
Kspace  | 25978      | 25978      | 25978      |   0.0 | 45.14
Neigh   | 70.858     | 70.858     | 70.858     |   0.0 |  0.12
Comm    | 602.95     | 602.95     | 602.95     |   0.0 |  1.05
Output  | 26.693     | 26.693     | 26.693     |   0.0 |  0.05
Modify  | 29377      | 29377      | 29377      |   0.0 | 51.05
Other   |            | 214.5      |            |       |  0.37

Nlocal:           5541 ave        5541 max        5541 min
Histogram: 1 0 0 0 0 0 0 0 0 0
Nghost:          35571 ave       35571 max       35571 min
Histogram: 1 0 0 0 0 0 0 0 0 0
Neighs:    4.73433e+06 ave 4.73433e+06 max 4.73433e+06 min
Histogram: 1 0 0 0 0 0 0 0 0 0

Total # of neighbors = 4734334
Ave neighs/atom = 854.4187
Ave special neighs/atom = 2.4872767
Neighbor list builds = 186688
Dangerous builds = 0

unfix mynpt
undump prod_traj
undump prod_dcd
undump prod_img
unfix thermo_avg
unfix thermo_detailed
unfix rdf_CO_avg
unfix rdf_CC_avg
unfix rdf_OO_avg
unfix msd_avg
uncompute rdf_CO
uncompute rdf_CC
uncompute rdf_OO
uncompute msd_water

#==============================================================================
# FINAL OUTPUT AND VERIFICATION
#==============================================================================
print ""

print "===== Saving Final Configuration ====="
===== Saving Final Configuration =====

write_data equilibrated_system.data
System init for write_data ...
PPPM initialization ...
  extracting TIP4P info from pair style
  using 12-bit tables for long-range coulomb
  G vector (1/distance) = 0.28825254
  grid = 50 50 50
  stencil order = 5
  estimated absolute RMS force accuracy = 0.00033105066
  estimated relative force accuracy = 9.9694924e-07
  using double precision FFTW3
  3d grid and FFT values/proc = 205379 125000
Generated 0 of 3 mixed pair_coeff terms from geometric mixing rule
WARNING: Not all mixed pair coeffs generated from mixing. Use write_data with 'pair ij' option to store all pair coeffs. (src/write_data.cpp:364)
write_restart equilibrated_system.restart
System init for write_restart ...
PPPM initialization ...
  extracting TIP4P info from pair style
  using 12-bit tables for long-range coulomb
  G vector (1/distance) = 0.28825254
  grid = 50 50 50
  stencil order = 5
  estimated absolute RMS force accuracy = 0.00033105066
  estimated relative force accuracy = 9.9694924e-07
  using double precision FFTW3
  3d grid and FFT values/proc = 205379 125000
Generated 0 of 3 mixed pair_coeff terms from geometric mixing rule

print ""

print "â•â•â•â•â•â•â•â•â•â•â•â•â•â•â•â•â•â•â•â•â•â•â•â•â•â•â•â•â•â•â•â•â•â•â•â•â•â•â•â•â•â•â•â•â•â•â•â•â•â•â•â•â•â•â•â•â•â•â•â•â•â•â•â•â•â•â•â•â•â•â•â•â•â•â•â•"
••••••••••••••••••••••••••••••••••••••••••••••••••••••••••••••••••••••••••••
print "                     EQUILIBRATION COMPLETE - SUCCESS!"
                     EQUILIBRATION COMPLETE - SUCCESS!
print "â•â•â•â•â•â•â•â•â•â•â•â•â•â•â•â•â•â•â•â•â•â•â•â•â•â•â•â•â•â•â•â•â•â•â•â•â•â•â•â•â•â•â•â•â•â•â•â•â•â•â•â•â•â•â•â•â•â•â•â•â•â•â•â•â•â•â•â•â•â•â•â•â•â•â•â•"
••••••••••••••••••••••••••••••••••••••••••••••••••••••••••••••••••••••••••••
print ""

print "Simulation Summary:"
Simulation Summary:
print "  Total simulation time: 5.22 ns"
  Total simulation time: 5.22 ns
print "    - NVT thermalization:     50 ps"
    - NVT thermalization:     50 ps
print "    - Pre-equilibration:      50 ps  (NEW - prevents PPPM artifacts)"
    - Pre-equilibration:      50 ps  (NEW - prevents PPPM artifacts)
print "    - Pressure ramp:         100 ps  (EXTENDED and with drag damping)"
    - Pressure ramp:         100 ps  (EXTENDED and with drag damping)
print "    - NPT equilibration:    1000 ps"
    - NPT equilibration:    1000 ps
print "    - Production run:       4000 ps (4 ns)"
    - Production run:       4000 ps (4 ns)
print ""


# Final measurements
variable final_temp equal temp
variable final_press equal press
variable final_dens equal density
variable final_vol equal vol
variable final_boxsize equal vol^(1.0/3.0)
variable final_pe equal pe
variable final_ke equal ke
variable final_etotal equal etotal

print "Final Thermodynamic State:"
Final Thermodynamic State:
print "  Temperature:    ${final_temp} K      (target: 300K)"
  Temperature:    299.521003104344 K      (target: 300K)
print "  Pressure:       ${final_press} atm   (target: 1 atm)"
  Pressure:       248.388158648292 atm   (target: 1 atm)
print "  Density:        ${final_dens} g/cmÂ³  (target: 0.95-1.05)"
  Density:        1.04682489964004 g/cm³  (target: 0.95-1.05)
print "  Volume:         ${final_vol} Ã…Â³"
  Volume:         54495.7018464245 …³
print "  Box size:       ${final_boxsize} Ã…    (expected: 58-63)"
  Box size:       37.9129359115088 …    (expected: 58-63)
print ""

print "Final Energies:"
Final Energies:
print "  Potential:      ${final_pe} kcal/mol"
  Potential:      -20445.9449248635 kcal/mol
print "  Kinetic:        ${final_ke} kcal/mol"
  Kinetic:        3350.73550654688 kcal/mol
print "  Total:          ${final_etotal} kcal/mol"
  Total:          -17095.2094183166 kcal/mol
print ""


# Comprehensive validation
if "${final_dens} >= 0.85 && ${final_dens} <= 1.15" then     "print 'âœ… SUCCESS: System equilibrated to LIQUID PHASE!'"     "print ''"     "print 'Quality Indicators:'"     "if '${final_dens} >= 0.95 && ${final_dens} <= 1.05' then 'print \"  âœ“ Density: EXCELLENT (within 5% of water)\"' else 'print \"  âš  Density: ACCEPTABLE (but check TIP4P/2005 reference)\"'"     "if '${final_press} >= -50.0 && ${final_press} <= 50.0' then 'print \"  âœ“ Pressure: EXCELLENT (normal fluctuations)\"' else 'print \"  âš  Pressure: CHECK (may need longer equilibration)\"'"     "if '${final_temp} >= 295.0 && ${final_temp} <= 305.0' then 'print \"  âœ“ Temperature: EXCELLENT\"' else 'print \"  âš  Temperature: CHECK (thermostat may need tuning)\"'" else     "print 'âš ï¸  WARNING: Density ${final_dens} g/cmÂ³ outside normal range'"     "print 'Expected: 0.95-1.05 g/cmÂ³ for TIP4P/2005 water at 300K, 1 atm'"     "print ''"     "print 'Possible explanations:'"     "print '  - System still equilibrating (try longer NPT)'"     "print '  - Force field parameters incorrect'"     "print '  - Nanoparticle affecting bulk water density'"
ERROR: Input line quote not followed by white-space (src/input.cpp:556)
Last input line: if "${final_dens} >= 0.85 && ${final_dens} <= 1.15" then "print 'âœ… SUCCESS: System equilibrated to LIQUID PHASE!'" "print ''" "print 'Quality Indicators:'" "if '${final_dens} >= 0.95 && ${final_dens} <= 1.05' then 'print \" âœ“ Density: EXCELLENT (within 5% of water)\"' else 'print \" âš  Density: ACCEPTABLE (but check TIP4P/2005 reference)\"'" "if '${final_press} >= -50.0 && ${final_press} <= 50.0' then 'print \" âœ“ Pressure: EXCELLENT (normal fluctuations)\"' else 'print \" âš  Pressure: CHECK (may need longer equilibration)\"'" "if '${final_temp} >= 295.0 && ${final_temp} <= 305.0' then 'print \" âœ“ Temperature: EXCELLENT\"' else 'print \" âš  Temperature: CHECK (thermostat may need tuning)\"'" else "print 'âš ï¸ WARNING: Density ${final_dens} g/cmÂ³ outside normal range'" "print 'Expected: 0.95-1.05 g/cmÂ³ for TIP4P/2005 water at 300K, 1 atm'" "print ''" "print 'Possible explanations:'" "print ' - System still equilibrating (try longer NPT)'" "print ' - Force field parameters incorrect'" "print ' - Nanoparticle affecting bulk water density'"
